##TITLE=Aspirin
##JCAMP-DX=6.00
##DATA TYPE= NMR SPECTRUM
##DATA CLASS= XYDATA
##ORIGIN=
##OWNER=
##.SHIFT REFERENCE=INTERNAL, , 1, 12
##.OBSERVE FREQUENCY=500
##.OBSERVE NUCLEUS=1H
##.SOLVENT=
##$OFFSET=-1
##$SW=13
##$BF1=500
##XUNITS=HZ
##YUNITS=ARBITRARY UNITS
##XFACTOR=0.09918364232852674
##YFACTOR=0.04656612875245797
##DELTAX=0.09918364232851218
##FIRSTX=0
##FIRSTY=0
##LASTX=6500
##MAXY=100000000
##MINY=0
##NPOINTS=65536
##XYDATA=(X++(Y..Y))
65535@%S5687L0356N8725J58458M03802R71527K205972M724986R541348J8152012L2506350N4734525Q6533603
49836B10021664J28208558J77556216K29008334K73591445L00166805K98007157K60141951J86339587Q4441930
49827B147483647l0775832j41098098k29584201k84827037l03282549k89047457k51505979k01992006j50739789
49818B64630699j04986183o8448267m1866473k4062961j3012161o626567l180547j439662o14876k47894r4374n0734%T6717
23089@K254M145J0800K6578O2780J37326K85112N58666J032832J800949K960743M587059O694676R195817J1879655
23074C9239392J4413888J6392079J7415140J7182158J5577754J2709420Q905000M665388N88372k725693m778890
23063A39584008n280647m230909j950940R63246L765607N731341O321575N291536K718022j045756n459802r902391
23051A36504890j3772726j6583139j8033236j8053423j6801380j4615125j1919714r132667o579607m463057k851560
23040C699256j717036r74797n21980k63721j25754n6890k3871r604l648j955%T1R89J951N339J3797L3667P8938
23003A34681J71164L52398O84719J255220K170233L537553N433914P862560J0706159J3708757J6482614J8567702
22991H1067674J9526990J9046920J7032445J3640875R272969M514500M6785l462787n481335n727945m260993j500367
22979A43715731J840394M907030O901577P262031N771438K574734j882920o963061j1954518j6189261j9144688
22968A16838487k0522747k0290994j8668735j6064089j2964854r832285p013037m710206k980187j777207r99328
22957A014818n30049k65280j26156n5315k3354r308l504j852%U37J373K620P000J7664M2081R4605K00613M01019
22604G66975P55122J338211K229394L486226N107001O990827Q904284J0495965J1346235J1075902R475313O613002
22592G8584457K875525j089598m520071o730970p291984o136823l578606k35527L108048N671940O848644O337271
22580G3842306M211865R01349k921189o513106r248740j0759275j0985167j0134874q578097o720625m899946l338631
22568D855870k131157j276996p19341l81370j90465q9672l9821j6688o603k467j290%T1J657L160Q445K1311N0773
22531H5346J15428K44531M90534R28074J655322K781917M402605O556534R182346J2076513J4898991J7208402
22519G0626543J8554329J8590284J7167407J4391211J0599668O296221K054346j574811m139807n353378n146756
22508A42065257l703236j448158J022814L070592M158320L965939K437631k41329l712359p521791j1188749j4262283
22496A14642648j6376600j7306679j7006363j5624887j3460039j0889881q283876n927427l993471k534030j515127
22485A724268q53971m53901k27592j08177m7763k0180q048l032j604%T1J569L020Q121K0624M9453J11902K38852
22448D33541M80629R11127J625735K727335M295513O339331Q745085J1231113J3358507J4589086J4418902J2543968
22436I1699872R006595M259083q95550n481202q593036r630888q450913n397835j220181L100233O562088Q359102
22424H3317368Q054833N679313J717821l014768p585439j1178695j3282807j3771281j2865594j1009519q712475
22413A7348757o411980m408185k838315j715093r74112n20640k62105j24378n5668k3511r374l529j867%T13JTMRJ8L8
22181G1P3J31K24L59N38P55R88J197J336J354J215R12M73m0n46r68j247j361j321j169r52p21n08l35k08j21o6l4j6ql
22150BjT%T2JTLPJ6L3O4J18K02L28M97P08R37J154J308J353J245R74N60N9m53q91j199j342j330j196r89p58n42l62
22096E06k26j34p4l8j9rlkj%U56J499K890P781J9786M7501J07616K29991M63381Q79552J571431K639725M163179
21719A0134332O152675Q498432J0930425J3019636J4235707J4077530J2228124Q698051L887581j467077o456681
21708I3938735j0217916j2132536j1943684r767188o020991j320731L616755Q048671J1275524J2727611J2073686
21697I0277936R324612M882284n09957n923215j0464605j3490311j4736477j4329768j2682775j0344319p830945
21686A4172460n528559l651798k262079j316320p20502l71339j80352q2597l5689j4555n605k039j026%S8J266K442
21653C708O574J6717M0134R2489J97311L99500P63272J375609K337826L745079N652593Q034157J0745835J3513224
21639D6924028J5951620J7634093J8176148J7325599J5023481J1417525O847780J798413l150530p380266j0305626
21628A30262265j1469764j0650292p945045l797625J063038N763345R467083J1542813J1668327R852008O384136
21617A52140289J751774l449803q593484j3088417j6444198j8347286j8702637j7652718j5535837j2796953r890763
21606A9389967p183269m907340l156072j912048j091768n87810k98534j43070o4988k7458j1094m233k283%S9J330
21573A330K533O764J7058M0608R1229J93312L86143P26572J286643K141835L346657M898527O698178Q522788
21559B8360177J0033042J0823519J0528092Q937170O100498K362416j692095n370050q037677r264483q899922
21548D3880687p071072m122685n36723L139387O348875Q579263R429733Q692495O424738K973626j074816n022772
21536G1640736q228167j0255793j0960244j0478329r141272p359882n505128l842584k510552j538730q86164m80141
21524D53750k44990j17814n3429k2862r234l522j899%S387J064K091N706J4704L5781Q3642J80859L71281P19299
20121A414427J314687K266151L682430N638404Q130260J1031977J4071615J6847629J8880318J9719333J9037350
20110A22034581J6717348J2884683P900356K307792l232162q018058j1395463j2858790j2158078r383665m992646
20099I9805898K48676N404609R558317J1994560J2325343J0530375O916618K026110l472384q883698j3571854
20088A32882570j7034466j8963583j9289645j8178013j5985340j3167525j0185710p409054n072699l271320j988145
20077B337070j139221o15698l13961j51100o9026k9194j1855m545k470%S9Q72J730M754J2334L0217P1048J54717
20042B75672L19762O23681J147664J991721L258610N023726P294009R966439J2802995J5441208J7438533J8368644
20030I3952664J7910236J5930929J2522083P995684K837987k349288o917891j0251260j1856647j1465103r115856
20019I9193538n190937l72860M477294Q493057J0977365J1528597J0087890O908411K472544k608832p690354
20008A38275713j2171841j5567389j7563037j8062408j7189516j5255680j2677530r891028p255304n008594l256383
19997D377003j995060j152325o27717l22606j56472p2043l0698j2562m853j772q95%S9986
0@
##END=