##TITLE=Aspirin
##JCAMP-DX=6.00
##DATA TYPE= NMR SPECTRUM
##DATA CLASS= XYDATA
##ORIGIN=
##OWNER=
##.SHIFT REFERENCE=INTERNAL, , 1, 220
##.OBSERVE FREQUENCY=500
##.OBSERVE NUCLEUS=13C
##.SOLVENT=
##$OFFSET=-5
##$SW=225
##$BF1=500
##XUNITS=HZ
##YUNITS=ARBITRARY UNITS
##XFACTOR=1.7166399633783473
##YFACTOR=0.04656612875245797
##DELTAX=1.716639963378384
##FIRSTX=0
##FIRSTY=0
##LASTX=112500
##MAXY=100000000
##MINY=0
##NPOINTS=65536
##XYDATA=(X++(Y..Y))
65535@%Y475R895138J701132209j711003668k3679%T9585KJ24115695M71700979n95816447k29%T37Q18Q43695659
28227H43696477p74073541o9622936%T64J738J017119706r69487232m7634212%T472J66172K147317475k145262524
25482B221123k221123%X16M1L51380678j08765106k42615600j3%V842M2013J859385700j852841400o586313%W332
14682@L7982J834067697j827017468p088211%S71K243504K143377195k145456470j64229%S4503
0@
##END=