##TITLE=Salicylic Acid
##JCAMP-DX=6.00
##DATA TYPE= NMR SPECTRUM
##DATA CLASS= XYDATA
##ORIGIN=
##OWNER=
##.SHIFT REFERENCE=INTERNAL, , 1, 12
##.OBSERVE FREQUENCY=500
##.OBSERVE NUCLEUS=1H
##.SOLVENT=
##$OFFSET=-1
##$SW=13
##$BF1=500
##XUNITS=HZ
##YUNITS=ARBITRARY UNITS
##XFACTOR=0.09918364232852674
##YFACTOR=0.04656612875245797
##DELTAX=0.09918364232851218
##FIRSTX=0
##FIRSTY=0
##LASTX=6500
##MAXY=100000000
##MINY=0
##NPOINTS=65536
##XYDATA=(X++(Y..Y))
65535@%V0514K0695L9151J04028K61033O18337J408650K963187N920020J1159580J9842026L3263920N2556050
25009A28156677P8230958J09612981J44483372J78958723K07950063K26116929K29049192K14494886J83007041
25000A700060822J38052594Q5490527L2633930j2922700m4588753n8065146n2424797l0646679P30968L2934573
24990A791255339N6962511O5666126N5259510K5882147j8765472p2409865j27463659j76321471k12576082k32045342
24980A155443742k33435754k18391932j91006455j56626241j20638373q7389571n9574461l8256210k3149655
24971B6975090j3206394p105461l606789j727856p85112l31100j33792n1051k7535%T5K6372M9231J29629L22314
24933E27546P67853J698010L561529P050308J3168013K3196573L8525797O0299300Q8910358J23386364J61063190
24922E22154841J97520937K27172374K44358307K44619941K25984416J89548556J39496688Q2455455K6433526
24913B099745041k0470032n1464637o2443046n3079144k7269039P419435M1328485O4937993P1051871N6276144
24903B126033071K1450576k8881705q7614029j46457644j97335673k33672057k51446460k49816026k31054240
24894G21205813j99894541j62199945j23654084q8672574n9849540l8054911k2803403j2883052o864916l451424
24884B877423j648227p26469l08033j23297m6604k4793%Z56J4052K7325P3990J89220M56880J041134K238107M536077
24014H576785Q661765J5569934K6317828M1772164O2142819Q6452740J12024960J34559094J48617848J48939288
24004G93635225J32120781R8183810N1358343l77108m7022718p9076821r0057436p8246645m7179754m817509
23994G28520168L8314790P1547764Q6511719P9069920N0267703N996334m4607076r1596204j26744511j45373952
23984F51906655j46966876j34524196j13084825q8052004o3823611m3247712k7459739j6368820r173933m839457
23974D365482k405046j126789m97970k07689q1779l0411j5798%S9J4171K7783P5658J94594M72557J083099K341929
23941D209791M774532R202422J6643202K8357454M5422585O8315760R6354297J27163576J56745420J79975453
23931G37164492J91919412J89459845J72671663J45272652J13676010Q5050246O4848154N5072675N3872834N6602138
23921A865610121N7766723N2987996M0267189K0291055m065424k8717704m9564585o3706077p0450315p1755208
23911A748663771p1762319p5369184q6268236j05262785j29672484j54082332j72389477j79771507j74292989
23902E99792458j57198958j32125142j03694714p6140877n2385359l3830134k0529089j1718316o303940l184324
23892B681605j520793o84997k91133j16806m4254k3622%T0L1344N8067J52097L76195Q78319J934854M019556P869858
23858A5320290J4510293K5169797M1023406O2721615Q9775175J19890082J48767032J70386355J78216402J67060194
23848A032840641J35061251Q5103778K4921791l4351648q0867992j05159074j02670083p4987272k9484789K2419960
23838H72826563O7911236R5705999R8639045P5311487L0349802k6875322q4771835j32551779j62812411j72893092
23828F60839693j64714973j43385664j15243723q6081614n9999159l9153921k3969968j3788902p462819l803729
23818C235221j827199q27760l53825j42765n4395k9277%S097K2231M2249J12614K83475O73644J510651L195251
22708E840115O370810J1965101K1148208L5136729N4792741Q0035525J09203247J38644395J62793289J75139925
22698H01070085J69810708J43572283R7448228L7268094k7240541q4636958j24522594j39949738j28778061r3768518
22688F50272988m1689130J8074646P5017041J18992592J41727188J38332820J08541883N7164785o661817p1476413
22678A188296583j26242143j62959432j78266866j73568344j53829148j25593692r5180825o7265331m4474631
22669F0916171k7575704j6061413q799414m539206k206550j011439m37409j78548o8816k5053j2619%S7J7843L4191
22639E2034R1656K32039N54590J250896K661337N337716J0085047J7934097L0007031M7100811O9310636R5364403
22627B79982293J22299305J45512352J59609673J59835006J43885577J13364452P4179655L5459053P120721l158823
22617A238089264P518757L6117750P4515921J11780995J37254418J43274781J26806430Q9719265L7968458j9838761
22607A983207278p4070547j15699841j37898988j37508117j16073363p9986690l9350085n592708J1648642P208708
22597A295884289j8008274n7511154j01355484j39238467j63400015j70365338j61113833j39910373j12426436
22588B32554915q4059176n8690935l8371306k3542105j3565922p358294l758589j809387q21430l51858j42269n4319
22576B9325k9325%S8J9800L7445R9471K49538N90970J320684K783725N530767J0350360J8227807L0172393M6872058
22545A16255018O8195462R2662623J17123865J36854755J46410439J40971006J18015905P8635440K7921565k5863102
22535A017182976p3158117j05410200j17045163j06537042p6425021l2525703J7245166O4126927R9750259J17394766
22525H04598848J13235521Q7330696M3937314r187268o2502285j06976220j36212845j47700903j42836416j25867289
22515C17819153j02237896p7112713n4251413l5715208k2051863j2791543o979852l586341j736543p92918l41591
22504B21272j38904n3335k9033%S958J8985L6375R7494K46789N89765J354275K874917N794484J1020029J9768941
20533D1802054L3439048N3310062Q0063019J13202073J50576359J88186212K20613770K41900765K46847669
20524A369941031K32276722J97825680J46246322Q2982325J5465330m7801900r8286905j28651866j34143911
20515A635852828j13902207p1712094j5736485M2944561R2677755J23760898J30360978J11315894O9784390J2114227
20505B017460745n3564728j18657610j75219698k16921294k39810912k42952415k28333809k00365901j64764930
20496C76869448j27219978r2377780o3132866m0636435k4647995j4094471p601288l867657j857239q46049l57506
20485B30184j44813n5389k9982%T0J2709K5002O8247J75946M28294J000161K164041M443035Q608233J5733538
20452C2659206K7118128M4059166O7445089R7219384J31863181J68142796K01214557K25473429K35595852K27826853
20442A458617641K00957125J56626588R9295793L5505828k6888772p9672622j15366817j28510927j16974447
20433A483589390q2902896l2817098K3418366P4615861J10700604J24796231J14356155Q1156341L0401662l0578265
20423A896736351r3630162j50893843j95750397k23646599k32689742k23907756k00836411j68652997j32900076
20414B73828368r8451912o8624377m5041497k7853393j6236061q924791m627939k264597j051716m52232j86649p2735
20402D0469k6770j3699%T0400
0@
##END=