##TITLE=Acetic Acid
##JCAMP-DX=6.00
##DATA TYPE= NMR SPECTRUM
##DATA CLASS= XYDATA
##ORIGIN=
##OWNER=
##.SHIFT REFERENCE=INTERNAL, , 1, 220
##.OBSERVE FREQUENCY=500
##.OBSERVE NUCLEUS=13C
##.SOLVENT=
##$OFFSET=-5
##$SW=225
##$BF1=500
##XUNITS=HZ
##YUNITS=ARBITRARY UNITS
##XFACTOR=1.7166399633783473
##YFACTOR=0.04656612875245797
##DELTAX=1.716639963378384
##FIRSTX=0
##FIRSTY=0
##LASTX=112500
##MAXY=100000000
##MINY=0
##NPOINTS=65536
##XYDATA=(X++(Y..Y))
65535@%Y483RK55263992L54949431o10213315j17%V5579J9839665K127643982k147465043j8604%S2464
0@
##END=