##TITLE=Acetic Acid
##JCAMP-DX=6.00
##DATA TYPE= NMR SPECTRUM
##DATA CLASS= XYDATA
##ORIGIN=
##OWNER=
##.SHIFT REFERENCE=INTERNAL, , 1, 12
##.OBSERVE FREQUENCY=500
##.OBSERVE NUCLEUS=1H
##.SOLVENT=
##$OFFSET=-1
##$SW=13
##$BF1=500
##XUNITS=HZ
##YUNITS=ARBITRARY UNITS
##XFACTOR=0.09918364232852674
##YFACTOR=0.04656612875245797
##DELTAX=0.09918364232851218
##FIRSTX=0
##FIRSTY=0
##LASTX=6500
##MAXY=100000000
##MINY=0
##NPOINTS=65536
##XYDATA=(X++(Y..Y))
65535@%S5269M7779Q9289K35273N85420J375062L047593O370159J2549721K3285047M0650296O6690272J02654762
50254B57580673J47938769J99012538K48835468K87307903L03092057K86613055K33410082J46576123L7116979
50245B147483647p8242983j81243508k56821018k96703799l00693865k75454850k31590198j80286777j30676658
50236B15769991q8520834n6188703l3484481j8761083r894120m915681k302416j017249m24150j66967o2074l2233%W0224
0@
##END=