##TITLE=Salicylic Acid
##JCAMP-DX=6.00
##DATA TYPE= NMR SPECTRUM
##DATA CLASS= XYDATA
##ORIGIN=
##OWNER=
##.SHIFT REFERENCE=INTERNAL, , 1, 220
##.OBSERVE FREQUENCY=500
##.OBSERVE NUCLEUS=13C
##.SOLVENT=
##$OFFSET=-5
##$SW=225
##$BF1=500
##XUNITS=HZ
##YUNITS=ARBITRARY UNITS
##XFACTOR=1.7166399633783473
##YFACTOR=0.04656612875245797
##DELTAX=1.716639963378384
##FIRSTX=0
##FIRSTY=0
##LASTX=112500
##MAXY=100000000
##MINY=0
##NPOINTS=65536
##XYDATA=(X++(Y..Y))
65535@%U4775Q070J440296297j419731025k0573342%S161K016J069387967j023985167m5404816%W50L6080671
29040C6080671J142185390j178262981l080%U316M3942J902847766j896296708o595000%S132J32192K147351455
24583B147483647k144691573k792074%Y948N6766294R07484853r64249836j311%U112J0558J515409351j498011443
13514A7408466j7408466%S3513
0@
##END=