##TITLE=Parameter file, TopSpin 4.4.1
##JCAMP-DX=6.00
##DATA TYPE= NMR SPECTRUM
##DATA CLASS= XYDATA
##ORIGIN=
##OWNER=nmr
##.SHIFT REFERENCE=INTERNAL, CDCl3, 1, 20.87638063056349
##.OBSERVE FREQUENCY=500.153088426
##.OBSERVE NUCLEUS=1H
##.SOLVENT=CDCl3
##$JCAMPDX=5
##$NPOINTS=10	$$ modification sequence number
##$ORIGIN=Bruker BioSpin GmbH & Co. KG
##$epoch=1782254431000
##$date=Tue, 23 Jun 2026 22:40:31 GMT
##$ABSF1=20.8511308615115
##$ABSF2=-8.55181221615286
##$ABSG=5
##$ABSL=50
##$ALPHA=0
##$AQORDER=0
##$ASSFAC=0
##$ASSFACI=0
##$ASSFACX=0
##$ASSWID=0
##$AUNMP=<proc_1d_spintropy_auto>
##$AXLEFT=0
##$AXNAME=<>
##$AXNUC=<1H>
##$AXRIGHT=0
##$AXTYPE=0
##$AXUNIT=<>
##$AZFE=0.1
##$AZFW=0.1
##$BCFW=0
##$BC_mod=0
##$BYTORDP=0
##$COROFFS=0
##$CY=15
##$DATMOD=1
##$DC=0
##$DFILT=<>
##$DTYPP=0
##$ERETIC=no
##$F1P=0
##$F2P=0
##$FCOR=1
##$FTSIZE=65536
##$FT_mod=6
##$GAMMA=0
##$GB=0
##$INTBC=1
##$INTSCL=1
##$ISEN=128
##$LB=0.3
##$LEV0=0
##$LPBIN=0
##$MAXI=10000
##$MC2=0
##$MEAN=0
##$ME_mod=0
##$MI=0.1
##$MddCEXP=no
##$MddCT_SP=no
##$MddF180=no
##$MddLAMBDA=0
##$MddMEMORY=0
##$MddMERGE=0
##$MddNCOMP=0
##$MddNITER=0
##$MddNOISE=0
##$MddPHASE=0
##$MddSEED=0
##$MddSRSIZE=0
##$Mdd_CsALG=0
##$Mdd_CsLAMBDA=0
##$Mdd_CsNITER=0
##$Mdd_CsNORM=0
##$Mdd_CsVE=no
##$Mdd_CsZF=0
##$Mdd_LrLAMBDA=0
##$Mdd_LrNITER=0
##$Mdd_LrRANK=0
##$Mdd_LrZF=0
##$Mdd_mod=0
##$NCOEF=0
##$NLEV=6
##$NOISF1=0
##$NOISF2=0
##$NSP=0
##$NTH_PI=0
##$NZP=0
##$PC=1
##$PHC0=-19.54
##$PHC1=0
##$PH_mod=1
##$PKNL=yes
##$PPARMOD=0
##$PPDIAG=0
##$PPIPTYP=0
##$PPMPNUM=2147483647
##$PPRESOL=1
##$PSCAL=4
##$PSIGN=0
##$PYNMP=<>
##$RDF1=0
##$RDF2=0
##$RDFWHM=0
##$RDINT=0
##$RDPOS=0
##$REVERSE=no
##$SF=500.150012673812
##$SI=65536
##$SIGF1=0
##$SIGF2=0
##$SINO=0
##$SIOLD=65536
##$SPECTYP=<PROTON>
##$SREF_mod=1
##$SREGLST=<1H.CDCl3>
##$SSB=0
##$STSI=65536
##$STSR=0
##$SW_p=14705.8823529412
##$SYMM=0
##$S_DEV=0
##$TDeff=117646
##$TDoff=0
##$TI=<Spintropy Username courtneyleo
atrp starting h nmr

>
##$TILT=no
##$TM1=0
##$TM2=0
##$TOPLEV=0
##$USERP1=<>
##$USERP10=<>
##$USERP2=<>
##$USERP3=<>
##$USERP4=<>
##$USERP5=<>
##$USERP6=<>
##$USERP7=<>
##$USERP8=<>
##$USERP9=<>
##$WDW=1
##$XDIM=0
##$YMAX_p=521474904
##$YMIN_p=-215079
##$ACQT0=-2.0640392220881
##$AMP=(0..31)
100 100 100 100 100 100 100 100 100 100 100 100 100 100 100 100 100 100
100 100 100 100 100 100 100 100 100 100 100 100 100 100
##$AMPCOIL=(0..32)
-1 0 0 0 0 0 0 0 0 0 0 0 0 0 0 0 0 0 0 0 0 0 0 0 0 0 0 0 0 0 0 0 0
##$AQSEQ=0
##$AQ_mod=3
##$AUNM=<au_zg>
##$AUTOPOS=<50 >
##$BF2=500.15
##$BF3=500.15
##$BF4=500.15
##$BF5=500.15
##$BF6=500.15
##$BF7=500.15
##$BF8=500.15
##$BWFAC=(0..63)
0 0 0 0 0 0 0 0 0 0 0 0 0 0 0 0 0 0 0 0 0 0 0 0 0 0 0 0 0 0 0 0 0 0 0 0
0 0 0 0 0 0 0 0 0 0 0 0 0 0 0 0 0 0 0 0 0 0 0 0 0 0 0 0
##$BYTORDA=0
##$CHANFCU=(0..24)
0 1 0 0 0 0 0 0 0 0 0 0 0 0 0 0 0 0 0 0 0 0 0 0 0
##$CHANREC=(0..24)
0 1 0 0 0 0 0 0 0 0 0 0 0 0 0 0 0 0 0 0 0 0 0 0 0
##$CHEMSTR=<none>
##$CNST=(0..63)
1 1 1 1 1 1 1 1 1 1 1 1 1 1 1 1 1 1 1 1 1 1 1 1 1 1 1 1 1 1 1 1 1 1 1 1
1 1 1 1 1 1 1 1 1 1 1 1 1 1 1 1 1 1 1 1 1 1 1 1 1 1 1 1
##$CPDPRG=(0..8)
<> <> <> <> <> <> <> <> <>
##$D=(0..63)
0 5 0 0 0 0 0 0 0 0 0 0 0 0 0 0 0.0002 0 0 0 0 0 0 0 0 0 0 0 0 0 0 0 0
0 0 0 0 0 0 0 0 0 0 0 0 0 0 0 0 0 0 0 0 0 0 0 0 0 0 0 0 0 0 0
##$DATE=1782254431
##$DATE_START=1782254339
##$DE=10.6859607779119
##$DE1=4.5
##$DE2=2
##$DEADC=0.5
##$DECBNUC=<off>
##$DECNUC=<off>
##$DECSTAT=4
##$DEPA=4.5
##$DERX=1.5
##$DIGMOD=3
##$DIGTYP=17
##$DR=32
##$DS=2
##$DSPFIRM=4
##$DTYPA=2
##$EXP=<MRRC_Proton>
##$ExpStatus=4
##$FCUCHAN=(0..9)
0 1 0 0 0 0 0 0 0 0
##$FILCOR=0
##$FL1=0
##$FL2=0
##$FL3=0
##$FL4=0
##$FN_INDIRECT=(0..7)
0 0 0 0 0 0 0 0
##$FOV=0
##$FQ1LIST=<>
##$FQ2LIST=<>
##$FQ3LIST=<>
##$FQ4LIST=<>
##$FQ5LIST=<>
##$FQ6LIST=<>
##$FQ7LIST=<>
##$FQ8LIST=<>
##$FS=(0..7)
83 83 83 83 83 83 83 83
##$FTLPGN=0
##$FW=240000000
##$FnILOOP=0
##$FnMODE=0
##$FnTYPE=0
##$GPNAM=(0..31)
<> <> <> <> <> <> <> <> <> <> <> <> <> <> <> <> <> <> <> <> <> <> <> <>
<> <> <> <> <> <> <> <>
##$GPX=(0..31)
0 0 0 0 0 0 0 0 0 0 0 0 0 0 0 0 0 0 0 0 0 0 0 0 0 0 0 0 0 0 0 0
##$GPY=(0..31)
0 0 0 0 0 0 0 0 0 0 0 0 0 0 0 0 0 0 0 0 0 0 0 0 0 0 0 0 0 0 0 0
##$GPZ=(0..31)
0 0 0 0 0 0 0 0 0 0 0 0 0 0 0 0 0 0 0 0 0 0 0 0 0 0 0 0 0 0 0 0
##$GrpdlyHandling=0
##$HDDUTY=20
##$HDRATE=1
##$HGAIN=(0..3)
0 0 0 0
##$HOLDER=50
##$HPMOD=(0..32)
0 0 0 0 0 0 0 0 0 0 0 0 0 0 0 0 0 0 0 0 0 0 0 0 0 0 0 0 0 0 0 0 0
##$IN=(0..63)
0 0 0 0 0 0 0 0 0 0 0 0 0 0 0 0 0 0 0 0 0 0 0 0 0 0 0 0 0 0 0 0 0 0 0 0
0 0 0 0 0 0 0 0 0 0 0 0 0 0 0 0 0 0 0 0 0 0 0 0 0 0 0 0
##$INF=(0..7)
0 0 0 0 0 0 0 0
##$INP=(0..63)
0 0 0 0 0 0 0 0 0 0 0 0 0 0 0 0 0 0 0 0 0 0 0 0 0 0 0 0 0 0 0 0 0 0 0 0
0 0 0 0 0 0 0 0 0 0 0 0 0 0 0 0 0 0 0 0 0 0 0 0 0 0 0 0
##$INSTRUM=<Avance NEO 500>
##$INTEGFAC=(0..63)
0 0 0 0 0 0 0 0 0 0 0 0 0 0 0 0 0 0 0 0 0 0 0 0 0 0 0 0 0 0 0 0 0 0 0 0
0 0 0 0 0 0 0 0 0 0 0 0 0 0 0 0 0 0 0 0 0 0 0 0 0 0 0 0
##$L=(0..31)
1 1 1 1 1 1 1 1 1 1 1 1 1 1 1 1 1 1 1 1 1 1 1 1 1 1 1 1 1 1 1 1
##$LFILTER=100
##$LGAIN=-12
##$LINPSTP=0
##$LOCKED=yes
##$LOCKFLD=4294
##$LOCKGN=141.933456420898
##$LOCKPOW=-30
##$LOCKPPM=7.23999977111816
##$LOCNUC=<2H>
##$LOCPHAS=34.5
##$LOCSHFT=yes
##$LOCSW=0
##$LTIME=0.400000005960464
##$MASR=5000
##$MULEXPNO=(0..15)
0 0 0 0 0 0 0 0 0 0 0 0 0 0 0 0
##$NBL=1
##$NC=0
##$NLOGCH=2
##$NOVFLW=0
##$NS=8
##$NUC1=<1H>
##$NUC2=<off>
##$NUC3=<off>
##$NUC4=<off>
##$NUC5=<off>
##$NUC6=<off>
##$NUC7=<off>
##$NUC8=<off>
##$NUCLEUS=<off>
##$NUSLIST=<automatic>
##$NusAMOUNT=100
##$NusFPNZ=no
##$NusJSP=0
##$NusSEED=54321
##$NusSPTYPE=0
##$NusT2=1
##$NusTD=0
##$O1=3088.426
##$O2=3088.426
##$O3=3088.426
##$O4=3088.426
##$O5=3088.426
##$O6=3088.426
##$O7=3088.426
##$O8=3088.426
##$OVERFLW=0
##$P=(0..63)
4.03333333333333 12.1 24.2 0 0 19.8 30 60 20000 0 0 80000 80000 1000 0
0 1000 2500 100000 600 0 0 0 0 0 216 100000 12.1 1000 1000 0 0 20000 0
0 0 0 0 0 0 2000 0 0 0 240 0 80000 46600 10000 30000 66000 0 3960 0 4000
0 0 0 0 0 0 0 0 0
##$PACOIL=(0..32)
2 3 1 0 0 0 0 0 0 0 0 0 0 0 0 0 0 0 0 0 0 0 0 0 0 0 0 0 0 0 0 0 0
##$PAPS=0
##$PARMODE=0
##$PCPD=(0..9)
0 80 0 0 0 0 0 0 0 0
##$PEXSEL=(0..9)
1 1 1 1 1 1 1 1 1 1
##$PHCOR=(0..31)
0 0 0 0 0 0 0 0 0 0 0 0 0 0 0 0 0 0 0 0 0 0 0 0 0 0 0 0 0 0 0 0
##$PHLIST=<>
##$PH_ref=0
##$PL=(0..63)
120 120 120 120 120 120 120 120 120 120 120 120 120 120 120 120 120 120
120 120 120 120 120 120 120 120 120 120 120 120 120 120 120 120 120 120
120 120 120 120 120 120 120 120 120 120 120 120 120 120 120 120 120 120
120 120 120 120 120 120 120 120 120 120
##$PLSTEP=0.1
##$PLSTRT=-6
##$PLW=(0..63)
0 35.975 0 0 0 0 0 0 0 0.00021068 5.8523 0.4353 0 0 0 0 0 0 35.975 0.82298
0 0 0 0 0 0 0 0.45157 0 5.8523 0 0 8.4274e-06 0 0 0 0 0 0 0 0 0 0 0 0 0
0 0 0 0 0 0 0 0 0 0 0 0 0 0 0 0 0 0
##$PLWMAX=(0..7)
108.978821 0 0 0 0 0 0 0
##$PQPHASE=0
##$PQSCALE=1
##$PR=1
##$PRECHAN=(0..32)
-1 2 -1 0 1 -1 -1 -1 -1 -1 -1 -1 -1 -1 -1 -1 -1 -1 -1 -1 -1 -1 -1 -1 -1
-1 -1 -1 -1 -1 -1 -1 -1
##$PROBHD=<Z151574_0025 (PI HR-500-S1-BBF/H/D-5.0-Z SP)>
##$PROBINPUTS=(0..15)
<19F/31P-75As/139La-109Ag> <1H> <2H> <> <> <> <> <> <> <> <> <> <> <> <>
<>
##$PULPROG=<zg30>
##$PW=0
##$PYNM=<>
##$ProjAngle=0
##$QNP=0
##$RECCHAN=(0..9)
0 1 0 0 0 0 0 0 0 0
##$RECPH=0
##$RECPRE=(0..24)
-1 0 -1 -1 -1 -1 -1 -1 -1 -1 -1 -1 -1 -1 -1 -1 -1 -1 -1 -1 -1 -1 -1 -1
-1
##$RECPRFX=(0..32)
1 0 1 0 0 0 0 0 0 0 0 0 0 0 0 0 0 0 0 0 0 0 0 0 0 0 0 0 0 0 0 0 0
##$RG=101
##$RO=0
##$RSEL=(0..24)
0 1 0 0 0 0 0 0 0 0 0 0 0 0 0 0 0 0 0 0 0 0 0 0 0
##$SAMPLEID=<>
##$SFO1=500.153088426
##$SFO2=500.153088426
##$SFO3=500.153088426
##$SFO4=500.153088426
##$SFO5=500.153088426
##$SFO6=500.153088426
##$SFO7=500.153088426
##$SFO8=500.153088426
##$SHAPPR=(0..15)
1 1 1 1 1 1 1 1 1 1 1 1 1 1 1 1
##$SOLVENT=<CDCl3>
##$SOLVOLD=<off>
##$SP=(0..63)
120 120 120 120 120 120 120 120 120 120 120 120 120 120 120 120 120 120
120 120 120 120 120 120 120 120 120 120 120 120 120 120 120 120 120 120
120 120 120 120 120 120 120 120 120 120 120 120 120 120 120 120 120 120
120 120 120 120 120 120 120 120 120 120
##$SPECTR=0
##$SPINCNT=0
##$SPNAM=(0..63)
<> <Gaus1_270.1000> <Gaus1_180r.1000> <> <> <Sinc1.1000> <Squa100.1000>
<> <Squa100.1000> <> <Sinc1.1000> <Sinc1.1000> <> <> <> <> <> <> <> <Sinc1.1000>
<Sinc1.1000> <Sinc1.1000> <Sinc1.1000> <> <> <> <> <> <> <Crp60,20,20.10>
<Bip720,50,20.1> <> <> <Sinc1.1000> <Rsnob.1000> <Gaus1_180r.1000> <Gaus1_180r.1000>
<Crp_psyche.20> <> <> <Gaus1_180i.1000> <Squa100.1000> <> <> <> <> <Reburp.1000>
<> <> <> <> <> <> <> <> <> <> <> <> <> <> <> <> <>
##$SPOAL=(0..63)
0.5 1 0.5 0.5 0.5 0.5 0.5 0.5 0.5 0.5 0.5 0.5 0.5 0.5 0.5 0.5 0.5 0.5 0.5
1 1 1 1 0.5 0.5 0.5 0.5 0.5 0.5 0.5 0.5 0.5 0.5 0.5 0.5 0.5 0.5 0.5 0.5
0.5 0.5 0.5 0.5 0.5 0.5 0.5 0.5 0.5 0.5 0.5 0.5 0.5 0.5 0.5 0.5 0.5 0.5
0.5 0.5 0.5 0.5 0.5 0.5 0.5
##$SPOFFS=(0..63)
0 0 0 0 0 0 0 0 0 0 0 0 0 0 0 0 0 0 0 0 0 0 0 0 0 0 0 0 0 0 0 0 0 0 0 0
0 0 0 0 0 0 0 0 0 0 0 0 0 0 0 0 0 0 0 0 0 0 0 0 0 0 0 0
##$SPPEX=(0..63)
0 0 0 0 0 0 0 0 0 0 0 0 0 0 0 0 0 0 0 0 0 0 0 0 0 0 0 0 0 0 0 0 0 0 0 0
0 0 0 0 0 0 0 0 0 0 0 0 0 0 0 0 0 0 0 0 0 0 0 0 0 0 0 0
##$SPW=(0..63)
0 4.3725e-05 1.9433e-05 0 0 0.015188 0.00021068 0 5.2671e-07 0 0.015188
0.015188 0 0 0 0 0 0 0 3.102067e-05 4.822063e-05 2.251562e-05 0.0001214249
0 0 0 0 0 0 0.20119 5.8523 0 0 0.00094922 0.00021246 1.9433e-05 0.0012437
0.00069481 0 0 2.8552e-05 5.2671e-07 0 0 0 0 0.20257 0 0 0 0 0 0 0 0 0
0 0 0 0 0 0 0 0
##$SUBNAM=(0..9)
<> <> <> <> <> <> <> <> <> <>
##$SWIBOX=(0..32)
0 3 0 0 0 0 0 0 0 0 0 0 0 0 0 0 0 0 0 0 0 0 0 0 0 0 0 0 0 0 0 0 0
##$SW_h=14705.8823529412
##$SWfinal=0
##$SigLockShift=0
##$TD=117646
##$TD0=1
##$TD_INDIRECT=(0..7)
0 0 0 0 0 0 0 0
##$TDav=1
##$TE=298.138671875
##$TE1=298.138671875
##$TE2=0
##$TE3=0
##$TE4=0
##$TEG=300
##$TE_MAGNET=0
##$TE_PIDX=1
##$TE_RAW=298.138671875
##$TE_STAB=(0..9)
1 1 0 0 0 0 0 0 0 0
##$TOTROT=(0..63)
0 0 0 0 0 0 0 0 0 0 0 0 0 0 0 0 0 0 0 0 0 0 0 0 0 0 0 0 0 0 0 0 0 0 0 0
0 0 0 0 0 0 0 0 0 0 0 0 0 0 0 0 0 0 0 0 0 0 0 0 0 0 0 0
##$TUBE_TYPE=<>
##$USERA1=<>
##$USERA10=<>
##$USERA2=<>
##$USERA3=<>
##$USERA4=<>
##$USERA5=<>
##$USERA6=<>
##$USERA7=<>
##$USERA8=<>
##$USERA9=<>
##$UUID=<8f2fb8e9-b07a-45b7-8784-e5af6d3d31ae>
##$VALIDCODE=-1
##$VALIST=<>
##$VCLIST=<>
##$VDLIST=<>
##$VPLIST=<>
##$VTLIST=<>
##$WAVEMAKER=(0..7)
<> <> <> <> <> <> <> <>
##$WBST=1024
##$WBSW=(0..7)
4 10 10 10 10 10 10 10
##$XL=0
##$YL=0
##$YMAX_a=381035644
##$YMIN_a=-277565472
##$ZGOPTNS=<>
##$scaledByNS=no
##$scaledByRG=no
##$shimCoilTempK=301.15
##$AMP0=100
##$AMP1=100
##$AMP2=100
##$AMP3=100
##$AMP4=100
##$AMP5=100
##$AMP6=100
##$AMP7=100
##$AMP8=100
##$AMP9=100
##$AMP10=100
##$AMP11=100
##$AMP12=100
##$AMP13=100
##$AMP14=100
##$AMP15=100
##$AMP16=100
##$AMP17=100
##$AMP18=100
##$AMP19=100
##$AMP20=100
##$AMP21=100
##$AMP22=100
##$AMP23=100
##$AMP24=100
##$AMP25=100
##$AMP26=100
##$AMP27=100
##$AMP28=100
##$AMP29=100
##$AMP30=100
##$AMP31=100
##$AMPCOIL0=-1
##$AMPCOIL1=0
##$AMPCOIL2=0
##$AMPCOIL3=0
##$AMPCOIL4=0
##$AMPCOIL5=0
##$AMPCOIL6=0
##$AMPCOIL7=0
##$AMPCOIL8=0
##$AMPCOIL9=0
##$AMPCOIL10=0
##$AMPCOIL11=0
##$AMPCOIL12=0
##$AMPCOIL13=0
##$AMPCOIL14=0
##$AMPCOIL15=0
##$AMPCOIL16=0
##$AMPCOIL17=0
##$AMPCOIL18=0
##$AMPCOIL19=0
##$AMPCOIL20=0
##$AMPCOIL21=0
##$AMPCOIL22=0
##$AMPCOIL23=0
##$AMPCOIL24=0
##$AMPCOIL25=0
##$AMPCOIL26=0
##$AMPCOIL27=0
##$AMPCOIL28=0
##$AMPCOIL29=0
##$AMPCOIL30=0
##$AMPCOIL31=0
##$AMPCOIL32=0
##$BWFAC0=0
##$BWFAC1=0
##$BWFAC2=0
##$BWFAC3=0
##$BWFAC4=0
##$BWFAC5=0
##$BWFAC6=0
##$BWFAC7=0
##$BWFAC8=0
##$BWFAC9=0
##$BWFAC10=0
##$BWFAC11=0
##$BWFAC12=0
##$BWFAC13=0
##$BWFAC14=0
##$BWFAC15=0
##$BWFAC16=0
##$BWFAC17=0
##$BWFAC18=0
##$BWFAC19=0
##$BWFAC20=0
##$BWFAC21=0
##$BWFAC22=0
##$BWFAC23=0
##$BWFAC24=0
##$BWFAC25=0
##$BWFAC26=0
##$BWFAC27=0
##$BWFAC28=0
##$BWFAC29=0
##$BWFAC30=0
##$BWFAC31=0
##$BWFAC32=0
##$BWFAC33=0
##$BWFAC34=0
##$BWFAC35=0
##$BWFAC36=0
##$BWFAC37=0
##$BWFAC38=0
##$BWFAC39=0
##$BWFAC40=0
##$BWFAC41=0
##$BWFAC42=0
##$BWFAC43=0
##$BWFAC44=0
##$BWFAC45=0
##$BWFAC46=0
##$BWFAC47=0
##$BWFAC48=0
##$BWFAC49=0
##$BWFAC50=0
##$BWFAC51=0
##$BWFAC52=0
##$BWFAC53=0
##$BWFAC54=0
##$BWFAC55=0
##$BWFAC56=0
##$BWFAC57=0
##$BWFAC58=0
##$BWFAC59=0
##$BWFAC60=0
##$BWFAC61=0
##$BWFAC62=0
##$BWFAC63=0
##$CHANFCU0=0
##$CHANFCU1=1
##$CHANFCU2=0
##$CHANFCU3=0
##$CHANFCU4=0
##$CHANFCU5=0
##$CHANFCU6=0
##$CHANFCU7=0
##$CHANFCU8=0
##$CHANFCU9=0
##$CHANFCU10=0
##$CHANFCU11=0
##$CHANFCU12=0
##$CHANFCU13=0
##$CHANFCU14=0
##$CHANFCU15=0
##$CHANFCU16=0
##$CHANFCU17=0
##$CHANFCU18=0
##$CHANFCU19=0
##$CHANFCU20=0
##$CHANFCU21=0
##$CHANFCU22=0
##$CHANFCU23=0
##$CHANFCU24=0
##$CHANREC0=0
##$CHANREC1=1
##$CHANREC2=0
##$CHANREC3=0
##$CHANREC4=0
##$CHANREC5=0
##$CHANREC6=0
##$CHANREC7=0
##$CHANREC8=0
##$CHANREC9=0
##$CHANREC10=0
##$CHANREC11=0
##$CHANREC12=0
##$CHANREC13=0
##$CHANREC14=0
##$CHANREC15=0
##$CHANREC16=0
##$CHANREC17=0
##$CHANREC18=0
##$CHANREC19=0
##$CHANREC20=0
##$CHANREC21=0
##$CHANREC22=0
##$CHANREC23=0
##$CHANREC24=0
##$CNST0=1
##$CNST1=1
##$CNST2=1
##$CNST3=1
##$CNST4=1
##$CNST5=1
##$CNST6=1
##$CNST7=1
##$CNST8=1
##$CNST9=1
##$CNST10=1
##$CNST11=1
##$CNST12=1
##$CNST13=1
##$CNST14=1
##$CNST15=1
##$CNST16=1
##$CNST17=1
##$CNST18=1
##$CNST19=1
##$CNST20=1
##$CNST21=1
##$CNST22=1
##$CNST23=1
##$CNST24=1
##$CNST25=1
##$CNST26=1
##$CNST27=1
##$CNST28=1
##$CNST29=1
##$CNST30=1
##$CNST31=1
##$CNST32=1
##$CNST33=1
##$CNST34=1
##$CNST35=1
##$CNST36=1
##$CNST37=1
##$CNST38=1
##$CNST39=1
##$CNST40=1
##$CNST41=1
##$CNST42=1
##$CNST43=1
##$CNST44=1
##$CNST45=1
##$CNST46=1
##$CNST47=1
##$CNST48=1
##$CNST49=1
##$CNST50=1
##$CNST51=1
##$CNST52=1
##$CNST53=1
##$CNST54=1
##$CNST55=1
##$CNST56=1
##$CNST57=1
##$CNST58=1
##$CNST59=1
##$CNST60=1
##$CNST61=1
##$CNST62=1
##$CNST63=1
##$CPDPRG0=<>
##$CPDPRG1=<>
##$CPDPRG2=<>
##$CPDPRG3=<>
##$CPDPRG4=<>
##$CPDPRG5=<>
##$CPDPRG6=<>
##$CPDPRG7=<>
##$CPDPRG8=<>
##$D0=0
##$D1=5
##$D2=0
##$D3=0
##$D4=0
##$D5=0
##$D6=0
##$D7=0
##$D8=0
##$D9=0
##$D10=0
##$D11=0
##$D12=0
##$D13=0
##$D14=0
##$D15=0
##$D16=0.0002
##$D17=0
##$D18=0
##$D19=0
##$D20=0
##$D21=0
##$D22=0
##$D23=0
##$D24=0
##$D25=0
##$D26=0
##$D27=0
##$D28=0
##$D29=0
##$D30=0
##$D31=0
##$D32=0
##$D33=0
##$D34=0
##$D35=0
##$D36=0
##$D37=0
##$D38=0
##$D39=0
##$D40=0
##$D41=0
##$D42=0
##$D43=0
##$D44=0
##$D45=0
##$D46=0
##$D47=0
##$D48=0
##$D49=0
##$D50=0
##$D51=0
##$D52=0
##$D53=0
##$D54=0
##$D55=0
##$D56=0
##$D57=0
##$D58=0
##$D59=0
##$D60=0
##$D61=0
##$D62=0
##$D63=0
##$FCUCHAN0=0
##$FCUCHAN1=1
##$FCUCHAN2=0
##$FCUCHAN3=0
##$FCUCHAN4=0
##$FCUCHAN5=0
##$FCUCHAN6=0
##$FCUCHAN7=0
##$FCUCHAN8=0
##$FCUCHAN9=0
##$FN_INDIRECT0=0
##$FN_INDIRECT1=0
##$FN_INDIRECT2=0
##$FN_INDIRECT3=0
##$FN_INDIRECT4=0
##$FN_INDIRECT5=0
##$FN_INDIRECT6=0
##$FN_INDIRECT7=0
##$FS0=83
##$FS1=83
##$FS2=83
##$FS3=83
##$FS4=83
##$FS5=83
##$FS6=83
##$FS7=83
##$GPNAM0=<>
##$GPNAM1=<>
##$GPNAM2=<>
##$GPNAM3=<>
##$GPNAM4=<>
##$GPNAM5=<>
##$GPNAM6=<>
##$GPNAM7=<>
##$GPNAM8=<>
##$GPNAM9=<>
##$GPNAM10=<>
##$GPNAM11=<>
##$GPNAM12=<>
##$GPNAM13=<>
##$GPNAM14=<>
##$GPNAM15=<>
##$GPNAM16=<>
##$GPNAM17=<>
##$GPNAM18=<>
##$GPNAM19=<>
##$GPNAM20=<>
##$GPNAM21=<>
##$GPNAM22=<>
##$GPNAM23=<>
##$GPNAM24=<>
##$GPNAM25=<>
##$GPNAM26=<>
##$GPNAM27=<>
##$GPNAM28=<>
##$GPNAM29=<>
##$GPNAM30=<>
##$GPNAM31=<>
##$GPX0=0
##$GPX1=0
##$GPX2=0
##$GPX3=0
##$GPX4=0
##$GPX5=0
##$GPX6=0
##$GPX7=0
##$GPX8=0
##$GPX9=0
##$GPX10=0
##$GPX11=0
##$GPX12=0
##$GPX13=0
##$GPX14=0
##$GPX15=0
##$GPX16=0
##$GPX17=0
##$GPX18=0
##$GPX19=0
##$GPX20=0
##$GPX21=0
##$GPX22=0
##$GPX23=0
##$GPX24=0
##$GPX25=0
##$GPX26=0
##$GPX27=0
##$GPX28=0
##$GPX29=0
##$GPX30=0
##$GPX31=0
##$GPY0=0
##$GPY1=0
##$GPY2=0
##$GPY3=0
##$GPY4=0
##$GPY5=0
##$GPY6=0
##$GPY7=0
##$GPY8=0
##$GPY9=0
##$GPY10=0
##$GPY11=0
##$GPY12=0
##$GPY13=0
##$GPY14=0
##$GPY15=0
##$GPY16=0
##$GPY17=0
##$GPY18=0
##$GPY19=0
##$GPY20=0
##$GPY21=0
##$GPY22=0
##$GPY23=0
##$GPY24=0
##$GPY25=0
##$GPY26=0
##$GPY27=0
##$GPY28=0
##$GPY29=0
##$GPY30=0
##$GPY31=0
##$GPZ0=0
##$GPZ1=0
##$GPZ2=0
##$GPZ3=0
##$GPZ4=0
##$GPZ5=0
##$GPZ6=0
##$GPZ7=0
##$GPZ8=0
##$GPZ9=0
##$GPZ10=0
##$GPZ11=0
##$GPZ12=0
##$GPZ13=0
##$GPZ14=0
##$GPZ15=0
##$GPZ16=0
##$GPZ17=0
##$GPZ18=0
##$GPZ19=0
##$GPZ20=0
##$GPZ21=0
##$GPZ22=0
##$GPZ23=0
##$GPZ24=0
##$GPZ25=0
##$GPZ26=0
##$GPZ27=0
##$GPZ28=0
##$GPZ29=0
##$GPZ30=0
##$GPZ31=0
##$HGAIN0=0
##$HGAIN1=0
##$HGAIN2=0
##$HGAIN3=0
##$HPMOD0=0
##$HPMOD1=0
##$HPMOD2=0
##$HPMOD3=0
##$HPMOD4=0
##$HPMOD5=0
##$HPMOD6=0
##$HPMOD7=0
##$HPMOD8=0
##$HPMOD9=0
##$HPMOD10=0
##$HPMOD11=0
##$HPMOD12=0
##$HPMOD13=0
##$HPMOD14=0
##$HPMOD15=0
##$HPMOD16=0
##$HPMOD17=0
##$HPMOD18=0
##$HPMOD19=0
##$HPMOD20=0
##$HPMOD21=0
##$HPMOD22=0
##$HPMOD23=0
##$HPMOD24=0
##$HPMOD25=0
##$HPMOD26=0
##$HPMOD27=0
##$HPMOD28=0
##$HPMOD29=0
##$HPMOD30=0
##$HPMOD31=0
##$HPMOD32=0
##$IN0=0
##$IN1=0
##$IN2=0
##$IN3=0
##$IN4=0
##$IN5=0
##$IN6=0
##$IN7=0
##$IN8=0
##$IN9=0
##$IN10=0
##$IN11=0
##$IN12=0
##$IN13=0
##$IN14=0
##$IN15=0
##$IN16=0
##$IN17=0
##$IN18=0
##$IN19=0
##$IN20=0
##$IN21=0
##$IN22=0
##$IN23=0
##$IN24=0
##$IN25=0
##$IN26=0
##$IN27=0
##$IN28=0
##$IN29=0
##$IN30=0
##$IN31=0
##$IN32=0
##$IN33=0
##$IN34=0
##$IN35=0
##$IN36=0
##$IN37=0
##$IN38=0
##$IN39=0
##$IN40=0
##$IN41=0
##$IN42=0
##$IN43=0
##$IN44=0
##$IN45=0
##$IN46=0
##$IN47=0
##$IN48=0
##$IN49=0
##$IN50=0
##$IN51=0
##$IN52=0
##$IN53=0
##$IN54=0
##$IN55=0
##$IN56=0
##$IN57=0
##$IN58=0
##$IN59=0
##$IN60=0
##$IN61=0
##$IN62=0
##$IN63=0
##$INF0=0
##$INF1=0
##$INF2=0
##$INF3=0
##$INF4=0
##$INF5=0
##$INF6=0
##$INF7=0
##$INP0=0
##$INP1=0
##$INP2=0
##$INP3=0
##$INP4=0
##$INP5=0
##$INP6=0
##$INP7=0
##$INP8=0
##$INP9=0
##$INP10=0
##$INP11=0
##$INP12=0
##$INP13=0
##$INP14=0
##$INP15=0
##$INP16=0
##$INP17=0
##$INP18=0
##$INP19=0
##$INP20=0
##$INP21=0
##$INP22=0
##$INP23=0
##$INP24=0
##$INP25=0
##$INP26=0
##$INP27=0
##$INP28=0
##$INP29=0
##$INP30=0
##$INP31=0
##$INP32=0
##$INP33=0
##$INP34=0
##$INP35=0
##$INP36=0
##$INP37=0
##$INP38=0
##$INP39=0
##$INP40=0
##$INP41=0
##$INP42=0
##$INP43=0
##$INP44=0
##$INP45=0
##$INP46=0
##$INP47=0
##$INP48=0
##$INP49=0
##$INP50=0
##$INP51=0
##$INP52=0
##$INP53=0
##$INP54=0
##$INP55=0
##$INP56=0
##$INP57=0
##$INP58=0
##$INP59=0
##$INP60=0
##$INP61=0
##$INP62=0
##$INP63=0
##$INTEGFAC0=0
##$INTEGFAC1=0
##$INTEGFAC2=0
##$INTEGFAC3=0
##$INTEGFAC4=0
##$INTEGFAC5=0
##$INTEGFAC6=0
##$INTEGFAC7=0
##$INTEGFAC8=0
##$INTEGFAC9=0
##$INTEGFAC10=0
##$INTEGFAC11=0
##$INTEGFAC12=0
##$INTEGFAC13=0
##$INTEGFAC14=0
##$INTEGFAC15=0
##$INTEGFAC16=0
##$INTEGFAC17=0
##$INTEGFAC18=0
##$INTEGFAC19=0
##$INTEGFAC20=0
##$INTEGFAC21=0
##$INTEGFAC22=0
##$INTEGFAC23=0
##$INTEGFAC24=0
##$INTEGFAC25=0
##$INTEGFAC26=0
##$INTEGFAC27=0
##$INTEGFAC28=0
##$INTEGFAC29=0
##$INTEGFAC30=0
##$INTEGFAC31=0
##$INTEGFAC32=0
##$INTEGFAC33=0
##$INTEGFAC34=0
##$INTEGFAC35=0
##$INTEGFAC36=0
##$INTEGFAC37=0
##$INTEGFAC38=0
##$INTEGFAC39=0
##$INTEGFAC40=0
##$INTEGFAC41=0
##$INTEGFAC42=0
##$INTEGFAC43=0
##$INTEGFAC44=0
##$INTEGFAC45=0
##$INTEGFAC46=0
##$INTEGFAC47=0
##$INTEGFAC48=0
##$INTEGFAC49=0
##$INTEGFAC50=0
##$INTEGFAC51=0
##$INTEGFAC52=0
##$INTEGFAC53=0
##$INTEGFAC54=0
##$INTEGFAC55=0
##$INTEGFAC56=0
##$INTEGFAC57=0
##$INTEGFAC58=0
##$INTEGFAC59=0
##$INTEGFAC60=0
##$INTEGFAC61=0
##$INTEGFAC62=0
##$INTEGFAC63=0
##$L0=1
##$L1=1
##$L2=1
##$L3=1
##$L4=1
##$L5=1
##$L6=1
##$L7=1
##$L8=1
##$L9=1
##$L10=1
##$L11=1
##$L12=1
##$L13=1
##$L14=1
##$L15=1
##$L16=1
##$L17=1
##$L18=1
##$L19=1
##$L20=1
##$L21=1
##$L22=1
##$L23=1
##$L24=1
##$L25=1
##$L26=1
##$L27=1
##$L28=1
##$L29=1
##$L30=1
##$L31=1
##$MULEXPNO0=0
##$MULEXPNO1=0
##$MULEXPNO2=0
##$MULEXPNO3=0
##$MULEXPNO4=0
##$MULEXPNO5=0
##$MULEXPNO6=0
##$MULEXPNO7=0
##$MULEXPNO8=0
##$MULEXPNO9=0
##$MULEXPNO10=0
##$MULEXPNO11=0
##$MULEXPNO12=0
##$MULEXPNO13=0
##$MULEXPNO14=0
##$MULEXPNO15=0
##$P0=4.03333333333333
##$P1=12.1
##$P2=24.2
##$P3=0
##$P4=0
##$P5=19.8
##$P6=30
##$P7=60
##$P8=20000
##$P9=0
##$P10=0
##$P11=80000
##$P12=80000
##$P13=1000
##$P14=0
##$P15=0
##$P16=1000
##$P17=2500
##$P18=100000
##$P19=600
##$P20=0
##$P21=0
##$P22=0
##$P23=0
##$P24=0
##$P25=216
##$P26=100000
##$P27=12.1
##$P28=1000
##$P29=1000
##$P30=0
##$P31=0
##$P32=20000
##$P33=0
##$P34=0
##$P35=0
##$P36=0
##$P37=0
##$P38=0
##$P39=0
##$P40=2000
##$P41=0
##$P42=0
##$P43=0
##$P44=240
##$P45=0
##$P46=80000
##$P47=46600
##$P48=10000
##$P49=30000
##$P50=66000
##$P51=0
##$P52=3960
##$P53=0
##$P54=4000
##$P55=0
##$P56=0
##$P57=0
##$P58=0
##$P59=0
##$P60=0
##$P61=0
##$P62=0
##$P63=0
##$PACOIL0=2
##$PACOIL1=3
##$PACOIL2=1
##$PACOIL3=0
##$PACOIL4=0
##$PACOIL5=0
##$PACOIL6=0
##$PACOIL7=0
##$PACOIL8=0
##$PACOIL9=0
##$PACOIL10=0
##$PACOIL11=0
##$PACOIL12=0
##$PACOIL13=0
##$PACOIL14=0
##$PACOIL15=0
##$PACOIL16=0
##$PACOIL17=0
##$PACOIL18=0
##$PACOIL19=0
##$PACOIL20=0
##$PACOIL21=0
##$PACOIL22=0
##$PACOIL23=0
##$PACOIL24=0
##$PACOIL25=0
##$PACOIL26=0
##$PACOIL27=0
##$PACOIL28=0
##$PACOIL29=0
##$PACOIL30=0
##$PACOIL31=0
##$PACOIL32=0
##$PCPD0=0
##$PCPD1=80
##$PCPD2=0
##$PCPD3=0
##$PCPD4=0
##$PCPD5=0
##$PCPD6=0
##$PCPD7=0
##$PCPD8=0
##$PCPD9=0
##$PEXSEL0=1
##$PEXSEL1=1
##$PEXSEL2=1
##$PEXSEL3=1
##$PEXSEL4=1
##$PEXSEL5=1
##$PEXSEL6=1
##$PEXSEL7=1
##$PEXSEL8=1
##$PEXSEL9=1
##$PHCOR0=0
##$PHCOR1=0
##$PHCOR2=0
##$PHCOR3=0
##$PHCOR4=0
##$PHCOR5=0
##$PHCOR6=0
##$PHCOR7=0
##$PHCOR8=0
##$PHCOR9=0
##$PHCOR10=0
##$PHCOR11=0
##$PHCOR12=0
##$PHCOR13=0
##$PHCOR14=0
##$PHCOR15=0
##$PHCOR16=0
##$PHCOR17=0
##$PHCOR18=0
##$PHCOR19=0
##$PHCOR20=0
##$PHCOR21=0
##$PHCOR22=0
##$PHCOR23=0
##$PHCOR24=0
##$PHCOR25=0
##$PHCOR26=0
##$PHCOR27=0
##$PHCOR28=0
##$PHCOR29=0
##$PHCOR30=0
##$PHCOR31=0
##$PL0=120
##$PL1=120
##$PL2=120
##$PL3=120
##$PL4=120
##$PL5=120
##$PL6=120
##$PL7=120
##$PL8=120
##$PL9=120
##$PL10=120
##$PL11=120
##$PL12=120
##$PL13=120
##$PL14=120
##$PL15=120
##$PL16=120
##$PL17=120
##$PL18=120
##$PL19=120
##$PL20=120
##$PL21=120
##$PL22=120
##$PL23=120
##$PL24=120
##$PL25=120
##$PL26=120
##$PL27=120
##$PL28=120
##$PL29=120
##$PL30=120
##$PL31=120
##$PL32=120
##$PL33=120
##$PL34=120
##$PL35=120
##$PL36=120
##$PL37=120
##$PL38=120
##$PL39=120
##$PL40=120
##$PL41=120
##$PL42=120
##$PL43=120
##$PL44=120
##$PL45=120
##$PL46=120
##$PL47=120
##$PL48=120
##$PL49=120
##$PL50=120
##$PL51=120
##$PL52=120
##$PL53=120
##$PL54=120
##$PL55=120
##$PL56=120
##$PL57=120
##$PL58=120
##$PL59=120
##$PL60=120
##$PL61=120
##$PL62=120
##$PL63=120
##$PLW0=0
##$PLW1=35.975
##$PLW2=0
##$PLW3=0
##$PLW4=0
##$PLW5=0
##$PLW6=0
##$PLW7=0
##$PLW8=0
##$PLW9=0.00021068
##$PLW10=5.8523
##$PLW11=0.4353
##$PLW12=0
##$PLW13=0
##$PLW14=0
##$PLW15=0
##$PLW16=0
##$PLW17=0
##$PLW18=35.975
##$PLW19=0.82298
##$PLW20=0
##$PLW21=0
##$PLW22=0
##$PLW23=0
##$PLW24=0
##$PLW25=0
##$PLW26=0
##$PLW27=0.45157
##$PLW28=0
##$PLW29=5.8523
##$PLW30=0
##$PLW31=0
##$PLW32=0.0000084274
##$PLW33=0
##$PLW34=0
##$PLW35=0
##$PLW36=0
##$PLW37=0
##$PLW38=0
##$PLW39=0
##$PLW40=0
##$PLW41=0
##$PLW42=0
##$PLW43=0
##$PLW44=0
##$PLW45=0
##$PLW46=0
##$PLW47=0
##$PLW48=0
##$PLW49=0
##$PLW50=0
##$PLW51=0
##$PLW52=0
##$PLW53=0
##$PLW54=0
##$PLW55=0
##$PLW56=0
##$PLW57=0
##$PLW58=0
##$PLW59=0
##$PLW60=0
##$PLW61=0
##$PLW62=0
##$PLW63=0
##$PLWMAX0=108.978821
##$PLWMAX1=0
##$PLWMAX2=0
##$PLWMAX3=0
##$PLWMAX4=0
##$PLWMAX5=0
##$PLWMAX6=0
##$PLWMAX7=0
##$PRECHAN0=-1
##$PRECHAN1=2
##$PRECHAN2=-1
##$PRECHAN3=0
##$PRECHAN4=1
##$PRECHAN5=-1
##$PRECHAN6=-1
##$PRECHAN7=-1
##$PRECHAN8=-1
##$PRECHAN9=-1
##$PRECHAN10=-1
##$PRECHAN11=-1
##$PRECHAN12=-1
##$PRECHAN13=-1
##$PRECHAN14=-1
##$PRECHAN15=-1
##$PRECHAN16=-1
##$PRECHAN17=-1
##$PRECHAN18=-1
##$PRECHAN19=-1
##$PRECHAN20=-1
##$PRECHAN21=-1
##$PRECHAN22=-1
##$PRECHAN23=-1
##$PRECHAN24=-1
##$PRECHAN25=-1
##$PRECHAN26=-1
##$PRECHAN27=-1
##$PRECHAN28=-1
##$PRECHAN29=-1
##$PRECHAN30=-1
##$PRECHAN31=-1
##$PRECHAN32=-1
##$PROBINPUTS0=<19F/31P-75As/139La-109Ag>
##$PROBINPUTS1=<1H>
##$PROBINPUTS2=<2H>
##$PROBINPUTS3=<>
##$PROBINPUTS4=<>
##$PROBINPUTS5=<>
##$PROBINPUTS6=<>
##$PROBINPUTS7=<>
##$PROBINPUTS8=<>
##$PROBINPUTS9=<>
##$PROBINPUTS10=<>
##$PROBINPUTS11=<>
##$PROBINPUTS12=<>
##$PROBINPUTS13=<>
##$PROBINPUTS14=<>
##$PROBINPUTS15=<>
##$RECCHAN0=0
##$RECCHAN1=1
##$RECCHAN2=0
##$RECCHAN3=0
##$RECCHAN4=0
##$RECCHAN5=0
##$RECCHAN6=0
##$RECCHAN7=0
##$RECCHAN8=0
##$RECCHAN9=0
##$RECPRE0=-1
##$RECPRE1=0
##$RECPRE2=-1
##$RECPRE3=-1
##$RECPRE4=-1
##$RECPRE5=-1
##$RECPRE6=-1
##$RECPRE7=-1
##$RECPRE8=-1
##$RECPRE9=-1
##$RECPRE10=-1
##$RECPRE11=-1
##$RECPRE12=-1
##$RECPRE13=-1
##$RECPRE14=-1
##$RECPRE15=-1
##$RECPRE16=-1
##$RECPRE17=-1
##$RECPRE18=-1
##$RECPRE19=-1
##$RECPRE20=-1
##$RECPRE21=-1
##$RECPRE22=-1
##$RECPRE23=-1
##$RECPRE24=-1
##$RECPRFX0=1
##$RECPRFX1=0
##$RECPRFX2=1
##$RECPRFX3=0
##$RECPRFX4=0
##$RECPRFX5=0
##$RECPRFX6=0
##$RECPRFX7=0
##$RECPRFX8=0
##$RECPRFX9=0
##$RECPRFX10=0
##$RECPRFX11=0
##$RECPRFX12=0
##$RECPRFX13=0
##$RECPRFX14=0
##$RECPRFX15=0
##$RECPRFX16=0
##$RECPRFX17=0
##$RECPRFX18=0
##$RECPRFX19=0
##$RECPRFX20=0
##$RECPRFX21=0
##$RECPRFX22=0
##$RECPRFX23=0
##$RECPRFX24=0
##$RECPRFX25=0
##$RECPRFX26=0
##$RECPRFX27=0
##$RECPRFX28=0
##$RECPRFX29=0
##$RECPRFX30=0
##$RECPRFX31=0
##$RECPRFX32=0
##$RSEL0=0
##$RSEL1=1
##$RSEL2=0
##$RSEL3=0
##$RSEL4=0
##$RSEL5=0
##$RSEL6=0
##$RSEL7=0
##$RSEL8=0
##$RSEL9=0
##$RSEL10=0
##$RSEL11=0
##$RSEL12=0
##$RSEL13=0
##$RSEL14=0
##$RSEL15=0
##$RSEL16=0
##$RSEL17=0
##$RSEL18=0
##$RSEL19=0
##$RSEL20=0
##$RSEL21=0
##$RSEL22=0
##$RSEL23=0
##$RSEL24=0
##$SHAPPR0=1
##$SHAPPR1=1
##$SHAPPR2=1
##$SHAPPR3=1
##$SHAPPR4=1
##$SHAPPR5=1
##$SHAPPR6=1
##$SHAPPR7=1
##$SHAPPR8=1
##$SHAPPR9=1
##$SHAPPR10=1
##$SHAPPR11=1
##$SHAPPR12=1
##$SHAPPR13=1
##$SHAPPR14=1
##$SHAPPR15=1
##$SP0=120
##$SP1=120
##$SP2=120
##$SP3=120
##$SP4=120
##$SP5=120
##$SP6=120
##$SP7=120
##$SP8=120
##$SP9=120
##$SP10=120
##$SP11=120
##$SP12=120
##$SP13=120
##$SP14=120
##$SP15=120
##$SP16=120
##$SP17=120
##$SP18=120
##$SP19=120
##$SP20=120
##$SP21=120
##$SP22=120
##$SP23=120
##$SP24=120
##$SP25=120
##$SP26=120
##$SP27=120
##$SP28=120
##$SP29=120
##$SP30=120
##$SP31=120
##$SP32=120
##$SP33=120
##$SP34=120
##$SP35=120
##$SP36=120
##$SP37=120
##$SP38=120
##$SP39=120
##$SP40=120
##$SP41=120
##$SP42=120
##$SP43=120
##$SP44=120
##$SP45=120
##$SP46=120
##$SP47=120
##$SP48=120
##$SP49=120
##$SP50=120
##$SP51=120
##$SP52=120
##$SP53=120
##$SP54=120
##$SP55=120
##$SP56=120
##$SP57=120
##$SP58=120
##$SP59=120
##$SP60=120
##$SP61=120
##$SP62=120
##$SP63=120
##$SPNAM0=<>
##$SPNAM1=<Gaus1_270.1000>
##$SPNAM2=<Gaus1_180r.1000>
##$SPNAM3=<>
##$SPNAM4=<>
##$SPNAM5=<Sinc1.1000>
##$SPNAM6=<Squa100.1000>
##$SPNAM7=<>
##$SPNAM8=<Squa100.1000>
##$SPNAM9=<>
##$SPNAM10=<Sinc1.1000>
##$SPNAM11=<Sinc1.1000>
##$SPNAM12=<>
##$SPNAM13=<>
##$SPNAM14=<>
##$SPNAM15=<>
##$SPNAM16=<>
##$SPNAM17=<>
##$SPNAM18=<>
##$SPNAM19=<Sinc1.1000>
##$SPNAM20=<Sinc1.1000>
##$SPNAM21=<Sinc1.1000>
##$SPNAM22=<Sinc1.1000>
##$SPNAM23=<>
##$SPNAM24=<>
##$SPNAM25=<>
##$SPNAM26=<>
##$SPNAM27=<>
##$SPNAM28=<>
##$SPNAM29=<Crp60
##$SPNAM30=20
##$SPNAM31=20.10>
##$SPNAM32=<Bip720
##$SPNAM33=50
##$SPNAM34=20.1>
##$SPNAM35=<>
##$SPNAM36=<>
##$SPNAM37=<Sinc1.1000>
##$SPNAM38=<Rsnob.1000>
##$SPNAM39=<Gaus1_180r.1000>
##$SPNAM40=<Gaus1_180r.1000>
##$SPNAM41=<Crp_psyche.20>
##$SPNAM42=<>
##$SPNAM43=<>
##$SPNAM44=<Gaus1_180i.1000>
##$SPNAM45=<Squa100.1000>
##$SPNAM46=<>
##$SPNAM47=<>
##$SPNAM48=<>
##$SPNAM49=<>
##$SPNAM50=<Reburp.1000>
##$SPNAM51=<>
##$SPNAM52=<>
##$SPNAM53=<>
##$SPNAM54=<>
##$SPNAM55=<>
##$SPNAM56=<>
##$SPNAM57=<>
##$SPNAM58=<>
##$SPNAM59=<>
##$SPNAM60=<>
##$SPNAM61=<>
##$SPNAM62=<>
##$SPNAM63=<>
##$SPOAL0=0.5
##$SPOAL1=1
##$SPOAL2=0.5
##$SPOAL3=0.5
##$SPOAL4=0.5
##$SPOAL5=0.5
##$SPOAL6=0.5
##$SPOAL7=0.5
##$SPOAL8=0.5
##$SPOAL9=0.5
##$SPOAL10=0.5
##$SPOAL11=0.5
##$SPOAL12=0.5
##$SPOAL13=0.5
##$SPOAL14=0.5
##$SPOAL15=0.5
##$SPOAL16=0.5
##$SPOAL17=0.5
##$SPOAL18=0.5
##$SPOAL19=1
##$SPOAL20=1
##$SPOAL21=1
##$SPOAL22=1
##$SPOAL23=0.5
##$SPOAL24=0.5
##$SPOAL25=0.5
##$SPOAL26=0.5
##$SPOAL27=0.5
##$SPOAL28=0.5
##$SPOAL29=0.5
##$SPOAL30=0.5
##$SPOAL31=0.5
##$SPOAL32=0.5
##$SPOAL33=0.5
##$SPOAL34=0.5
##$SPOAL35=0.5
##$SPOAL36=0.5
##$SPOAL37=0.5
##$SPOAL38=0.5
##$SPOAL39=0.5
##$SPOAL40=0.5
##$SPOAL41=0.5
##$SPOAL42=0.5
##$SPOAL43=0.5
##$SPOAL44=0.5
##$SPOAL45=0.5
##$SPOAL46=0.5
##$SPOAL47=0.5
##$SPOAL48=0.5
##$SPOAL49=0.5
##$SPOAL50=0.5
##$SPOAL51=0.5
##$SPOAL52=0.5
##$SPOAL53=0.5
##$SPOAL54=0.5
##$SPOAL55=0.5
##$SPOAL56=0.5
##$SPOAL57=0.5
##$SPOAL58=0.5
##$SPOAL59=0.5
##$SPOAL60=0.5
##$SPOAL61=0.5
##$SPOAL62=0.5
##$SPOAL63=0.5
##$SPOFFS0=0
##$SPOFFS1=0
##$SPOFFS2=0
##$SPOFFS3=0
##$SPOFFS4=0
##$SPOFFS5=0
##$SPOFFS6=0
##$SPOFFS7=0
##$SPOFFS8=0
##$SPOFFS9=0
##$SPOFFS10=0
##$SPOFFS11=0
##$SPOFFS12=0
##$SPOFFS13=0
##$SPOFFS14=0
##$SPOFFS15=0
##$SPOFFS16=0
##$SPOFFS17=0
##$SPOFFS18=0
##$SPOFFS19=0
##$SPOFFS20=0
##$SPOFFS21=0
##$SPOFFS22=0
##$SPOFFS23=0
##$SPOFFS24=0
##$SPOFFS25=0
##$SPOFFS26=0
##$SPOFFS27=0
##$SPOFFS28=0
##$SPOFFS29=0
##$SPOFFS30=0
##$SPOFFS31=0
##$SPOFFS32=0
##$SPOFFS33=0
##$SPOFFS34=0
##$SPOFFS35=0
##$SPOFFS36=0
##$SPOFFS37=0
##$SPOFFS38=0
##$SPOFFS39=0
##$SPOFFS40=0
##$SPOFFS41=0
##$SPOFFS42=0
##$SPOFFS43=0
##$SPOFFS44=0
##$SPOFFS45=0
##$SPOFFS46=0
##$SPOFFS47=0
##$SPOFFS48=0
##$SPOFFS49=0
##$SPOFFS50=0
##$SPOFFS51=0
##$SPOFFS52=0
##$SPOFFS53=0
##$SPOFFS54=0
##$SPOFFS55=0
##$SPOFFS56=0
##$SPOFFS57=0
##$SPOFFS58=0
##$SPOFFS59=0
##$SPOFFS60=0
##$SPOFFS61=0
##$SPOFFS62=0
##$SPOFFS63=0
##$SPPEX0=0
##$SPPEX1=0
##$SPPEX2=0
##$SPPEX3=0
##$SPPEX4=0
##$SPPEX5=0
##$SPPEX6=0
##$SPPEX7=0
##$SPPEX8=0
##$SPPEX9=0
##$SPPEX10=0
##$SPPEX11=0
##$SPPEX12=0
##$SPPEX13=0
##$SPPEX14=0
##$SPPEX15=0
##$SPPEX16=0
##$SPPEX17=0
##$SPPEX18=0
##$SPPEX19=0
##$SPPEX20=0
##$SPPEX21=0
##$SPPEX22=0
##$SPPEX23=0
##$SPPEX24=0
##$SPPEX25=0
##$SPPEX26=0
##$SPPEX27=0
##$SPPEX28=0
##$SPPEX29=0
##$SPPEX30=0
##$SPPEX31=0
##$SPPEX32=0
##$SPPEX33=0
##$SPPEX34=0
##$SPPEX35=0
##$SPPEX36=0
##$SPPEX37=0
##$SPPEX38=0
##$SPPEX39=0
##$SPPEX40=0
##$SPPEX41=0
##$SPPEX42=0
##$SPPEX43=0
##$SPPEX44=0
##$SPPEX45=0
##$SPPEX46=0
##$SPPEX47=0
##$SPPEX48=0
##$SPPEX49=0
##$SPPEX50=0
##$SPPEX51=0
##$SPPEX52=0
##$SPPEX53=0
##$SPPEX54=0
##$SPPEX55=0
##$SPPEX56=0
##$SPPEX57=0
##$SPPEX58=0
##$SPPEX59=0
##$SPPEX60=0
##$SPPEX61=0
##$SPPEX62=0
##$SPPEX63=0
##$SPW0=0
##$SPW1=0.000043725
##$SPW2=0.000019433
##$SPW3=0
##$SPW4=0
##$SPW5=0.015188
##$SPW6=0.00021068
##$SPW7=0
##$SPW8=5.2671e-7
##$SPW9=0
##$SPW10=0.015188
##$SPW11=0.015188
##$SPW12=0
##$SPW13=0
##$SPW14=0
##$SPW15=0
##$SPW16=0
##$SPW17=0
##$SPW18=0
##$SPW19=0.00003102067
##$SPW20=0.00004822063
##$SPW21=0.00002251562
##$SPW22=0.0001214249
##$SPW23=0
##$SPW24=0
##$SPW25=0
##$SPW26=0
##$SPW27=0
##$SPW28=0
##$SPW29=0.20119
##$SPW30=5.8523
##$SPW31=0
##$SPW32=0
##$SPW33=0.00094922
##$SPW34=0.00021246
##$SPW35=0.000019433
##$SPW36=0.0012437
##$SPW37=0.00069481
##$SPW38=0
##$SPW39=0
##$SPW40=0.000028552
##$SPW41=5.2671e-7
##$SPW42=0
##$SPW43=0
##$SPW44=0
##$SPW45=0
##$SPW46=0.20257
##$SPW47=0
##$SPW48=0
##$SPW49=0
##$SPW50=0
##$SPW51=0
##$SPW52=0
##$SPW53=0
##$SPW54=0
##$SPW55=0
##$SPW56=0
##$SPW57=0
##$SPW58=0
##$SPW59=0
##$SPW60=0
##$SPW61=0
##$SPW62=0
##$SPW63=0
##$SUBNAM0=<>
##$SUBNAM1=<>
##$SUBNAM2=<>
##$SUBNAM3=<>
##$SUBNAM4=<>
##$SUBNAM5=<>
##$SUBNAM6=<>
##$SUBNAM7=<>
##$SUBNAM8=<>
##$SUBNAM9=<>
##$SWIBOX0=0
##$SWIBOX1=3
##$SWIBOX2=0
##$SWIBOX3=0
##$SWIBOX4=0
##$SWIBOX5=0
##$SWIBOX6=0
##$SWIBOX7=0
##$SWIBOX8=0
##$SWIBOX9=0
##$SWIBOX10=0
##$SWIBOX11=0
##$SWIBOX12=0
##$SWIBOX13=0
##$SWIBOX14=0
##$SWIBOX15=0
##$SWIBOX16=0
##$SWIBOX17=0
##$SWIBOX18=0
##$SWIBOX19=0
##$SWIBOX20=0
##$SWIBOX21=0
##$SWIBOX22=0
##$SWIBOX23=0
##$SWIBOX24=0
##$SWIBOX25=0
##$SWIBOX26=0
##$SWIBOX27=0
##$SWIBOX28=0
##$SWIBOX29=0
##$SWIBOX30=0
##$SWIBOX31=0
##$SWIBOX32=0
##$TD_INDIRECT0=0
##$TD_INDIRECT1=0
##$TD_INDIRECT2=0
##$TD_INDIRECT3=0
##$TD_INDIRECT4=0
##$TD_INDIRECT5=0
##$TD_INDIRECT6=0
##$TD_INDIRECT7=0
##$TE_STAB0=1
##$TE_STAB1=1
##$TE_STAB2=0
##$TE_STAB3=0
##$TE_STAB4=0
##$TE_STAB5=0
##$TE_STAB6=0
##$TE_STAB7=0
##$TE_STAB8=0
##$TE_STAB9=0
##$TOTROT0=0
##$TOTROT1=0
##$TOTROT2=0
##$TOTROT3=0
##$TOTROT4=0
##$TOTROT5=0
##$TOTROT6=0
##$TOTROT7=0
##$TOTROT8=0
##$TOTROT9=0
##$TOTROT10=0
##$TOTROT11=0
##$TOTROT12=0
##$TOTROT13=0
##$TOTROT14=0
##$TOTROT15=0
##$TOTROT16=0
##$TOTROT17=0
##$TOTROT18=0
##$TOTROT19=0
##$TOTROT20=0
##$TOTROT21=0
##$TOTROT22=0
##$TOTROT23=0
##$TOTROT24=0
##$TOTROT25=0
##$TOTROT26=0
##$TOTROT27=0
##$TOTROT28=0
##$TOTROT29=0
##$TOTROT30=0
##$TOTROT31=0
##$TOTROT32=0
##$TOTROT33=0
##$TOTROT34=0
##$TOTROT35=0
##$TOTROT36=0
##$TOTROT37=0
##$TOTROT38=0
##$TOTROT39=0
##$TOTROT40=0
##$TOTROT41=0
##$TOTROT42=0
##$TOTROT43=0
##$TOTROT44=0
##$TOTROT45=0
##$TOTROT46=0
##$TOTROT47=0
##$TOTROT48=0
##$TOTROT49=0
##$TOTROT50=0
##$TOTROT51=0
##$TOTROT52=0
##$TOTROT53=0
##$TOTROT54=0
##$TOTROT55=0
##$TOTROT56=0
##$TOTROT57=0
##$TOTROT58=0
##$TOTROT59=0
##$TOTROT60=0
##$TOTROT61=0
##$TOTROT62=0
##$TOTROT63=0
##$WAVEMAKER0=<>
##$WAVEMAKER1=<>
##$WAVEMAKER2=<>
##$WAVEMAKER3=<>
##$WAVEMAKER4=<>
##$WAVEMAKER5=<>
##$WAVEMAKER6=<>
##$WAVEMAKER7=<>
##$WBSW0=4
##$WBSW1=10
##$WBSW2=10
##$WBSW3=10
##$WBSW4=10
##$WBSW5=10
##$WBSW6=10
##$WBSW7=10
##$TITLE_FILE=Spintropy Username jyarger
2026_06_23_DSC50_Aspirin_160C_CDCl3_5mm_Bruker500
5 mm NMR Tube w/ orange cap wt = 2816.69 mg
+ opened and washed DSC #50, 5.51 mg aspirin after DSC heating
to 160C at 20Cmin and cooling back to 30C at 20C/min.
Wash with CIL 0.6 ml Amp CDCl3 w/ 0.03% v/v/ TMS
Wt of washed sample in NMR tube = 3708.66 mg
Bruker 500 MHz NMR

##$observeFrequency=500.150012673812
##$brukerReference=500.150012673812
##$OFFSET=-8.551812216152857
##$SW=29.4027622606933
##$BF1=500.15
##$NC_proc=9
##XUNITS=HZ
##YUNITS=ARBITRARY UNITS
##XFACTOR=0.22439876080121623
##YFACTOR=1
##DELTAX=0.22439876080261456
##FIRSTX=0
##FIRSTY=-83427
##LASTX=14705.972789107705
##MAXY=521474904
##MINY=-215079
##NPOINTS=65536
##XYDATA=(X++(Y..Y))
65535h3427R660K3435k556J0645M6162J4681n0758L8961j7190L659l5550k8223j3288Q3383J7557j8601m1820m4241
65517h7511J1877O667j4251q043P5457K90n7246L3678j5310j1709r694O4031K4747J5030j8495j2845L5561L520l9936
65498d182q898M1451q774j2729k5920J2182j640j6882m986j8578M145j0610M003K6641Q145k527K7966K2019K3571
65479E4397m0083j6707r483j3977m2276n45J9895j5206L4999K4695o9222R673r444J2799p663L2925K5298l8409r475
65460e7809J2352j565q1K7394K999j0560m2092L1727L9413J4029r952k1968j4628K0217k6144j912m5087K6752J8213
65441c8702M3442J0280q809o4809K786O5528O716j2413k3253R1409L5433m8274o4581l0560k1687r05R552K3835L3044
65422H032k0968K6090j0214M880m1190M54j3558M8129m8730J2994K3995l3519J2012K905j5174j4021K8610L674K2428
65403c171l0042k2329M579j2582L7198Q842p783O073K6218K5205J0998m0659m5796m060n2751q476r900Q437L0448
65384g9551K4863m4611k4582M0116N2323J4747r332j1476l999N0148m207k9066l2313K0155k3396R117K0312N2425
65366B1673l6480j3196l9083m4204J747M0347J817L9495L8825m0146m8673K4696m2389K1932O73L2734n739l723J8024
65347c1670j1998J7225M1192l4903k5603j7454r5978L1577M9232m518K7532M9781Q2469j9820l2419m978j4272j3246
65329g851j0831R134K6415k0003k6437k5218l5627Q2364l25k7017k1466m0046j486J8858k6986q602L181L9243O0797
65310a1903k9557M8776j9679m6489k0133M1027M2401n0777j6656j8280J7630m086M1652K0339P303n3169K3233M976
65292b3392K4069J933L5134j7173k9920N622j4396K3339m0457k4493J541L3557r357l3332K089j6978J3980L7514
65274c0720o1028J9435M1228J3129l307J3671K0606l54k6362M325o407P278J1460n7905K6959K4536j8856j8732K0484
65255b0560L650K5785J7550l1862n391m496l3725j034L0563J9814k6284j6370k0464L6116m6713j8249k1162J31L8448
65236g4253M1535L5901r809J5448K0817j9339j9946l0451L0230K5994o284K5708l4574q8661N0720l5364J0913J9696
65218d1719r772M346p1107K3692M2268J391m5730K7556j6603q755P0771M0232O72O798l9840J1257m4330o983J4644
65199d1212L8602n7935n5630Q656Q4610k9348R179J4409K5197j6930L1143k7154j683p3327J744J8027L4904J1123
65181b5625J6876m9839L3547L3213m577l9559Q878J6961J8356j427j1746m7650M0074p7146J0781J590K1324N9411
65163C442r457n300j8114j5580l078j5165l892J6432l4978k6987N2353M3246O0280l4772m7912K4403m2338K0676
65145c6741J9688R168k015P284l033M67o4232k4382P6534j8198J0071P232l9844M4482Q035p9149o851r030K4406
65126g6108P8459n2698J6377j326m2852K5468K5909K2029m1932L5934k4058k6888L2351Q744l8108Q635J5385K3658
65108a1021K6671m2726l4877Q707Q3681M5410n5049m6939L3021L0202k4874m1273j2412o179J8387K5722N9762k2066
65090C4147o3216J7598J9742J9647K6278Q861m9434n872K5396j06417L976N5636J7573n4774l3945L1354J7936O317
65072b9197p5546k0815L0048R718J7432O5664O0769p4592l1187J4485N8128k9232m7646m8863j6077j6275Q3798M5971
65054c417P494p9681o18M8275Q135L9485j9789r409m266j7488J932P0979l4312m0625J9781K5439l7623J2871j5927
65035b8764p4234Q528K0501L2971p9873m2161M6772J7045l3699M2564K2510J4466k6223j8957P6306K7833L4311j1364
65017B8532J1942J2j7471m9354n3008J8464P0198Q104l9217m1163k890l3086J0839K5158K6104k948m953L8739k8726
64998c4724M1671J5608m4467j3543N6963o2216l3499l260O3236J11889k9769o4681j18009j835J34363L6864p2806
64981a8215k7651L426j7366l1534K1845L7677Q621L1471M1515n2420Q205L639m1918J166k0371L6788k0739o2389j03
64962i8353N6461j7309K1833l4854j1244M0993J9089k6686k8654Q808K7743K612M7043l7149M8319k1527Q746m5950
64944d0079M914N0567Q9710p8713l787J951p1018j0418N1515N658q611j8228J4292q0532P2869m2412j5330J3476
64926f4176l7357n2222RO8353N2547m8204M9447N8685n2023r276j9911k5815k2368J3541N3754J4121j7629j2781
64908e1305M6819K4567O748K3438M282p3725n081j6242l5195M2473L6470o4123q417N1141J3398p614k7540M429j979
64889c7456l1365j6315R1010J4368n620m9371m2534M5449O6285j8302n849l1656j3866k3367M1881M7861P8444m0827
64871F8770J7569o1201j4442K4723j3305p0644q730k3000K1290J23532k3797l1894l8138n0365L6298n8017L095M8335
64853d9921K3397K3881p0308k5251Q3415N3348M7660M3370r3211r8449N1319O4249l7616l4056k0428k3376j9209
64836h1186K3215r9N5672J19n7402j0843M4230N9099L7094p978m7594L6374Q233R007n7058k0866J8452q3j7179j1673
64816b0466L1433p3100j6591M4160q41R660M9489p982l8773k6151K5042K5352K8591l704j0624m8922m782Q345N9082
64797B9218K9691k9473j984k8047m974q022O619J860K5488k8306k521L8209m5206r274j041j9929k3732o1695L764
64778a29355j9656J7541N9434Q3842n9727m2820P4214o5559O2621J3117M6000l7966M45n7286m66J4244J2786n84
64760b9175J4054N0102m448r409m9070l9430P0042l3656l1199M4065J2769m0518L826O0338l7960l1984N0429M5512
64742D4288J8794m9518p3651K126N1240m2604l4701L5871r300n5574L7341M3884P2948k8608j5088q319k3489L3751
64724f09k5077O863O0481p1061k502n9424k1456N1751N6664L6040Q638o1555M8580l3202K9127j2757j5976n759l5736
64705d6970j6708J9078k3281K4331M9408L4501l523K7849l0410p4015L377M2824k3147J074O388M7714l7688J4799
64687A5601N794J5388j363n5037k0806n151l0110j3676K6872n6175M5237P6603R075k3058m783K4665P755p287m2073
64668c2529J1114J0557n021m6558J8930M2206R3M5934l9051j14277K2204L8206M2616o1403J3527K422N2760m596
64650b866j5559j0309k3129k6561O1363q2708O3484R9362j8535p0912K0285q9738J3132M7059k8498j110L0064q2774
64632a17950l2499O6622J9108K3023J5045O9161j4272L6453q9760j5673o554N1054N647m8535J4856O4610J7652l6821
64614B1167k7044K259O00l4881L4596j0121K674j5674P8558k4027R469p8788M1026J8266K8362j5733o8970J723P968
64595b8570l3849M4854L4410k8774k2274k8573K8692k1574N0710N6307m5886l6286K9509J575L9244q7833J3151M009
64577c1158L7350Q365q3564K9360K5939l9766k6248P515j531P977N8213p2579m7873N2053O4438L2846N8502m7852
64559C1987o5319k1984l0075k7863O5743K0674J8015o3565N5154K9066n2984n3822Q8233K2202m612J3079j1288k1781
64541i140L0331O4722q1364J743K7776n6905k9583J618K0242M6844M8250K5525m0582j5541N762k7426j9382M0628
64523C3518j12796n892J9534P423M0935k4411O856M9162K1304L0071R60n7305l5454K1355k0275P6221n0432l0985
64505c0211p662L7677m2184j0736J7624q6163j9516Q6548K1391l22M0021q5670l3092k538K7180L2576O795L2441
64487a5841N3510K1762m1115J2173J4442q2457p0663N2955R6631J1298m9081R8813o885n6891p6026o6701J8525P0502
64469a5049O5537m24n9684o7082r758K3485M0538k7467j9338j017k1827Q797l543m2303k408N7606O1054M5937l6334
64450c280L1086J1844j9620p3167L0166L7395J0111p6975m4776M0785M2793J6926N5954o2245j1090j2648K2295n2173
64432e6619M1556j9871j0498J6312K9511K0401j3731N010l0097k7680l6346J36101j6413J9729n6153p7154n4317
64415a30259L3556O0222R148L6189P0433k4445q5816P706Q0516K1477o0197O268K0090J585l8299j6773m6389O4765
64397I777l3263l165M1724L0625P349p0874k4067k6731O0673P8920o2536j4819P2465k4558m7933R465K1829j0823
64379A4058L7377j9413J7280l4667k4586J07748K5370q6953m7873O6736m6085J6101M3698o7154l2543O9368L9697
64362G8159o9703l9535o1237k3818O4414J12246K0475p2746j03965o893p443N5971j2245L6429L1841l0646j4238
64345d2934O0166J8352n8097M20L1640L8433m1871M3599O9021n6891l1411q5140P9881j3489M036M086R337k4053
64327E085J1630l4435J1188l2553K3227Q6937K5772j2462j59O105j5079J1796q0214M7577m2253L5950P5520m085O097
64308A25644j00309m0949P099J3884K3692q7152o1251Q4200Q1553J032l0771q273K8373n0828p7102L1801N2388L9840
64290C2871k0631j05137n9951J23333L5185M2472P459l5427l1752j8320l5028K8099l6746L7095J3150O1386J3303
64273E1361p785l2691k3411J3315k2581p8534N2890J1772k0704k2137k2636K8750O8305J7563j6397L2898j9773l2356
64255b2151k5674n7738N711R630Q0642J783l2786J661L5944J1032o3812O5676K3974j365k3051O799m6169o659M4548
64236G995P588k9363k3478L6633q0363P5920Q6884j7175J8621n5846l2498r0581j3245N8868J1226m0252K8366O6129
64218A5429k6436m5040K8535K0319q7626L444L3864N8398l6727M2594q0878l3745Q4272M0477J3920K0750k6650n605
64200A9295o8408o957N9972k556r044J0948M0402N7515n5690J873n8015O95o0986m4875P5883Q2154m8679r6306L4152
64181f8627L2529L4742L0929l6528o0185n4723n2959R5965p605J6252j2621P0004R408k9739r2969M0586L7436k072
64163e0177Q5394k0138m3864M4484K5053J1900j8149K4964k3808N4514p8083l7293p7970J4186N4543m193M4034m3325
64145c7928q7094O1382O3815J1267k7674Q855J9757l1164J913k001P2366j2204k1040J2607m5362L9391l3396n4223
64127f0733n6960k46n7845K4270N0126J02074K1493k6972K1884j344j1044J5838l2413l5587j257R853l3405j8883
64109i1151L8925l2209J984J10028K973l2605j0958q193P4106J6965Q271j28387Q839L476O689O2667k7296k4906R00
64090a9882l2076j2889l5419N2607L7580L7133r530L521o1021J0690M6093m3220j1169l814O406j8154O9680P884
64072B4420P2356n2161l4810j1786K958k2555O421l5331L6761L6275m0401l151m9130L8170J2876N245M2077k8026
64054B08J5280J2520n9702O3617q3979L0863P1391p158p1069j9111m3399R811O5692M7411l430J5430P631o5830K7739
64035A3915j577k6447l795J5987J8694k201m7647k6485O634J9052L4724J458k6719M633J7866k7149k6783J5314Q2422
64016D1896Q745j2102m5388J6853r263k3549k5830J9258J8552J4001K6695o943p0281l7624J3892N0719N607L9340
63998B4578N5487l6331o2861l008L0919o085K1483J3408j09404m5339K4027Q9677m5646J3770O0853k6762l4647M2995
63980G114N345n4086m2692K3425k978K762J5280j3321j4983J6284j5895m417L4428j5807O559M7438J6299J0648k6659
63961e256J0094n5694N5124O5169m194j13191k9499M4936M5740o4189L3650m258q528M7598L59L8330j7781k4540P750
63942B1620k1716l5886K7757m6975j8242M2489J1249N488J2494J3788P701j084P920l8541k9573L4118K3022L362
63924A8991L3383n1744K5323N6130J9755l1349M0304k2759j5494k9928L4220j7683j3154j1825m6869L2703K4013k005
63906D2012m831L4850n3966L961K7442L0627M301l6710l3187k2021o547M7329J0427m2044l3532q484n8022m7694
63888a46089J05258P5337O0234L582q2421k3673M0890n6885Q140J3806N751m4639n8602l2182k2226Q6586N8714k1489
63870b9908J4216Q4582n8150n1052M2471N3057j3454m6891l2968j4912J0745M0563k5154M637n499o6346P219l3924
63852a20768k5712N7245m8894O4069L8663M277k2759L9410M3559L0132o6178j01954L8561J947Q844J24959m0799
63835B4602k4097J7889K0409l0538p047N6333r0945n6788K2704M8220m0208j0167P1017N3440j2896r6347m5108N7923
63817d1604P0837l0331l7187p2935j2113P5212J8599K7780m1782k8883K2799P2042M6083r9730P91K0730J5337R073
63799A4718k6643k077j7540M0927n3573K7660M0614K9237m8242K3997o7899P396O3909j7388J901n4733N1556K1636
63781C5456l7748N4564J9238m3096J0862l2726k4800l2916n6125m4478P9508O6686L7443J8912m691k2973n489O146
63763B3773o1826l5048L066N5213R767j2152M2496L1711Q20l7692j15819m256K6823P1132L8103Q994J4119o9437
63745a0213l9752Q6860K1467l9600l4565K7487J5979k6409J0392j2837Q8892n4591l1756J5764O5428l3568j6085
63728C2893R6904k402K668m3305r2341K549k5584j7784j7873Q3884j5337J1707k2708l9412l4945L8555j1940O60
63710e3811J6365l1126J0162O3806k0182j8652L282L1990l6578k5495M3020O1334l3795o5528N1652m5946j5274K1263
63692d3513J3162R888N101j3469Q8670r7688K149M7687K4374J2853m9182j942J4617J7172q6388m5697P1973L7568
63674G335k1500j6850N161j7096P6757n8638m2212O4423M5737J9160n5035k2787k9909j3192m800O4933l426M5874
63656D3935J3525l6095o424L2835N1751q3933l6548O5040l5512J7489o8572n632J353j3820m0872K6797N1293N8613
63638C5223j2907j02433J2489M5860Q049l449l234L5979o1034q736j5185P0935R547l7005J6771J5478k3276O326
63620a0602j0125J03456l1375j4649k1358k9137j3919K3524p535n3831M7766K7520n5987J6873k8800L6858R124O0662
63602D8465r0905L802P2539n7841k4571j4637J1443l9695O1047o047Q8617k1636j00712L3986J3832r5401k2539k1705
63584a61958J0683P1273L8629m2392K0195l0129m2667m632J07682N2403k4185m394k3253k2251n442K2293P2953k4536
63566A0272J0564M8355p3806J5812m8891L37n906r328J05194J5311o5171L3494O1614j04410n0624M5561J7867o7255
63548f1010k7933L636P7212M6672M7200l6895l2387M3562j0038l8539N58J08570K3382l9794k7249o3068Q662J5868
63530C8409l075J7698n8317k3189K9737N405K4042j4913J4792J5574j0306k9423r624j0188M724m9116N0358M903
63512b509N9464n4277l33j0675J633M5101j0817l1173P1886j4135m4714L1081l7982o4448N3306L5884o6522L3424
63494e806M4274O2645O1150p2986n543n8124n7234j3227k7858L8783r851k4937J9062K7000L1619m2580N270J8806
63476i537M0864J141k0087o0452K1583k845L2049J3202n1855K1273q793J2839l2344o2190K3080j8303J6953M8030
63458c5392k3109O3421K0557J2118m0889n6978N0159n123L7834l640m4115k7072m1751j8632K7772L0828L0870m485
63440b7627k4809J277N2615l0260l7135L5283k5118J2730N2990N564j4802l3870O2956m6716l2581L1867Q255O987
63422b394K8322J7726r163L7564k6959p7347L3690M6245J7036k0420m0271r7385L391Q414j367J3783J7876L4594
63404a6665N9794l2324j8243O120N4180N721n9039q2326K9815O8386q088L138L9681j271n4590M1353L6021L0813
63386A02476j2001m278j14669q895l1583l1640N4970M9019K506o5120j0694L122n949M4560M7471Q445r886q1016
63368f3162p5699j4553j5017O5223M2915m5716R781R0960K5619m1186l3047R610O3967L8541L3933j7451o8309l6466
63350c0057L261Q53O0006P393o4541k9963Q596j7230l436K5361j5666M6166k1273j4816l2234J1203P2362j8081M1254
63331B9158L5184L999m2483n6131n753J6206l9934J7721j7049N3015Q7104m534p5753j8702Q4510P81l4046M631K251
63312D0175m9470k5805l1190J0470M3113P0287j19401K4558k69L2227P773j5506l5418N8484m849r3024K0503P7568
63294A0226k3870q5198M8979N6908l7464q9588J2659Q2985J9612j7449j3278K8667l0362j4297L4497R103M7222J5825
63276E5177k8031L9900R5816q8929l9649P044Q821K3827r738M450l947p6379l0194M5819m2432l3367J0214k0751
63258h2349Q9972N9144k8564k3175l7421j3423M3816m1721j3856K3386K1750M5233M0014J9755m1986n1924R477J2991
63240C1119j0178J7437j5118n2921n3928L7907R644J5219k7365k2580M6594L5489P999M2341l5605p0740j7248K050
63222e9884J22858o8318n3223l33K6349N4884P9863j7612m2963N6166j9976j17884l88L8307m477o2949L501J4091
63204e1988Q4760j03993k7027N1491l229R0176M6315J1859n7738p6659J6404l297J1288m2239O2666l2286p7173K9660
63186g1010P6179k1390k7309P1236p5880m832R7606j6183l9188m5578J6059M739M2893L1133K1505J5651j9516n7312
63168a197j0173J231J9633M5238j4215j4382J743q2808l8642J8611K3277K4556k0149M5520k7490K685K7995j2181
63150a0748M4269r0786m7328O3808N9181k2629p676K3536N5326k4020o097N8457j00189N876k3658l3068J2098j2395
63132e6043M7066k5457l3096o1674j1712R1842J4937J1670M7659K1306l8322n7887J6997Q2955J2800p0399k439R0259
63114H0462m0037j8454K2860l5488j8178j1576m7791M9583M4583L6329q3683k0530O5479L2692L1387n8833L5958
63097F4763n3732K9970J5720j3912j881p3558J3345L1064O132J0570Q430n3329K4873j0632j338m286j0255j7974
63079c6030P9129m1510Q400L5643p7691o4027j0828P2583J7611M0148L6864q3613M3653k1417j7455J2411N1567k2302
63061B3136J0910Q095j0124l6050N0335L1454n862n9053l1931O3540n1412j9530n2168R7348O4782o5500M1702N4302
63043A13974m3332j0713p5o5053l2946K4909M940o3032P7161Q3692k8321j9053m8053K6544N769n5397R931L7816
63025A8761j7469m5498j5368m50O0907K9681K7439l7084l7601k5563j4171P1271l2196J3784L7690l0831L4347m4713
63007g064l2276J7923k746K8222Q7348l6845q5977m5100K8976l0721n387K8500L503O3366J765q8214P5308r8686
62989i8105L2998J8219K9267L2328k5906m9476p889L099m0507O5310l26P2191k2837o630K772j7750m7127L2702L0263
62970B596o0650N5650Q1899k9900o2294k897k8613J4690l676n6510O7414P0145k873l3094r9999M8923O399O064N454
62951b1272o5891P542j3530L0709J02174J2931j8856k9473n9441J7718K591M0972p427q616o7346L3932P8878n9077
62933b3482o7225N7048L1140p028J0576P5720l4380p201k045n4106M2120k5169j4608j1867L553m4619K4374m6432
62915i3631p692R3476k0597l795K0065N6738j1388m718m767O379j685p0125q714L4639n4580O2063j0623P438m842
62896a6359O8184J2354o1920K2755j1917K2598m2074J5037k8526O242M1573O9841o583m971m2287q9548M9237K6584
62878C0220k9525j7619O6608N987k6298m8893M3005r7082L1787M2402n0876j3605K5776J0013O8030n4859m293j5168
62860c4390M1363K1496Q857p90k0879r6243L3264j3118J4023K0927L8302N9463K0470j7594r5343j2676N0793K9534
62842D7459J5177j0686k1611o3416O9445K1532m6465M0154p4851O2752L3711j9114j2489o6502m044O680k925l775
62824b8968j469n539N2407k1414L4065J8158m2076J19R8778K5773p6677r736p6415O0114l4081k559J1916J2892l2608
62805a7320N4230q0911m1430J12602m2496q096j598P8192k2296l1891J7367m1968k7036N1696j5465l427j62k2940
62787d2949K4993N6787j2160N4566n6424l4219P289M0757M3642M7376p5199r595n709L1004M8928k2810n9545J7016
62769E3748m5684n9909l5947K9748P928J15214R770J3203q8066p911L3072k8211M2334L1247n0215m9883r389k9210
62751f8161k121N3849L5153k6388K3832K5831r9740Q8178k1732K3148k5585o06m9860K9625o166j3297o346L2694m094
62732a1786J0028J0192J1032k5606j0294k5394M350P0798N3102j3557k5050k2782P367q4236K7134L3808k6812j9382
62714c7088n740n1949M5012k4694J2995P4398O69K94K2138Q8658q1506l5914J0108l3444r762K767J6379L5864p411
62695B1774j4243l6890M4847j8915L1909N1559K4861o4914m898n4302J454P4349k627l3096L6398o539O133l945q062
62676D4853j6014k5789k1334n8626k4673O1899N567l4614N9109n5787j7445P0031K4670M4859j2239K1601k0103J1828
62658E7793m6132M2448n1026n0825N3180j338L8125L8756N536R389o6502j991N971l1042L1282J4850p9272k0180O72
62639e0306K3431j3291k5025k621M958K9673N7386n1274J3892m3618L9027k7392M6226O5977m3707m886L411k4542
62621b681m5616k1931L9320J3286j9202K5345M879L0547k8200j4412J7979K0879L4275k1999J6226J3786m3702L2224
62603E1003j4976N987M456j9978p0311K0571L1549M3928o513q36q2723J6074Q5215L339j6319j0082l1985J199k5058
62584a5460j4056N5015M3144l1612N624L5227p9788m5641L4495P1249l7208q5514k3803R359N7933j3103n4446M0405
62566d8180K1123q037l4537j0142L7055q616K121K730k4757M626J5942O1751J8331K1249n098j4817p8287j7865O9305
62547C897N1901L5359l1597p428k8803K0972o924M332L438j8701q176l3415P2628P7089k1740q4040M4958K0579o0552
62528C3777k5717J1098m8025n8574N0631k3086r373N5705J0293K4547K5522J4310j6752o2641K7865n3134O921j1035
62510d7668j4330K4990k5965L1296l8834J3197M1835L0714j9977k4677K1549l6643l2561l8512L9739M4475k2883
62493e4255K2379l6178J18275m7622q3201N1788N5697J5409r8950P0299K4611j8184n7155o43K052P153m0122K9814
62475c8833M7802N3849n026J465k2016m9061j7927K2197J3383j8641K3744J9274p2181j3520N344j5148j2432k5005
62457a02732Q7904q947J4427O236m6738M1203J2329k9768o2043K6857J8139N5051K2116r6068L3126Q0492n0630L1158
62439C2112j09793N2508K2485l6363K2813P6232l8497p0756N176j6679K3627j0163N2732m2134j8692k1025K8955
62422d7462Q6576k4310L8008L6743n2181j8871P14l8738N1561k1404l8402K4878J4877K3596L7571k3637l4700k582
62404A2237M3943o7809M3292o543O43q639J8413R6013p7951r7794n0644k4917R2799k0086L0023K3668O373j22250
62386a09229K8708R5247M6154N693M6441j886l2251n7140q638m66m4070O8810n8459l8009L0082K4104J4781K9280
62368C9152j9580l5687J3576l0267L3882p359J9842O7680n1564k4619k0743K3518k7057k2355J8206k4072J409m75
62350d6513K4966K6213m293l3534K4274K8712P8727p2674j7310L9190L5438l0139n8890O564M4102o7895k2036O5992
62332B0894o6197O115M2193L0532P484n0720l0346L0538M3236L7816j4023o7997j5818j9510O109l3355R8790L932
62314B9673J548l8284j4184K2902m7045J2714N0015n5701m4280K0860M8927L7225P197k270N0607q9631L611m465
62296a0581l4355K7874M9798k7153p871J1750M0556L8294n4047p6419j1110P0779l2607O244M1900k1260r95K1086
62278C1883j8260J7397l2931l2200L0832J9337j9330M652M5181m989M6384J7130k0684m8972p6560P481n633m0209
62260g9491N784L0069O0508K3600N9803j06654m3372M4424K862L4667L0948J9511o3101P39O0203J1408l4463o6138
62242h693m280K8482M7391l9718M9222j280L0694M7417o8418o8065K0186o4040j9208O416J9473L0941M9032l7870
62224A7682j6199K3064N93J2771M6781j6709q8131Q0113N5597n0891q5295K3759M2164J7923K3604n3541m9755N8096
62206D1626n5923J2272l3390O1960j4407M440r176n7195L0438L0908K6933Q198n5045M3201M4570N4417j02056L6460
62188F8231J073q1767m1318N388O5606j7014l8360N4274K1000M6217k5988L2862k9740J3513K5033m1666p7826L6473
62170A5991O0697l5601M559j8519m2323K3671l3767L5910M7869r433m5032m0349N4537K9054l8590j8028K1074M3438
62152E5158r900L9874n2426M9190J0678j9939k6405q0380k40N778L9686K5843K2699M9606o9491m0538n0434o5665
62134a16906P4758L9882Q3726o0044l0698j4316O119J5829M3973m2228q0496k2970K0008m120L6456O0961Q83p7693
62116f6876K3075P4021K7722q038l0264M2206r2381N511M5513O3598O0239p8277L1257k414o0070k2073M0048k9307
62098B3490l1842j1487k4023L0038L9610l3764K7852P821o3718j2398O4896J4515k074k2557j2547m5948l2547P0106
62080a4577K0232M4981L1506m7924l1211k2518n4085K8930K4938k2688K2775l976M0471K829j9552L4565l3186K6893
62062B8403k6355M438Q4238J6911J2400j0457p6199p75l2101M783P8902j0383l5968l3131K5660n2082L3394k2503m37
62043a1262M3941n4371R513M4894K1580j5663m8823L4803m89K540o5273O0253L7402q15K2744J034K918M511r091M156
62023H4502l505l2770o0225l1269m4421K8029N6005L6958o5399O0610K309J2104J2632J099p9046K993o584J170N1726
62004B6918l7983P6182l834n3440K7100j0994p4708K5586M6401j2774j9953l61J1557m6493M6088J2153K7742O3538
61986A02725P217k7222l8104m4843k8043p3653p881N0581M0976L0767N6819K9939q1829j4613l6284N3924J2393L9770
61968G2639m1561Q575J7639o4664K1061m44l6347K7773J6492K6253J3903l6466n8421n340N1459Q2889J5955o9957
61950D1438m4577Q763k7656K7523n6760J4082J6309o117J6578j7480j0020M0784N1006l8687k1791k6122Q986L3695
61932I954L1994J4488l0774l4886P1501k8798n8835O9559J1312L7380N6543l3229j06308o6711L0718l6727J20050
61915E7231r499L2977j2899r323j00037l941k37l6574j6066N0433P5984l4616l999M3927m0431J4174N0529o0531
61897b898Q1283K4514k4789j32j6574p7425J5844k3322J947O2514j1965m2271M1302J7685n0571k9117j6486J2093
61879c8368m4636n744K9230M8156o0221N0384m1131J932P5311R4649J6420j2158k8286k2260k1333k1559q5549J9676
61861d5487L2Q6270m6218j6582L3194N3339J5249n0735p8857K7547n9211R3102j9700p722j4912K5716L4273J519
61843C0817P6627l9545k1385m7538r085K6125O3310n0472o847J5697j3807O0521m4949K3454o4856J3944L5203M2986
61825I0200L7147J0349n7102r9326K9018M4322O6821k4327k8099p9735j5965O0511j9619L3221m5328o2l7235M3071
61807G862j4463O804J4812j8553J7853l2549n3001j9016N2007k4253O97N8997k196O03k7859M0376K7332j6011n0201
61788c0759o462J02087n1045n8376k099K6504j5495O9384p91k6693l7154L7442N5345l3656K6857k7846l4774k479
61770a0010r149J5863j5598L7293k3008k6610j3121L3803Q642J5791l6633L1210N460K5685K0562m8733Q328Q2871
61752A02646o0074K14M8489r1839j9340O2390j3323J0390j3690k7146K2939J7290j4693K7992O212l3814m015l5221
61734a4593j3297N2095N4433q3049q255K9071k2621J4253L6754p763L5118J1576j1902l2448k0626N823M7868k0599
61716E1838K0196K652j402n6183q2540n3240Q9569L9358n279K3638j2618K4505k4802J8529o238j0185n2277Q476
61698b6003M8382L5134j6750l6598n1427N262l78L1428M6067m8322J1787k1465N2164K3419k4695O0858o1241j3340
61680A4282N40N3313M5377p2512m6356J2843l1434p5936M2550N0133O8648J4715l6517j7919M3756j6275J486P5989
61662A26683m0135l6083k4630O624N2945Q682q0600l2882p441P6258m9644K29R7946m8202m7029R124j2940l5336
61644c6431K2029l0808O8517K2450o3991M2012O6384J3363k5697P658m9238k2404L8398k8863n0467O6846O7775N086
61626A12619q8474m0285Q2391k978j08471m1038J02459o2492J3378K9211K9209l6110j4498j880K4731M6906Q764
61609E3442j4643k2222L295k5780o378L0233o2572j4659P4107J3735M2148n6966R151M031K8638j5321O1745M7875
61591A49859p8056l5831N617m1869P602O4166k8296l0642N06J0582L0940l6140M0724n2285N9616l1742Q76q7599
61573e1972K0447M1060k4764r577k3219N0852j1998j2379n2620j8813K203J8420M8999j3682n6245P0949Q0730L1173
61555H9564M7643l2223o4953m7108l8112J8693Q3222J2384p2361L758n340L2731M9949L4084n0000o5451j01569K2039
61537h3050N4952Q7315P9238k8984j16245J2269N5436Q085L6317j1799M2025k2455j8746m1016n9358m352K2617M948
61519A7197k8325j5655L6459K8919m8485M2655l1511J8580Q737J8229m147k5050O768K4771m8756J4499K0464M3027
61501G8376m2576p3763k375L7129l7447L3211K9403K1314o7265k826L013L4999J02538j0204p9055j5196m4016J7655
61483a7085N3605M065j5963k4014N3314p102l2k7631N2088n1843j0922k2763k2461M0882q70L1288N6778L6020j7770
61464A09584k2638j5243J7310J7485M437p7048N0191l1928j01628K0496L2363O1568l6320k2182P595K6383o897n5249
61446b1721j6781M3867K6605j6031j9624N8591J551n0550L3446K7517m0076K2204K6627l5901J0148q4767j1525J1704
61428c4716L4224K3724J2827k1685K9965L3170m3894K3183P368K9048k364L1596l4507n8862L0156J8212J3258m1605
61410D9098m6556L861O5640j6190k2861J5703M5416m6635L1503j3532j1359p2123J4735Q4817q7746l1581N4140j4800
61392A530J04833P102j7893n0014o656L1942k5475l6392L405N69l5183L4446O930n0776L0669j1720O7779m0879K0233
61373C4450O654j3996p2868K2214P3826l8820p2609N4662J5076N0139l1804J5114o611n983l6738m973K4678L1647
61355D4058l4276k4999M5713j7027N9207M6291n1776k0057n7449l970K5189K0591j6370M1687r801l2798J9202p8106
61337d4691M552m232J3940K1043L8365j1231n6558N2721N4153K9245n7817o3400m5675J36008M195L986J6044l2514
61319E8134k962O763r5234p623k4883L1475K1644Q5453q664l7653p5257o663M4881J7880N7683p278L9224m6956j4042
61300C5922J7178o3944j4031J0905j7610P7456Q521M8884m1791L6355k7254j9315l7272n641J9066j1223J2988l8592
61282i398N8201j6220L278O5229L4589n8414k8496q2691K7255J1669M6628l6480j5918q153K9105L2624l1411r302
61264A2095O8227J1445L2029n8163n8610K681M6256k9086m737o0179J5645J2162r891j8310P3723J6774k3512j7182
61246A1367j4338L9386k4685l4023J6071J5299k6778k1129o690j769N4258O3347N0523n2697o3346j0809j7678K4382
61228F91k7324j5737O7678N0510j8540M5653l523k3005N507K9234j03365o3937m191J490k818K8928k1535O657J7213
61209c0414M3997L8978k3752l5632k907K9988N048N5702L0624j5262L889J4389R857J90P152j0079j15686j835O4096
61190F8343k6261n3966k4842K6850L4130j6669j0078j0343J8480k3656j9489J8131K1128K0690k6725P806M1399j5637
61172B9291k3646J1306k0861K5926q404J3137k3847l9858J0703K0179K2789n0499M9495m1849K7475J5250N3405l8814
61154C1178k3556l3870J7177n6494L6826R7867P1350L435k8526m7038n4068P706l0771k790P921O9260q2611M781
61136a2223j7163K3462k7631k0004j3636q0898P9129P0191J0849K5661L478l423o5581j4212K8848k5335R556k0582
61118d9514J9833M4390J434p7925L0021M4838M6924l9519j39976n187L0613J9259r945O5859J0199J3986k678O4451
61100F7063J2801q265j5888n3326L7099R046o8415n6539K8226Q5283R0741j9372R677o0686n6821L2576j2751N4644
61082G5093j1556r9553j997O3023J8341L5135k7960N3346m4142j6221K9981p4246J2875M1056q776j7334Q518J6824
61064E2407j7321j0100l7543p21j0041k0618K0513o4054P2415M0352J6497J6603n2939J1381n3220J6551N285j652
61046a6205K5290Q8159K7650m2103k6676l5780n8879n2778L2683k5159m4381L569M7771O8657j1008k6386K4795M2432
61028B1651l5704n3100N3556L0506o9599N109L917K6964k5865R020m4186m3863L4094M7501N3555J1133R6740L03
61010A21732n0378k5871J2559o443N4846J8933l7070q744P17n4513m2495K9739L6155J1584m3776j1794J6830n7292
60992c5281j4996K0570N008n8098K846J8754J06719q666J6755L9739k3329l9875l0375J0386L9250m7558K3871q841
60974A6879R27j0088j5471J0239K0416l6964k2438K290O1201K0994k7433J4497l658o8259N1089O7115k5834M126
60956E9628J0528n95j31187O3835N9064O8582k4467k9809r31k3296L7524l9821m3408q125J847N1885N4095j3166k723
60937H9460n6783n7243l8248J07483J4420k6718M019J2352n081k6662M184j6553L0402q1858J190L7910j4750m9163
60919g1639n57K3246M6476K7078q630k2208L9761n922p5596J4024n1303J232J1934M4083Q5129K2689m7000k0452o494
60900E851o0024Q667o1489K7279l2883Q647j627M5001q093l843p548M0645L9893P628O108m5795q537L1888r606N4750
60880C6912k6787N667j6264K3736M2317J1647j5275n2005k076M4056j4672l8268J4391L2676L7338Q38R377o1458
60862C2150J1949p9034j693N2308P0316k5058o9423J8739L3598O852L0633J0049j7652K3954l8521j9457j2918m6838
60844b0046P1552K5250j8866k6296l2881o4999L2592R697K8884O533K8984L751J6961l4167L808P011L4530K7255
60826I9553p7754l6477M2866o1049J8725Q179o730K8035j6578J2660M3964l0573K4019p879K0773m1643M6634L6523
60808A03248k8929N44r1007K7907N400n3803q4650J10174m4589k0553J04935l7302J6480p7685N594M6865L0273j3709
60790h07o2632L6227K4032k9152n6784M8529P0381k500J0940Q471Q8343j55619N0786J5208k0085Q4777j1065j6928
60772H2122q803j323n6147J4866K7129q1578P4276n9922l5725j0229N2902J14558M0279K0105j20559l3640m742l5914
60754b2345J7676K0512n6788M3550J3108K9024J5311m8068J5238J2164p5420m4987Q5459k2302K1794O2249m2421
60737B3754Q1435l7069l5751N188L6295o316O123p4517M0302r633J0030K8977L7151K4965n5781J8004m7099j8199
60719B7859L5500l4363M1058R4895q8233k9493M6704J1192o4471j5268m8409l6529M2760L5606J875l2821m7383L8801
60701b0720J1431M182Q379j3897q944M4300K309j2302l5811L3625r095L5713K0245m7312M7714k6612j609K6251J7423
60682G5270p4783j2130K2229J948M7294j9746k6509M0991n5458n2017k7612K0226M0038J465j2951N3745L5505o6646
60664i141l0300R305J4046j936K5381K963O2239K7821m9298j4745j8708l4541L59l501O732Q65k3324P9062p5461
60645c2182M8282p731p390K5954k0482l8679M9056m5757p000K8718K2457k5506K4176M275P7058p9349n623M0825p545
60626D3557j42q3623k5231M0373O5418J6350q3598k5734R6182O1539m1437k9285q038j488j6666j7847P1484L2379
60608I4193R852r0590k1895K8582j3877j5502j5611o9670J15488O9905k525m6393p5057N5089L9288n7289q120j9645
60590b3777L8578K6286p841n4462K6719J9951n04k6680J1519l4163M6699P376m3626L8364L3743m1463l1018J5132
60572H33L696k9148L3559j8009J0532L9094M7067j4204m0308j1165l7492L0575l7077J6036j6370N1429j5359J0914
60554B4603k7643j634n8788l4844J10501M5367o2668n3018L4524K821O190m919M7567n4350p355l6551M8532M5958
60536B4293J986j6180q269l9658J11M0451L3317q222r269K4498J16K1279k306l9867M1141o1411o2778k8347l1173
60517a20288M3812M2368P155K1179N254K1750k0397k7869l4236j1134k4773m1317Q2846k773O7435O7638q736m4698
60499B3216j6847M5531j5212M577k6436k9420O5842m121l6681o3934L0906K6972j7321K957J7605n3006L3958j7014
60481b8428P0117l6937J3924N1519O0540q231l9998N6382j2413l6369p7876o946J7845J7294l1915m1843N0265J4298
60463C1228K7503J9856o8309k1883J1684K4815O859j2962J1001L1052j0879j6262j6693J4030J9869K2734o517m9847
60445A7279p6787l3222L5333M2929N1798l0553k1436O0248j3694n6118M9547p6546o1077M9398K9973M9589j9709
60428c048n1617K5238O211M3672M1592k6802k1552k3430K6807L7976n7745P547K5631L3266J1432P867n1715m1428
60410a0098j5790M6100J1431j2409J8510k2296k4958p3186l9432J28637M8993r033o1058n3370k8295J12176L6935
60393E2857R440j907l2109L1078K7947l4805m6540j3168M2445J1310l8807k3069N26M5255M1759n2928P172L0009
60375E6465j4112j344k8656k1380L3129n513J9781K8133l9456q092L5843j7504n6041M5617n3574Q7481M3407p4270
60357B9914N2675k5104k4231j3184l9805N6548j7134m6238L7406k659P7400K5877l3817m4832l8373M5967N4448p5136
60339A9722k4427j9435N2502j2835J6003p4566m6044N8401M5449Q4219M9612p8221k0068j00661n51M6456k4482J4168
60321a4758M0602k6029L6317J075O8584j47482M3050r366J1100L3732l0161K8073K519m7374L9087l5521j6655J0318
60303a2889N255K1675m075M5360m0919m5746l940L0405P0400L1508o2368q3946P990O6023M5334l8147l7554j2827
60285a8461l7385L6225J3977K8093L0237p4735l3836J3016k8100P605J872K8046N9934O507l242J2575j5143L83J5702
60266D3270j61o0244O406M3507J3206n1178J9396j682L3866p1164M9053J1989m484K3114j8277R9530j7470q3155
60248C5522l6319M0583o0800O357m3947m688O9294N2623M6934k0570j32117r741Q374M4913L6267m6140k7040M332
60230c6163Q5555R502k6508k97j040k0340K7173k9730J6937j5979P642l5030q5398Q8243j9919J2526N0458K9728
60212E7360o9534k621K5887L5715Q266K6880J0514n8006m0932M522k8981M7839k7811P825m6177N1883M5457j7257
60194C0829J3702N004k4923o3707J7540O6326k9224L244j7603l0727j3502m3752P2571p640J4473n576J303l7302
60176d8964M3180J0414k880P276n3011m6796O3576N827l0894J01128k3798m3481P1227l3163j0241j105j9602L3205
60158B1898J1343J6283l8023O693O0678K396l0391k388N731l1883j0089n7822K2415m3241M843P0851L7549k2298
60140B4545m7513M3296K6788J6382l5400K2978j06615q522O6013Q6555O887n2953q9276K5398M7934L720l3289O270
60122C198P8225L194k7308k1693n064n379m0980L2632O6310k0868l251k2874k9849K348o1436P580N6797k142L5843
60103D5283J2113j5437k6035p1872K5915M1147k686n2565O4898J2130K8435K1425o5790J4048j0738J7117j1789n7347
60085c1748M7755J626n6585L6815r783N5423P068J4006m0278l3941K9856M4239o6973j5353p498K5059L9478k7405
60067A1761J3717j7174J9512j8669O4952n476k3779J9020K5248n5905n1806L2589N7957k184p2599q422R053m6674
60049d8879k5612L1915j325K0503P2706l9115k235k860m9453N1138K845J5791M1626K3125l0342J6451j5989p9485
60031a9195K2423l4355n3106L9574K2986O7988L77L684q0820k4830l3846J3961M4564N1380K7178J4919J4679r031
60013F8530O6506l3262m4497k8940m71m3569M7369Q351n7770l0373P7722J5411J9151k4510J7970J5978k7425j9421
59995B6750K0859m6675k3719L9327L5917j4686n6070J7856P723n0993P3382P8955k1642K0414o5496l4768P2532n0069
59977B9597J3808J1205p593o6189J5299k4562L2254m3978n0992m289L5718P7306j5238n500M7331J8354n1222J3880
59959B5189p9767L8604M9785j0713M7798l4625m7801J2135q882L7306p7606p863o185M7075K0096M9196O194n8201
59941A735N0300L1786p2654J3225O3419k1826K151o613j4116P975j4533O2567m3144j7077j6848l1549P1994m7647
59923A9145m6154J9759L6486r799n269k814J8422o7118M2201J79L7113k4372j1523O4740Q794L087m3037K2105L7333
59904I9278p5810l264m1667l8757j5677M7973Q9867l6404m5798n4910J3829L9244J03574J5039R756q452K3114J2296
59886A33231j23762j5180L2998J0966N441k9108m0346j8364K7320P0416L057p560J8750Q79k4932k8297L5133j6078
59868C4564m7260M3341O9011n8572L4344j6124j4384R056l6252n8248J3062m0580K891k1112K7483O8326k4664R7604
59850H2486O4336l3641k1529o4160j6973l5392m9239k953J36171N2073r0847o3091N099K0139P3421k305k7967O1561
59832H7189p928j2594q324m0814K8055k3051N0446J02517j03092q851R784n5275o3396l6154K4393M4486j8369J5572
59814a5406M3529L6319r6853j0390N0761j4678k2617K2273M5486L6067K3230j4805p3543Q6260J0969k7222j7066
59797F2314N1894m4363m8252J3969K5609j8562J9324j1762O4456r21l8369J5019k1481j3248n7085P999m8092M2289
59779G38M7835M428K3577l2223m8926k5624k7164p489N5298k5757M7431Q2960J7750k6060m0644j7287q704K4332
59761D4471m2422J0866l2667O784M0873m554j0363j5642Q7560m3853k3215O676L171m6286M5545l9864M7478O3658
59743I8216n2307l6974R04q723J0713O118O8406l9029l9455l3096J6821R728o708P4650k4973q4868L7866L5907K2146
59724E5342n7703K4459J011J9633J385l4459R621j1000J2223K0929J5840N5642j02903L6638R232j1490J6785k638
59706E8547p3533Q0067p7058L2300Q5237l7028J8594P5901M8295q7061p5942K684k0642K7291j3888k9983O859O5544
59688H6184m2925O3890l7217p3016n099J6009O3966l0048l1297K5773L2089l7216p8842N7246k166J14381m0279n8851
59670B2582k0329M0016L1223k3892k33o172J5931k2813m0773l1318q874N3840P351M2081M7944J3002r4328m3717j676
59651b0155n2203P873J06990M6277M1584n9020m5087k4519O1772n005p3904J291P4766N8501p2582j05357O0422j3962
59633a2318K3135o8348o1203N1336J28323j8779j7571N3762r7185J0281J04528q8525m3554Q865p283K7598K4640q803
59615H899O5760O6132n6040j4904O8748l2862p1618m2926j6958L3120K6372m8901p9037l990o41P3736M7185k8148
59597f073j39485P387R9330l3611J9150L621L5269J3408L9847K1995j8890l8023L2429r80k7007j0498l415m3709
59579d9255j7160L7680M448j4848l7233q359L4665J4950j8466k6332O0687l7337n018P0657J2996J2535p5352K428
59561c8314m4684M8194k8610l881O8902p875j03866L4132J8270J6595l1059J8415L8791K4522l670M609O0563K0836
59543I1870k5530m3730p0007j6055L1883O2825o107J815j8768j8557O08j9851L0659R020p2710J3908M6224O5880
59525F3377o6127N6715k3697l7515J1862J1061j8504N7184m1167j1865R176J94j2445L2804k1208K3360J9078o5777
59507a3494Q6963K5488n0353j1743M6302j6619j18099P126N2116M0976o5730o5484J8306J5291r78k6140K3084k992
59489e5980N2354N4837l6516J8868j9684M1315j8039j3459j7107L0120m6251m7974K8649N755L5324M4959m6317k8471
59471a7617n2668r276N2379k1736O336O9511j3747L7449j5177n8126L8005n8759j0553J1312n849K5363N40L8892
59453A6279J2227j7337M1688o7020j1586M7073P721j4294N0612o6209j0873j004O0239k3582q2659k1560R9166o5778
59435d6897L9555k5848l032K0796k7108L5917k2908M697O119J4590j7959j7011L8143L7210M0490j2703J4563n6608
59417B2006K1849N2776j1531M3223p1550j7764l4962K4186j4175L840l0849L588K6537L1725k7703j266J4653j8083
59399A6500J2964k647r3175L9378M0752K2243l2554J7978l4222J945j1128J6399k6857k4586M1422J3647M3518n4285
59381a2708P50L680O494R738J8424L9916r23p7306l7354L8021J2922O366K2703Q2312M420n2341L2706m3638p259
59362D6923M8864m176k8582m6807N2550J7127l0326K1701q8850N5796j2350J3164N8848l2948p8894j7054Q9491k183
59344F2294m7759L0223K9889J339J2153p8667k563P76K9049J9530R775M6374m1337J7958j0123k8346O1567L408j0977
59325A04563k529K0522j9132n509q4484k3098m8010J2774Q8200n9411m0878N0278Q2590J2387n2625j6125j9084n610
59307e181L9821k5120K8552M7831M6034p124m7021J2407n8897p869m5756j435L9369n420j4240k8238L4675M8107m005
59288D6490Q411j1790j8949n1283K0799L6440j3800m8506L1211k653L003K7474j5406L493k853k4497L1305O8811
59270H7700j2703j6442k5875N0481n0966l8775k2636m0692N906J3376k3919J09570J4909l2540J1900p0431j6347
59253e7484K0051p989k3079J2628N3570J0271L3777n1132J6484P5126j045k4133n9258J7945P740l4239L9870R5817
59235A24920n0521p6405o6911M0344l4176n764M9233l2941K5815O4825k1256P9765J3861p0232L4823R8189j03310
59218G0259o1845J5084k5498j8738k2497L5176l4293k6833j3683j6722j0440k6959J2114K4742O3205M2608k1784
59201a6104L4342m8024M4901l4277P02M6612K2843K773p418m7540k7602M0185Q0078j4666n8287J9354j5813j3905
59183H154K939j3891M8163l3093o3587O0252q049l3066J1329O2543M167n1926J06663p0791l2906k2224M5360n1237
59165c1200J12115k3655J3281k7641J4989j2000J7292j03160J7673k1020L2613N1086l5302p6390M3919q031n1404
59148h6835P924j2493J24594P0778k2366L388K4201j7789o1780L9279K4113p498l8959o548o4817n9257q566P7271
59130a5360k7712J7238r2997O1312N0370r260m6952L8892N0255L1313o4168j4179K6687J8089m648R882r11l095J3938
59111C8694K5648q227J7171k0819L1357L1654n8749j9687k541L3229p8070n2757k2016L7495k0157L9200O2087l2552
59093I60l0451M8504K1845L9267m294l0897j03582K516K9970k6562Q0125K2741l5825J0072K6686j1720o5505k1776
59075d7926N492L6486j3736J0685J1846N4509k3037k0359j0151M224O6215o1170q143k6032q702r892J5210j0785
59057c5266L0772L0787n940M0128r8062m5835J4486p108M5170n8736O1197J473O2957J3157k9826m2734j1704N512
59039b9572P438L1569K3741j7782M7220J0823k6088n5397m8697K500R8000O0106N237r2134j1750m3455O7477k7271
59021A965n004l7214l0581J7527L5665L5178l0951L9638m3549k2403p1862j112O7526j1947M1598L4927n1234L1139
59003f94n5586j1059o94N7880L7356J8505P017j6021Q305K3965K8014l1855k8100J8152L431K9500M4337o7863j8725
58984D5865l2488l5593L7321K0621K5853k5262N7485l134q7783k1861J6883O6514L9898n3309k8062m468k5468m4506
58966e1494K6775m921L6955j7690P3987l1369k6658k7659M0937m5555k9701M3020k1321L9359j266R1624o0668Q2757
58948A17112J7826n2187n0013j7156l7539N647l763Q4929j309q7092M9730J497M2370L4788O101p7505m1082L2641
58930B4995L2564l3977j304K7419k0991n9260k9632M2358q0508N9784N7360m0500R141o4619R732L1458q8083J8222
58912a05841O5671O5220K360l176l9946K0067n4748Q5886j865o7447p967M0716k003Q1032j3638l8588K7046O902
58894E9681l8820L0280N0893j8585k1589k8902j23522M3451L730J0659M0837n4864K4296L0904m3801k538K9735J2562
58876D407K0411j9825O205k5642j6666J6085M4583n1898N3804J7527N2166l0737q305j8805r1272j2586j9927L3923
58858d6552R397J35707n5602p9864l1727L2096J08647p07r1842m9694M3760p577L532n6865N0397J3455J3086K9990
58840A9637M4367M8218j4116r7641m0923K0572J0834r5403J8829L6462M0105J9897q614M0051p466o02L6858l323
58822F7742j6173j6079j01947K3010J00882m7660O4053P120k6818K7960o5459J4254J8288m6141j2441n6230j2500
58805g8139L1101L0809K7680N3266j7005n4319L7340N7339K4170j741Q980k4402J2920l0576n7461j8335M380o1148
58787e5141p329O9932m9062J7503O0749l5330O941j8346J6324L4136O283L9703k4110K5584o0362j3425l0771M0013
58769B3292R0698m9775n401o7440k0442K4993M7222M2492o1140O039R972J1834O6367p5453K770j18714l2810M0238
58751f5258L5683R6549P6505m0174o547j09995k2609N4413M2460k5910l2880m2785m8587J43387k400m3183N2924N795
58733F7388k9020J0889R18p180j8886j8704m7660N4838L9163l8465K6259k2787K4143P9317l8161o0658L304j4376
58715A0322k4935l1524j0530K796M0023n820m235K4851J9051l8039m4184P489l9717j392L9478L1899j6972j853P0527
58696B7235j6514n1843j0541m88J1609L3605j2K855r641m2494M3176j0327l7853j1261K7098Q4456n2809j6512Q046
58677b2215P7157l6765j4669k0627J3304j5230R961K0028L5207O7577k7191n6375l1099p5340N9951P4184K2441N159
58659H5458k9464j814k9135R888r768j6096J594p568j8401k405P7833M0532O886l4946j6278O894K1795j4855J4224
58640H4374m325j7889n5839k8002k6580M4264P1414k0578o2315O3149l9531j4281n1370J3830L9969M5116K2738l589
58622F0555K9046l9624m0710l3591J8745j744K0347k4306L8786M6488o9762M5204M1600q9236j4318K8874N1688m7974
58604B0068k4894j8909o5694M595P6165M6231r119J1214o3287N2609K7501k7435j2729J255j6532k8655N4673N1520
58586G8577J3614K7251r033l4340r4932Q6647J5834k9760k9634j6249j8587O7939K9772k3948o787j06339k3874L7649
58568c6200n032M6525R903j1281p4063O0320l2993O168q258K0928N70M9816l4002P024K0692M346L5646M0468o108
58549I4469p4211N7149m5792m7304n779M5393j159k8865J272K1350l6636j0226M9986J1625N714J9893k4370K4740
58531E7249M0793j3422q995M76n1574o22K6727j3222r701N715n076R492K5035P081m8821L5826j8493J6570K3238
58512G8276l8757p2928k386J4687J0889Q3640l9196P918j8895R096j3415j4147o3489M8263R5901M6868j4961l7245
58494H0119q2071J7749J0289p2466L806M9285N2365J083k0366N3986l0868n6455p259j4759n4478J2520J9226O3232
58476B4938o259L0444M241K716j1556j3802k1106M3726O4210j17608K6716O2312m5373r0050K1907M1357M7484q798
58458E5499r665J1272j2470L0234l5438M4408O8295j7224j25435n2771M0166K4622J1553M3884K0689q2339M6086
58441F1366m6675q0706k1291Q5979n1649p35O5154N017K295J2543J1422m242J2017n8793j3306N4426k5658J9550
58423B6714L2986j8176k0858J7582m640K3598j2525k1636J01682K9541j21821j709J4301j5395M8524k8532r5987
58406d6351J8348L6233l374J8561N453K934m3900m5645Q200M3714l7526L5105K2437J8809L028j3117m3252L4124
58388A3781O8232n8174J4810n2936j0599K8774p149j480J2374m1529Q2587K45n5788L1610N2084l2693o3851k3131
58370d2833J0892K3445j7362O8666M4665J4725k365o5766N289J6820l2062K4683l2643N290n6793J4001Q1966R8186
58352A58804j3643j30297o2727O3735r026r926m9484N0796l7402r806Q124J16853l7089k4062k6363J353L0727j2852
58334G715p4373N2138J3625k9613r174p4894R3450L9462M788o422M0296J3609m8808p856n4141P9710l4885m9970
58316d5343J9234k2132j5333P2812M4527P550k3178N04j778j4764j677j7146M6447N84O829j1094k7606Q617K5170
58297E2223N6622p2704q1253J7391J5392j9135J8390p606L5658L8159r0705K8931L4801K2308n774l1946p8853j841
58279f9942N2782j4729N4760K0173L8798j2430j5505L7457J5499J287J3j06552j3965R2706j1927m6039J1355N1671
58261H5412p7079p2703P5217L6243m243l3530j4734K0970R215l4962K3731j5730k4102k2926K5283r823O8291j1563
58243B2967L7661m550k6043R955k0463p661p909J5286q409k420l5444J8068J7397j9601m5522M8765J6430l6339m8516
58224g6348M0880N8328J4508L2330k793o8722k4353P4821J54k0588K3291p04r575n383k9623L9176j5014p0032L8219
58205a428o258L5820K7264K0778L8620k6804q612N548j5387n6117m7944k1231M7661O702r1340n767P0347K4591K9706
58186B6149L0068O0109k8868m301k0857k4755L3464m1221m7367L3379L9206M250r677j2703J472J6938o723l1723
58168A6840L6865o436l3462k1506M7749k7453l0665L9308L4767o27n2132L641k6206O5431K2248n6142Q742j4283O269
58149A2948J0572J9870j5695J3885l1268M3580J7951k8428m5620R7538m4601J2919k5627p1674l1580p401J07940
58132C5309k5587K4542k2999j1427K9328J0062K552m3713l7386N2471k8850o079j5199k7348M2324O8405j6523m8379
58114a8497K7706L9476j440r3605K4072n408J6816k3966l3189l3465K4468P4373M6003K1654K6309l8068o1073l3173
58096d1007k2248N578M1913p173K1877R167L2368m118k8733J4866l385o716n6771k5376L2476n559L9845K5963J6361
58077C9328N2133k9791k3796j0966k6752K9954n3437m4000P2395j0300P2241L0890p1717k5224n2828j1913N893N9990
58059B100r0991N92L5486K0674M4199O343n1604P8494k9064j0642l7937O2462J1528k6032m4392k2247R9850O561
58041E5380J3750k3166l2352o8439k2955J0446k6179M9246O7526O6833J1892q2286O48N115R55O759m47K3227N5247
58022A11200q6591k4315J7963m1348M1025l030N9882o6928L2744R858l9076p6901l3090J40745M972j3999K708q8714
58004e2895L17L357O9884M2359J8691l2548k1685Q090m1294M6934L5036K3519r8789p1457J07690j8379L0396Q1594
57986A30820j39417n8274j4894k7182k345O3864L3213P483p147m708k1007M0903R482k2790n295P0736N2874p128
57968I9188k8878l4006p322M5187n3218n672r394R659m6336L6125J1701m9574M6686M1880J9166J0726q1912J9519K58
57949B3783j7434r657O424j0112n6093N022P1413M3973M8228j9122p8763k1490O7661j8419k1869R877l0212O295
57931d95K5062m6406P5117N7391l7256j32923N58O6789j7365J4831K898L2190p0578m546J1734K8452M7369K561l826
57912E1557J1110l8513o9800l3952R1232M0673m6801j5933L3774N7186m3576J1940l5421J5083k6911K1226J0884R630
57894D3388K0327p4169P65j9496J3897n1050O6012M3400P879J624J4781p2138j3207k5448L2864M5765J1120j8904
57876B7410j7079P6479l5345L2359l9532J4105N040k692l4903k9589K793n4888L6711k7681M104M4546j2729M95k2964
57857c3360L651Q5071j4078k1694j184l4684j99M9046M4700J8215k5625m4951l6268j3873L3924M3616r383k7014
57839A5910l3235O9021K5828p5120Q158L2240q1560k4820l4155O30M0312K8465j4053n0952J29382K8837r1515J7031
57821i596N5355L9433n3223p1858J5379O7037L9622J7300J3253m4820J5852m6671j1224l2395J15126j9960l1430
57804E7180K0499m2582l2054j9742n326L1398o8850N5843L5231m7601L1194J3626J322R721M8680J187j7102n6500
57786A6124L1162K4661p5162L0157K1259q4845O0047L5398o0776J5944p194L7118n9864J8517l7319K1620K2493O2591
57768G1931j290m6868K2683n5256j6597N6305j5036M1882l0635M2551J0759l1127M8649J5153l2933n7958q9163J5211
57750e1739Q013J1940O2100k301l2622J5320n0912M7590P091L2279J3116l9426j8336j2039p7727O0620P0538J7894
57732F1399l0109p932N126J5445l0791j6862L025N1997n2892k250L8760n7061J3705k7272J2701J2469O1833J4130
57714F5421K4849L088n9203n4571K5969j6479j4819K5040l3868N6291N3230k4168n955q993M781k1677O1634l413
57696G7157r3022K0257K0756K0244p130Q362J3452k7743l3489p4970N5388J4247Q546M700L6270K6095p9086m2851
57678e2817n786J8513Q251K5513M1655L2060M581q11N475K1706n940l1503n4688M7415P1871j6800l3483l8950k746
57659C3516J6189j165k2290J4245j4031J2996k1206n8510Q758L2794P0909k2724r0206p535p0994N3092L3153K0279
57641a2730N6707K9147j9779m1772p762k5952k9336M2952N5984o1115J2305j6635L4094N8845K0847o9679J8206O0968
57623A05295j5058l5277k3739m3049P7137j6081J1552l0210j9075j6153M6440P769k7339J9967l3103J0806K4471
57606D4353l0926m4689L367L8257n0930k2529j3263L4071O6583P472L7840M5748m153j2081q4122p4533K1381M808
57588c3346O4136p069j09128M5420P7027k2560J161K3271k6167K4622j7736p354O5954r630j9207L4679p0764J2462
57570B5771k0178N6246n4365p2396k7491J6183M8032K8168j2844K7458q059L1945J8672K915K0629M4649l5747k4995
57552F4593J9037l8679q3480K6138O180K1402L3955L0118M399k6347k9505J8654m2166J6472K0368O042k6021m9228
57534b8068M3455m9212j91J2774M0014k6833L7612k7200J0795M5736J749q5212J15796J8828K0480p5851n7308o5277
57516f7913P553J0528O8267J9520r110m2204j3643O457P9453p295q406n8708p7681K4688O9858m4346l8971J7616
57498f4337J31663J8991k0791m1405l0014K7393l2610K8851K4825j450m067O1842j147l1479o5838o910k083O211
57480b355k8003K7211n082k1256N782N6925M342J925N2559q6246j2001j5819N6785k3708l4088l0949k8755R705L9341
57461c3687M0916R437o155q835M0339K8878o0135j9721l8528N4424P6500m5084P379l6297q5509K5245N3494N5596
57443E8257j7629j5474K1291K2557j30737J5684J6577L1990r734L6050k3126l646J6767P8219m6401k5400j6412
57426H833J08361j02362L4930r1197P4586L3207o0088K3301K9625M9061m5830l5954k516o2884L1444P2450L1159
57409I6126J0613n3153q360L8723j6841k8104k0294K1245m3758j0654k0447K2429K3772J0053j1462k179L1381N56l07
57390C9339J4938j0536j350J0040M2912J558n1946J0853n4914o3452M5229k2972j3424K6607O5181J23912m213n9379
57372I8383o0723O2286k385j6287m9477p5169R864M8516N237j24k5776j9866K5583J0894n0804L5424K3564n4271N305
57353b9826p733N5860K3266m8296M2612L2327q190l2694j630j3621l1205l0251P3850J0384o1720J068j5298L2335
57335h762j5550k8816N8853k497K8055k6330O4200o3311k6052l4966j238N1906l435K0120M302L6422l0431k0587
57317A883n6369N7333k9407j3150L6990N7585k062j8600n554n051r7477M1724Q0551q9123l5940L4577O9842o903
57299B0849J0267J2438l6377p0041J5946n524P0776l019l9165J1873J9755N6339n6843M8893o9953j9150J7017n5334
57281g1253L237P2413L7550k6345n6038j7615j9194j0057J3433P0485l5545K4272M4403k6993P45k2116K6480j9151
57263a1289L3983K3335J2240p8546n1888O7602L3648l7611r734o628l7648L2108m0471P03P2454N2762k7573L9677
57245F7124l7938p5005m136M4099r360o7571R7144l7400M538K4598k5344L3051q752J3421o5955p05K6667P6613j9660
57226C5429n1402l1682r383n5058L4151L1609K5529l835k5222L3183N0777l8152j40N8133M3360K1008p2659K5017
57208G0663n7039k3313K4567J0908J4328k1037j2740M168j1511p136L9690K5851p544p1232J7924J7772J2095L028
57190B9442M8787M2851k6953j4260l8986L3964K176J1254M3177k095j1317O058r3662Q877L4258n0152L9688M0701
57172A03808m3897l3846K4982k4983Q510m1407p1616N5710N0009J7823n4713p7672R4469N8017K5096o0698L1136
57155F0728k2518k0406R653J1073l153k534j2902P2050l5714k582r520k3480J9263L8557o2427m6176N305J9205q05
57136f383K0831M1750k3689O6814K5650m3285k6700M8550n9236j1485J3033o8810j2133P6187j3230j5694k5138k150
57118a5118M0058j6782L3635l8631k2837L0907J30765n8620m430O495n2218l2610o8098J11621M591l4610L4424M6099
57100I4641k6713j4764J6805Q654j1212m29n7894J9116K5970k5959k7018l4984J7938R7989p6651m9139k7916n8992
57082a30558P3414K2685K9663l4470k2976N6377k337K8666N6270n0809m7877k596M9008j13684L6407N5597k4299m332
57064b5851j6179k267P3239P667L3825l8032P09k5449j7662k054L870k9394L528K0397N220P2272l2216l1245n0721
57045e0343k4626p9450K7766Q1496R0576m292p8042P6479l8405j5488J554L4431K5870J3609k5919n0784l6667N6501
57027D266N1767l506L487j6958j7147L3049m7751K827J7117L0023K5389k2995o2599l0869L6584J1972L243q755m8520
57008c9376M8728N2040K4968j03108K78J907q223n548M1184J00032k0869P1270k2914r9168j0828K0089k2918k764
56990B4780n4514p633N403M0550j2853P5753k1922k8489r885p506P2788m6481J666J5209J2315j6089k8768K0544
56972C4868j6430l4154M5906N9681l9724q0366l2007k5099O027j0009N9645O7685k0788j6847J3824K7026l9658k9001
56954b9421P5539j6087K0472P7654n7699K0386j9179l9628Q872p3806j1092P1023l1251m1180O2534q439j7385m2446
56936e1133j8890J7703K3791P2506O3011j2684l0090L2204j8544m9921P310m0652O311J5890L4819q2933k458Q6403
56918E2643j7974K103m3079M3832k438m1676O2572m6508o797N4674p1466j1729P8082k786l5896M860k9229N889l2782
56899c7705Q1860m004j9778M1221m852k9761J3690m2803l5930M7733J7413j1798K7117J2072L4349L0377J7479j00066
56881C6614j825N0592k5955L0577p7581J5724K9509j0195L8036r797k4699n3292j5726J3112L1654J4837L9451l6657
56863D4379J2832L9569m2361m5270M9297M9116l4998p0708l2095q878J8168L1824J2805M9426j30330m168L4713l8144
56845f4823M667J324J2451n863n73O0763m6605M69J10551J6851M2479l6072p2739J2314l4650l0381J2011n0260Q1340
56826A3254J1740j6524N6461n2195m6566P7365M7294m0949l6356N5009q441n2781l8885Q588P9772r9544N0755L8080
56808D6077J5023m6116l9605n953m8683q672L4190O1867J7482o3704Q9622J4921n6118K7679p5750q782O946K4185
56790a5391L5923L1975o21n2213j4810J1736J8095j7597K9926o847k725j4803j1354j714l5286Q84J3913K9369J8094
56771A6554L51L2765L027J1476K9330l1169o3643J3684k5080o210J5164J4136P500L694O1481k5323m004j8266k2224
56752A3243j3372o406m0417K1247J0812m5841L0219N0956j8028O9175m8853j19153k4843Q5749N3842J8556n1182
56735a4296J3760P525k2717P731k3382l4225M701M2374j5273M9557j0154N6129q2349J4252q299n2992m3529O4893
56717d6294O402l8037J8184m3017L474L7857M1233L1725P954m536m7348O2892J3521j2042m5016O0540O8306k1987
56699I3811j24773n06M1551M2646m9449m2584j4271K8667N207J2705M2153M6158j2363J0575o1473k2964O036N9850
56681F0976j2339m2583K7261l7836m0282K2782Q5087n2932K7412n0412r080M3661n0386P134N0861m4687j8050J18482
56663H5069r742r6486k9351j4646K2464K0937Q093k6805K2045M341l7451k179j719J22537p228j5954M7718m5683
56645D5960l1254l9123K7186K545K898m01O0251k1459l1661j0614k3371J8163L400M8164J8407n635j0590j2044j9303
56626B1519Q385l3212j3676J331O170N796k4699n0339O6741N7043l3380j16864K0360J7266O8414L2746j2524O0149
56608H1226K4349j21643K460J02731o3185J622L9176k9075J5125m9530p769l0805K7855J9487l4557K7748O0875j3975
56590E2115k0337k1952J6756L232l2164r983N6758P212R15J9300j6591m1726k8300k3157n485Q3504O318m4452k0814
56571a8851J4772n0995P2541Q9203m3375m3223n8726N8500j622K333k8765M8825M8733K0919m8533n6098N6201j0628
56553E1211l4383k8898N2084p080k1194l0202P6025R190q278j1245J6024k2005n4424M1587O491O624k1676N4759
56535G4610J9114k7878m4436K2091j18641k09R2125n661k8970k7779Q833M2694m9391J8810M6080K2425n0706j1576
56517a8465l4206M1881j7560R990Q4395K1306n5741j5902N4021O74l3581l0998L3029k8580m7958O7838l0495p4952
56499g5304K8614L8849J47J8759J4285k0196k2934J9303p8853O5450M2584P7171J4773r3482K202O469J3092l5010
56481A5919n7653J7013k0456Q7057M0169j5609p0414P2836m0166n1372K4748K8331m4436m735m0951l2737L3142L8868
56463b0446m721o1657O4982L6167p632J0644l3731K1191k7108K6185K9818k5449P4815K7223l0856r4635M7243O708
56445C8741K649K6707L690o7854L0722n0462n6235M3840M2419o4661O7703k793M1555K4853k5132m1056N604M3285
56427F3575p478n0238J1487r2640k9752K7266M712N8973P1464o7808L9675l4957n7773L0791k0582L4471J6919r237
56409a1132j7907J7862N256L4128J0964m7081o372j8105M8620k7503L0560L1214o366n4397k3665k0885L572k5116
56391g6353K1307N3952L8023P1407j00964j1960K5298o7485n237l2205J6619N9738O4199n6261n681L7383Q2980n2235
56373F2525q4101r8734L4438M3298P823o1687K1402M7670l1869q5922L9321L5925M3715M2921m2595q0645L8106N7888
56355a0521M1854m5107k6598k440L8325j6199n0551L6914M4821M660n6197k8813l1003N5742n0651R756k4583k6618
56337a37209R5527M7658P6798J1050p009j5054j471L812j6156n242l2870K1459k7695l9739j1342k5036m7434P6298
56319c3655m672L9176J3645k5850o6557j2219P3393O515K6228j6029L1058L4470l2902l7928k9075K7600J3643J3833
56301B0674K9049q822J4261l4291k7786k7819L3236M2261K9657r1601l2837l8079L8720O2961J7913M01n2927P6652
56283E1623M255L1111l1222o5271O3971o6718k4716n680M0987K27l3255k1464R2817p855j0904l4717l8880Q187M9843
56264B339k465n556M3857M7046M2114o1346P3748k830n935o1697k2629J309J2588k5476m1048J4505p2874n03K5378
56245c9475L6793M8706k9576k0407L875R5185n2487r846j6391J3597M6721J9102J5502R057N534l2257k0019m818
56227F8796j0666k0561O3958m8925r193N003l9211j3421l3248m673L1097R6680P206k0744l0490o343k2029Q273J0387
56208C1896k6237k6488K0377N4572p6785J858O6342L9551k2624r203n7727J4543N391L9296N1435o0187m4767P3916
56190G5159Q2324m7039j235l7650k3597k1499N767j23051O314K5927j7236O6191J2419K1500J7775n2019K9915l1325
56172a1360K966M0113N0330o6517n7624l858N4373N7819Q2781k7935j14143o3252J6730M9648R8497j4063l6477L7414
56154I5442j9179L1004Q652j3175p357l4598R502k6838p7556M1067K6674J9346l7489k5777P4678K4032p2692J7416
56136C3152M6212m0996l5493L2240K7J3737k0013l6097l4122L377L6914M1784k0236j5420L2784K7079n7850o4357
56118e7278L2562j605L6024L4977m4510o4624K7772L6357m4578P8818K5151p3165j4243K1036L3156K3118k1403o4558
56100c6993J1252L2495J2434j3140l7233l679m6278M8257Q428J32456K7815j3232m4526k5678o3949L3616K792j8436
56082F401l3018l7118J03564R022l9092j5202m030j4112L3406k4131n371p150J2673l3769O7873O5300J4451K5980
56064A25677n8046q6506K6230m6980L7064J9368q851l5555L6643J97j7674j0288N0090m3233N8653L1024l4512m5456
56046b155L9264j8165m4234m023L7930j4916K8163J2259o0157m7566L2921Q1492m4443j4820j7051J3210N621o1783
56028g8453r958P6314N0191r52l4272M8711R479K1206k2900j7789L4238K144l3570J3699m9725o0473Q4054P1142
56010A03086m9660m0519j8495m3678o665J4779k2928M8643J6824j9500N7610L1131q2394k9600l326k7488J631J8032
55992e2517o2247J3528k2307N9296K8434k2246j1558K8669J8353M4782R0919m4734K3398m3577L9950j1039n4544
55975B2560J6530j2403o6584n95R3864J3135o0001o7361O5977k0607k5252l6561K0008k809K2679J9890j6164r837n83
55956d4114J183n108j5283M7277Q4898j0599K8232k9847Q186J2883k4482k5249K5235m6296L2371k3755k1679m0776
55938d6923M8136O037n286K4593m325l580l0976N2371k1668n2236N3264L8129J8111q9091K1378k7573Q828j4022
55920b4833l7462O2851L339O4617j0741k2945n8351J3808l3785M9066O869n916j2703N7072o6646K2197j2624N1525
55902D5338O0764K643m8649m5299k1655k3102m421P2832L5728O3171o073j32510N854L3278J454j0127P803j5601R281
55883C0709q353M5062l2670l8223m1856M0407J9066o68k0703K0919K2765J6353q378P697K3948m9018o9413n9804
55865a02160M4428L5877K8464r566j1571O0849j8215J9994o965Q309L8113N006K0856r3167j5012N3348m4574J4697
55847B8711J8793K0546J7039N048j9155n509O543o3850L2346r148k4278O639J2113l4514K4950p9996J5353j3644
55829f2013l9825K4095N5701L4817j2993m807K9163K4118r2456r364K5060M801P1010l6506J7577J2460L512q2822
55811c8472o674n5033J2839P9389k6588r940K7074K4416N9817N2595o8889n875m7819m650k9197J07456l0760K9838
55793F9527j5858o596n3121N4283J7713r559m2765J2829L4624l0074n3417j2110M283K9383o018r822k2645K1657
55775a7686j4850j2052J7151J0704J3797P0284o7294Q0272k1428p8771M248Q28j4068N4049l323n5640J0135l3848P70
55756e6722L7608N2611k1927j815l3736j537K6631l0719K7577K8603o494o1398l7424K7782O0697N048j4773k9970
55738b9958J0216M936K230j1285o243K4700N068k9918K4470O7250J199n2282n115J9828Q946J1762o2900J1710r691
55719a5077J5392n0073J4061k8075J8542J11277j489k9383o829l0225N5017l2458k3017L3624L6633J8358q7381K6199
55701B5096K425l0282l7300L4389l0332J3611M3642m5173k7303L72Q8829K3215n5301K4522N1615m9846R343J3946
55683E5468P251k7317k7803j056p8308M8851L0849k1140K1090m3141L914M8369J6430o1489J1092L2582j4211l198
55665a767j4543k4912N0306j7058q0966N2711N6046M045m6775P8327l8101j5418J7061M5402k7199O412l6994k9173
55647b2596O2347o188j05041Q955j6719K7119K7562L1315M0126N3303j529q3774j4116n0167J0975O1290O1233r615
55629G4480m501m3330p6788n9878K3328J37794P9518k9918j29054L3023j2798l4710k0154L1108K6914J4546j6403
55612f823N5321J0936n5011o3921J7709K4224o909j3374j0906N978K9306P8374K637M291p4310j054J0474K0832p540
55593B0234p6896M2682p943K4982j1679J1718l42n023p925k4490p2605M1131j014J9921q458O4696R683P349j7509
55574H512K483l4819O777Q2807K7256r2455L3085n5735M8563O393r455n6651k028l222R994L0213L4865Q055J0162
55555E4800K921J5873L3190k2855m8097l9519K5412l1040j701j8452K5989q0007N2711L2003q747J5291M6324l4095
55537B0001P5710p7611m3596M7991l2431N3937M469l4883P1146n1298k9652M0374K464O2861J1405p5770l016J8721
55519F0822J7362M8565o1885m6939M7751k2179j03901K6839K2466J1141l5867l4190k0813J2705M4761l769m051j3803
55501e4985K8226K9115k1999O9189l757k318o624J4059j661p4446k9418L8640m2480J709M6660P8067k7010l2499
55483H468N6887o0499O882j355r240j1748j2086L2351P1357L9800m5213o6712l3170L7156k3095O5701J9416r5024
55465b0124m730K5817p0881j2907J1418m8633M6276M7553N541O0006J5660k4866O6659M6776l5112k9458m5462k6724
55447F809n498J1661m794l0466n0030N1146J0690k5264L6075Q008l6682L5126l5407J1665O487L7007P79l3605j2900
55428a9193N0851J1180L126l5530j8165k1793K1872p7402K2748M9736R934K7969o1615k8206J6474N7511K4704K4995
55410E9196k2489l5392J2458o7527N1674K2688p657j4179M1765j7831J0364k5092j18525O3066Q4435j1672l2358q09
55392g885J6179m5839J4580L8787Q1483J9534n7602q425P204k8360N908M0453j8929J35k7765L765n25M333l9796L211
55372D46K2679l2499p005N8288m8008k2151L8536K5896l2261K1480j05365K7141o840M091m0344j5869O852P0948
55354c3985M3429R518K7911J2976l6740J5861J5349m849l4374n9704R6825L9741p693n7314m4897j6653P7231o9219
55336b6587J9245l1221L0943O9632J7983n5706n010j2015j4166J2339o0326p798J1435j0709l8484K985K9247j5944
55318h4157J24884J6986m7550m5384K4681j7567K5944K9851J7312l743N8157q6557m2469n1866N8902K2144m0319
55301d0751m3607J4784K6292J6187J2216O3213k9434o8946k4661k6217Q4555P5273l4353m0459L668K9334l3368L6512
55283B0238K7842o2748r55r293K0026M8808j8400l353j047Q6810k329n0465l8625j4208m051K5115N2491J5842L122
55264I4820m1474o8017o056L6545L2757m561j7630l298o9347j7956L6753O1060P027j00645k7819l5530M8362M7762
55246b7247N1852l5961m1548J3279L4211j9427J3383N6432Q319l2181o2695J8734P2905m484l4230K7444k2703l2393
55228a6310l480N8377K4735J3521l4265o5230J6513K1073K4579k6415O727l1281m704M9303L7331l9912k1232l1010
55210b1680k3664P1512l2008J3292p900l3882N8764k2056M170K4386k7624J826P2716k5157m6100p4209m5836J336
55192a12114L4123j5653N6064J6644J2359J4267k7057J5823M1888m8267j2756n3337M9096l1792N011j9523K2482
55175e2742L0544J9913l9365J2140K1104M7307L8837j5458K2512j5918l1767k8522P334p6826l1340N0241M7533j2358
55157f831m2855Q802m8212M7649L9934K8986M9176j8013n8873P032m8875l1418M2443N6554Q385j0038j5846j4395
55139f395m3287l6334O555M3795L8846l3041n2112R5158L4496J2770j3249j7467Q288J6763j081j4371j6616J7745
55121D0463J4526q0643k3796M1386n070K7022k3635n5824J8492q443J05272K0737r219m2324j3260j544q404O660
55103B396J6191m3464l7422K5409M461K1112j6097K7605j391N3690J0551o1960K1339j1128J4554r585m8921k6881
55085e9541J32605N0846r6846j4086j9329k1482o9656Q0250J32900o2479p6054q319j8103N4649R703j2598L7402
55068C9862k4907o7470R730L4894m9884J2948K6628m0001L2961M6045M784K0326r2375j7702j7740K6005R3605j7523
55050B0186N6882o8351n9917L7946P4092n5558J8387j9592R875k8866M3472m3015R632K6990l3843j3966o728L6534
55032D160L9767k9408n0343N6588k6806l3470K04k7369j9521j9736R0635M7999o3277N9851P0818k635m2210j431p506
55013D6310k9301K5784M5320j7097j8646K621j1781j953m4155m2174O3030k3044l6986J0992l2957j7791O7746J2778
54995a304N834n2766l2938k8653K5511n8548L6226J8966l5518J1280M9634N0550k5394l1666P8706K661k9547k3356
54977d0322j3263O5739N3655j1915o3919J2409J5252j8030K3652L6101M5111k5746k0026N2674k6219M965l5998J1701
54959F5821m4966J8459k2408q7364K5720M4811Q491k0798l8172J8172R500O4496k3437N3621l7236p5939p362M0737
54941g854l7887P1724L5604p9633O626O2163J0257m5159k18q7368L870L0675M0235L6692L7551n632j01794j8318
54923d8466m0719O8236J7139J4126j7453L2715k4704k9629l6852L4033q763L3737j2417L6504j063l3378J1313J3991
54905H350q092L8250j0878q0418p1939P4405M953r555N1556N8225L0396n6747K703l6010m3692Q22N9042N320k789
54886A3902j0961J24N317J5655j8492Q065m1839J8411J9336N7696J5296k1133q595m1177p481J3550m8535j8727k547
54867e2135J4840L4010J4890J2623k8600m0877P546l1317L5600N6205Q923l6079n0430l4339K9195O4590R460J1307
54849B5412L4756l3097j2356l0565K991j3478R67L8686n9750K9134k0582P71p122K1406O1510M6625r472r7917l4762
54830e6843Q3512k4153o4335N477N1465L457L339l793k6701K4294L845j1824Q862J9899o196M08n7302J3597M7290
54811A4298K8245p0506j0242J0369L4868J3014j6779k6666n2318L3027L3747R1009l3245l0064j6047k6678m2533k930
54793f9431O8828p62J9941l8111J334l2081R936K9514L2398M2387o423N5759k4767j5301p0788k8320N9604n873M7401
54774G5245k4821O37N907j6605L7575r4377o2643j5815O2010M7543r169O6352j5434l501m4717o2916M7424Q2858
54756G5553L3870r9298n8616R7478l734j7305O7636q0874k0238N730m8968M3573N8464o7407k7315K9809M3823M107
54738C6288o5546q025j5952j8062R8960k3765J04027n9158o3270L6093k6815j1548q838L0800Q9997k7864m9838o5588
54720d8104K2302L335J0801k1715k8137P615K8225Q91k1075M751L6363n5891q11J6933J1106N9229J0462j7598m877
54701A3805j01316j9271j2642N5452Q8470J3894l1432n4074J4236p013k8901Q4490n2136m9950R2735k5399R734K2831
54683A3513l7142J1620J5733L2940K0833J2527o0340k2954L2309J2157r322p1884N4449k3198l224q077k827m695
54665c7582j4927l366M0344k0867l1242L8247J1990m165k263j7930O047J8109j2758K6883J8062k0535k5701l0097
54647f1751p7555l1000L8106Q9090N2620N103j8376K9562l7925J9383r052l6375k1104k4289P582R8094M3285o2559
54629B839n681M2252j570p414k4740j2011L1835l964m8164l7922o20k89J3354J8822J7247r944K2566j9739n0470
54610g3613O6388k9103n5328j3761J11284J9163o0327m6141L4930P4488O7684r806J6087l6762K1006p0254L5639
54593E1574J6133k73k205k3409m0372J4379j5983M586k8042L7279J8925m8372n6033L4677k2144k302N1356R7690K673
54574I0137p0046p0202j7370P7686Q939J5589p241J6067K728m2476N6766l987n0328M3429j0860k5279k1738L7927
54556B9741k4699O7317K793j4865j2625m1349k3227k1650J1083P2726K949k5847K1009o2966m5310l868R4201k8941
54538c528l3348l3982K1997J7120j2017K0874Q339L5778o5322k0884L0763M958k4558N0922k8276N059Q5602m774
54520E4723l9383j6897j5547Q805L168J3140K1957n4568k7139K0570l7843q054M4299Q0454M554l7685p2945J2603
54502d5788L3648l4158K1471m0665j0197M4800R967J3503j4380k2011j851Q2600n679l2806q6294n395N0248O2254
54484A9267m8485n8315J0495O3681O6771j7444Q473m9706O018J1387J2926O822J7649j06792m5706R9300O1475k9306
54466B8510m6295M1492k0813n6433o242K8867N0031J8749m512J5745n6185J6327k0979M9288j8337j4749o106j7657
54448a9299k529L2225K9522l0014M1091k3998j8606M8151J0755j9678R026q7137k9332K2421M2557M2584q1340J6836
54430a6765K6022K3586J1335n6466p1314K7403Q1288j2745j0985M792O3631m800l3119J7250k7234q780n5883L1625
54412a1159q315Q254N1894L679n7999k2701k6213Q608K1337m8704O4064j7148O139n2773O4736k4229O5720K9615k974
54393E1831j2051J2363K2743K7787p3356j0561k6693k7606N4975J258K807k3638P614R8929k8708j2510q693K7553
54375H4044j8560l093k5034o21M8218o878J4905o5526j5540n4193l1307R210l3332l275P5063O405K6984J2074j2299
54356G245M2632k6086o256m5664L4487l649j6596k8481N4197K8675M524o9605K3902R2435q030m1966q6095k4108
54338f8439n3567L3380R0506o9765m652J2947L9791K3575l2927N523M1513M041J360m0132K5766j7035M3873l5125
54320F33j8731p4213M6991K645K1176J8461O234L3868m506O1345j08926K494M12K1091j1588M418L6411n2461j6983
54301c1229K0815R4659j6170R300J5606o8383o419N6740p6319J6862l1046p0059N9999j0386j5332L2781k0878J1588
54283b7871J104Q3791O0874n7595q8193l4398L9354J00480r8351m6090M0848J4090M5840N629j1945l1083l2086n408
54265d1010k198O0836L9291O4063n7968k4578N1278p64j1512r002J1411J9169j9495l2038J3352o565n7799l8733
54247d2262N0754l4352l9418k0425Q4N6239l7225N5898J3846P067n764k0331k0968j9519L6091M5058K9697j6432
54229C8038K4371m1706L470L8044K407n9679q855m9562M2744M0014j0686J0231M2637r33l6655L2832j6389k7791
54211B2532k8935L8418P389M3754J2225n7432j2553l6017K6971l5331k3721M466M3943q7525L5543N0274L4276p2092
54193c3815o7643q751K0472j382K2756Q2361K0894k9207p531m8418K2280L5272r299m1206K5068m5719N1547M6244
54175C3923o9598l2059l2659J2551j6859P1305P3964J5624p3315P961K9833l8323M299L4289K3876m2265k0835K8292
54157A0004r583K5830M1048k1984l651J3500R72m6590n4371N0133J7425M2231o3770M939j1243p012M2593m1707n4191
54138f5427L513m1630O6055J9509k0681J6201l8563L1831P7870k4530K2495k6617k1818M511R962J4584j0683k6202
54120i620o907k3521J215m3836L7342j1010P120L7873J00575J7749J8214r1870j12478J5210J0290j1625m8884M4317
54102f9846O5153K0398p8173N4761j2916k3459K8245j7245j8194N7515L6945p7621K564L2450L0912j1645o5344k6857
54084g2357j2637L1598M3693R938P432o8513M3132O7897n6991J3822p445l2087O255L5311m155O752q825K3866o8898
54065d2212n8122N3900P7325k0103K2196q4177L6462J1023O9173m6276k7887J2088j6489j76j5468j1505j1776j6951
54047f8975J3378J0038K608L0592K4675K6434l7849L539K6995k5160r4825J5005P0602N0019o173o2988K1170j4085
54029a5000j2449L8697K6166M6927q1249p9168k7704L2697K4263K4853P6666J5262k0498l9718j1488p675N4884p9966
54011c4500n7246K8836P6504k9580l379P1100l5811m9275K3757K4094P9176n2156o2459J6505l3570k2105M540J3584
53993d1985L2248L5661m6236K8993K8959J9898P197p8563m3271J2661O512Q802M9146J3029p967j6248J2763l8296
53975a6697o271m958K0107O8841J4859m6937l7702m4546K0223M6418J02868p8265j04391j0881M5531O5343o5089
53958c1547L3592N2222l551m4953k0488p073N800M0401l7875l6465n4029J1957L7052N0575o921J3057K9473l1950k7
53939g50q127k9901m9032L7583m279m9044K5160J02471P5819l3631K4369O794j1066n3732n1506N5510m8971j21445
53921a33778K0543R1895R473Q742J3802n3779J7866k3194Q3615l7410P949l5337L1691Q814l5851n2073M6535Q1156
53903E0659N7167q3692l2595K4151M2860J782J6318N0574p2245l4276k6935l2376L4219M6408r652m4352K1982P200
53885A7197O0044Q899q5662n937R536j0257J2782n9173J3066O7446n8911J9095m358K529M2476K5508n5941K1022
53867A9361p1102k0166L2175N030J0344P0063r208p8654K1489N6718l2247n593J8914L8557q1030R696K3241K4905
53849C2493k6205J3575k5575o5113k4380M9425l6723P5679J1644n7149N9517k8764K7595K428k3677J4531l4538K5200
53831a0037L6684R022l7847Q088j2299k2566K0396O1655q515K9334n0096n1886O5894L5489m0202M6989m6079m2894
53813h870Q74J9993K8362n7981J5398j0041n9337K8881N0105j081J08l5777L2249m5997J8063J9611O3498K0747k725
53794G6080k0960j1200j0847l8817j3852k4852J2314k3949k0836L4517P2470P773j134K7890j9458J6667p8719K4235
53776G322l0444L4688M0322n6089K3923M1263n1009o0018m0180K6569Q9921Q498J3916m4083J9858m9378J8255r480
53758a6146j4953N7750N052k9559j7350M6843m42k157Q4440l1365l0907l6163k7211n4453N9272k8108l66J0780K9358
53739D315L4229j4816o4313K7215O9532p626q9278j2452N1107J5086m2022p6793N3278L4694N3094J2575K38M9299
53721I7362M247l4475J1006l9341k7404p3837k2815O5298N6319o6739l9980M8082j5360o1419o468L6019j4380J822
53703h2063K1497K6537j2142j5470M0618j0857J3538K2105k0514J1660o7587j1900L3564L4494K1430R3806R298o8446
53685C9568n3242l0099M420n0681l7680K7741J8230j9410O2503L2328J9469m7246R500J5562j4294m122m0377K2575
53667d5255K5679K3688L395O9865M386m2540j3016J9405J1680l7704j4533m8699j8144L3442K1898j0291J0082l8225
53649d4887N4175M4076J8266m4196p5844K9585M768N5838l6282Q722q0623j6189J9859M9457K7298j8647r978J3866
53631g36j5826L0330n7427L0275K4675k0261j0446Q748J2698N1866k5518k831k1450l0919r2503N3300O7707K2083
53613B3765n9530K0307l0703J182J6056K3328J1079j8246j1326k2612j7363K1396L8862m2383J0058K5070N3071o6835
53595b4824k8344P3363m411q470n713l5384O5132M0827P585k0580j0738M675K6366l7592o0618j8729L2499k8754
53577c3710j6555M5608m3101l9573J2169J0759l591K6959N690K0585J648l2893j1572L5032L0126Q11o703m4631K6621
53558a6321n861M3495L8731n2002J8479n747J8051m959l1320l8266j600j1363J2071N1057k5909l8912K1314Q123
53540b0939M4804L4959o242m7329Q723K2602k5510n3053L9530J4028l1599M2825m817j687P388K5426o3174K2726
53522H661M4201r112n9720p745O5558K4967k7256k8687p6882P8107R677k1045L2503j4394J9663p0956n7086N621
53504h3925O6114L5007N3450l7963M4551o7822l81l7021L5909J1998k5764j0662K0623N8408r1783J1579K8067n5307
53486d4922k3217k97j2199L1099j0198M4625J3440j6200M527j770P368l1198k0100J6355M5895K0320J7059k4858
53468A5729j02083L9827O1000K6144k7652J6415L3312l9499m7599N1229k0602l5337M3969J4222k3131o6771k0107
53451h0934Q7331J5993k9602O1488J9269l3093j9241N722J3450m5163L7503J9208l9684J0463l854l4733k962Q4728
53433F5889N2553j2040o4728n1487P6912j5903k2240L638L6344m9649L7511j9286N0642r03o6891K1364l0871j4649
53415c794K4568k9778R937m4047p0334R4492J7344k8989Q3385M3849j5448k3739N432L5441m4014k5645q433P4715
53397I4942m4506J0356j8000k0245K2698j14036O6506J765P9012p0610j5371O9837l2495J9342n0362J682R786m1290
53379c0989J0490M7198k8241o840l60k1235K2583J1457Q22n1277m4363M7762L0552j2760M2343k2022P0672m6387
53361A9405n4717M312k5142K7047n0149j1702l7315M007L5184J459Q5660Q111O1537K3444j7747j6320P073J7960
53343H2107j3806n1519P823J6283o0500L530o1013n349K478P8956Q2738p317j8697K3131K4331j44558M0076K8315
53325B7009l1979L863Q043o7378P866L3248p998Q9543L868K5178n2701j4069P323j5451l0371j3460N0597n3097J2669
53306a7297L1576M760k6467Q206R5665o3393l2765l9818k7086O3791N3512n0146m1143J2177O267j8887N3727K5892
53288C8571J1522l9099J4940L1743k9314k7888N488M6154K1053l3620n5143N3322l9066L5469r617l894L2475j24137
53270g1041l5969P8345M6819M3413p7247M2051N098o4526R871L2244m0339l9256L4178j0540M8209L0936o9152k4352
53252f1258N8685R0456N548l1129l9923N564L4722k8028n982l4583k3346M0483l9891l2894j8575k330O9278L584
53234i619R9160J8725r9318j7152P0853M343m2513l3817J7575o429L9826k9188o543r5669P7798N2765R143J9261
53216F9201l2952k5578L626L7682o155O0544n3585n0992j1429J8127Q4199m0836l255J2843O3755n1717n7043k329
53198A4106j2173K5156J7604k8284R02K95J6820R385M4633l5208o8695j7107j205K4590k8207K5971N7049n4085l886
53179a2339K9640J0125m3997J9499k6617k6985J4899J5492R5956k3208J4784J2535o4200o696k0746j2011N630J3452
53161d787L591j0057L2059m1561K780j2730L1866K7798m0342m9526L8804M8538j2157l1903j6457K441M2920p5961
53143f4684O1241M9283j7968L691O103m2387k4352N094J6593K096M7436K6889n530q482k5941O5741j6326Q483m365
53124H2615o0184r935j3661q3492p2151K9437R3810Q0145l2541L6760K9418j8052o4045L1382J936k9916l2818R8523
53106F7231M3684n3347k5941R598l2295J9337m817K5408l9839k4388L3227j6944k2146j3171m1548k0489K5876L0472
53088d0092M2419N6591J1344j4929o2384p6338L0682L0611J2752K3172k237k7831o818M8342J6518l3154j4048O3432
53070E8032K4941m3850l9140J9210N632k8279j1889K551L1104L575J6241k1139J8542R65k3617J4192J3327m6646
53052f248o1307jK9474L4944j4412K4430k4548m3497m5775M1359K8360m0965N9547K6425j6264M058j8698J2640
53034a0478J07073J297O553l1588m8252R167l7163J0961r5279k66P1470p880M904l962J7489P66l7909N525M5520p802
53014A46l3114O2581k1118n8251k630M6149o653m2443N7833m9679L0931o8733K8052J6022N8378j04M96p9834k6878
52995h8849Q2988n728L712K510P602P0870R149j10884j6327j3079l0874O4451J9090k9462O1585j9092N741J1361
52977B4764n0088j2417K1915K0815K4529J8625k0112J2759J0460M2690m4871j9921q0800K9155l387j13898M9218
52960i0564R2450J2656j01529k2188L5662J4528L3492j9321R899k7627K7777K8295j5438m4837N5461O318M9424l0310
52942A4148M2150m867J958K3695m8243n865j8405o0383O1500K020j411l1406O4149j2559L005K2172j57j028n6890
52923f417J7003p1103p0614J0555J03536j2691R201M4307k8265J007M7896J5374l6168l2793m6055K5939j9846r660
52905e8794N1206k1877O9686o1263O770J5107l8678K1317o181j02029K9229P0985Q655m6002L7474j9855J9034m2926
52887f8142J1100J0042J3022k2711N0716M291J1535N5380p3587l5487l257J5032L6187o4340k8525J00234j3820m0502
52869d2832M1379J2890m897P786N292j6280K1424J2969K2085j4252q3487m9543j8525P3302K9693l5218J8600j6051
52851c5665O959k4672K2475m3336O5286j4213K3351j2852j6004p05L6646j8754L320l6790m5441M9596N6538O044
52833B1783O5137l6589q6855l9829m8119P5462N0358j1170M5976O362M186J5917l4251n7509j151J3414N7539l416
52815C7245n7102J1873Q1550m7505r410L0449l265J1273m9247j10167j5597N9802n749P2437L052N9337o4960M9554
52797E3570M391j5735l6095K3403J8346l6022L0485Q571n2165p369p700j9042J1551N9246l5203q1317P1868J3515
52779D298J1670o6162k8029L5180J8383m799k0819J4849L1740j1766o901m80m7737L3214l9767k7477O3570j1468
52761e2501l2145Q9032K6761n4814Q6299m5100J6626N985p1162O108k7922K3149m0533j4444M5473J14736J4529j7690
52743G2387j22003R318j5830j2170Q5958q5373k6930o035L0651K3517Q657m3347K1323k1782N5362j1875J2757P116
52725a8299P3348j1276k1826N1890k5711p568j4202J6758J0246m0847m4807J440j1825N0920Q00p9061K3734K7135
52707a9151l1270K7004l162J4j6935l0469L1394L2207O8438J9576o8651n8403J710o36M917r884q435l232N1235m7792
52687f1525N3906L6214J4001k6072o330m9502q4446j2420K3013J847R6887J1682k333J1849j7618p693k4771j7648
52669f0959k5954l5781P956O0607J1978o1485J7794K7350J7651L6637l6912K1653J7528K2890L3553K7174k715J8679
52651I7644j04913o876K5851J9684m2913J7062J24237M580K2098n4511j22763J0785k0586q636l7035J6494J9853
52634c9945M5316P865l3731k0278q552n3077J2356N3993J207L8618L6298J099k4680l745n7669L1155J0537l5335
52616c8568M7396q5484J7940O198o9794n2516L4610P6478N5827l02P1259J7308j10182L2852K9857k7775o3397j806
52598f0099j6026Q3385j7513q062j974N936L579J6800k4331l0268M078k0732N9867M7306k5652n1114k7842M1986
52580b0676M1838J0407j2064n8568O5082L7065m6200M4414l1411q6715l664N8158n2784k6435K2153K3517J1696o5193
52562h9380m2098O1496M2034L2015J9834m3987j482J0349q401j9658o760m1516J3823R357K7480O0184N758J5231p786
52543C6493j1771L9898k6692J498n9719j4000k0042L068P0279K6781J3530j04259n5834P8004R0244n7580O4194p947
52525F6145J5891j8421p4980K0420L641l011m0479l7149L2689n956j4250j2096L0915j644N8481o913l2769j1864
52507c1350J4498n2313N9031n157j4907Q413J8072m3692L510Q293J8533O8840N06k7447N214j3686l8647j2044k1723
52488e6056M4572k3947O913R575N6709m2606l8055n4133Q8822N7670L5365R901L693r4030j3877m6762J6710L6129
52470c407j2786J7000J0459q410M1099O867l5407j83J143o483k2121n1238M7360r8499O6139L9353k1324N6007k3700
52451A869J585m58j9905q822O584l0454R077k3979m7413R0898M2167O3687J696j08368l1449K7619j6415P5059M0776
52432G3754n4833n3118M4683J9630n9835K0718N8253k4316o5850j9963j7190N5881K8011l014R168m8517M2990p2203
52414f5751R489k002J1840j418O9j5043j2216J3812j2148O1734j2201k0297O5015j2464j705l624K0944O617N1548
52395H2199K8705j5724L122k4010j5312o2177k0273K4701Q3362j65l8298j7794l0323J3189n7951l5801K7449Q2822
52377B7721p6293l759N9183n2512k0871P2420O233j7806n8507n6693J8105J04119J1395M2743n8357l9142Q7899m2415
52359C463o9841l7771M7199K9699m9078l9424q911J0113M8674p142M4458O8542L8544q8968o693n7157M0068P0944
52341C6719l9658l5340K1191j0502j3034j2289L9740N7054q025l5164j1450N3659J3554q4761m5046n3746M4439K4606
52323e8053Q215K3012N621k1661n8046M5366R3781j1743j00486q419J05550l0155j5663k5993l8122r35J13788N1088
52305G7145k2614n9612k7843L1788M7243k1724l0454P822L9964J4548K1828K7037p43o2286l7978L0576k1179p2500
52287e8982J6258P915k2931J5261N7481r101l7110K0446r029n3752N5235j6431j1368O0830k3586k2393L9288K7853
52269C5884m4376m7957k138j4661N2395Q641l6812L7670L5194M99K2642q0784p366p208n1863K1650Q8875n5119o8617
52250a13451K4114P826m1362N9061O8599o619J855m5101N7695K1833m5043n1317M589L1885J2626L6547j5481j7980
52232i724K2778p5315J4843K0110M4045K8548l1485n6771M5544K0870k6501l747N1537L1207k1031K9534l7820n2920
52214f298M503K9736j4688J0941l973j3888J9381n732J1857o5151l8966K024J9621N4612K710j5269J0485m4899N4305
52195A1311m7722L0119K5795M7489Q615l5571m5957O9595K831K7641p0955q1013P3022M7213l5045k3301L0649l6410
52177a694k5921K896n6086j4800J02312k1536k8488K1j2983M3242l1531l9909L872K3942O5835j3802J8672q365l418
52158B259j3609K3705l8799L6717M353R058q328m724l5742J6344L8458p1390k3805M2459L6489k558J6632K3772m5069
52139F222m3770Q264j1402R4055l027k901o4035p8512k2540O2698O9246l5544L994L2755L1821k5746k8538n1691
52121e8651j0820O1929j3270p577O2973n5538m5775Q0118K4686k2765j5698K9820K9430r9278l6336R2192M6501Q5450
52103A47391n8182q6145o602J605o6410l1293K1989L940n506k2243L3639N0610J148L7233N3945o7922k3387m5868
52085f2058j9874L382J5929k7019R1322L4373l8706o7162O4799N9700l3684n6037J71L0657P57q488k8476k1393r968
52066g1775O9635N0519l2576o855j5976k0887K5095K9283j2640O9597o9143J4296M047m3394J0629M5465n0381k0872
52048b5933K4792K9773n1264P30N5889L2334k3679j6898k8469r0856K4636M2486K5257k9699L982J6680N391j7374
52030b2222M6158k0442m6100J484J7028K8377j611k9635M2279N7592l8568p7496j6352N6917J5445L9517J6056j02245
52012c3818J0386j8602N909r909K510M1536P95M5262K181L316K5641N993n3254k2925L7314K3977j8111l1192j4411
51993B598l3454p521l826P2726O7607j01140k0140l1634k787R672K7834J0315n2396m4920j2909R7964L8271q7632
51975g1372L6584J6852K4971n993J0280n2617k715P0910K1125K2467k124m9153l6219l9075K9735M3940m675p6557
51957f3636N340M6313N9823r67o6535O504L2777k5179m2542P6741M1668o2034m6280N58L0633N8217k5410n3621j0022
51938c7652l1977j2178l2322k2602J07444J12955J0040m9926M8851p5490k342m6833k1769K221N457P243Q4560j3688
51920C1992m4893P852R3156k5114j575j5345j7143j2300k2576l9642N404L9311Q5671l8482k6824O1401K990p389
51902G6494n0821p6775O6289k1671M7237o2586M20k9573j5261J9505q195J4792l0813J7046L3348n0063k2575K4732
51884f8470M4576p4591J0670j2572N2139P3791j0538j1929q998L4351r5713J02866l2964n8128M0621L5163l6120J503
51866a4343m9251k3615k6287N0537M0923L1431J3916K8450P1842J1337o9508m5895J2475p4095j3046p983P1505M68
51848H861q391J4163K125j3709N8937j5318p1919l6168R41O9996L0263Q675n0535M2308j4295l4246K6977j8583J2480
51829A2562k910O9202n8910r112j7276o886m1036K1017J1691J5082k444M6531j7611r710R5032j7411r9857K004N1096
51810D1054M4471m7468n7723l0505M567k4724k3764L6645K28q66M6253m885O308K6791L6128p666q8438k0477j0911
51791g4982K5948m6187R0970L935J1062m9956P9083o448J2440M6916q0929j6649M5035m6900O4851L3618J0871n035
51773I7643M440j05446l5480K6916k1972L7379j7207N7325K3021j45323J06701j2323m2997n8988j2571O664K0269
51756g1949N9401J3139l7779K154K5147M4828l2075j7114L4624p895j6876N946j2724k9601m0287N119L6036K2935
51738a6971L6803q6599j1850N4640J00105L0186L9114j41285m884N668R5958k6537l9958p9650n4841N1788L5888
51721a2425R7186k7413q2683m9636M3711Q6164n4818m3985K8555L4979l3458j2984k6239L2313K1706l0487N597N14
51703b3403j3809J6051O4470m7923p2227L7401L7566k2158n1681J536O6290P673J2794J0311l1536k5598p9002j2384
51685a25629K7613K019L0155P485L64P6507j01790n7387r829N3500J16435o4469j9142J5673K4483K9396P733P614
51667B0731n2669j960l7814K7338r127K3838O300o0507M4343M2994l7210O832J2704j9195M1588k6356J3108j0059
51649a5121p7144R117K4208k0646K5606k7318n3554K5354O4315r369l9765M4766K3904L3002M3560l4217n7207l26
51631d0835j7401N5582m8715k8591L8838J9376J1596l8474N3185N8750k8066j01192K2618n2918k8691P1519N6746
51614C327j7932l4817m299K7439m4154J5167J6179Q395j4661j8827j0472k1528M1538L7893k9249J13165J2490m3090
51596C6564j03488M0774P3903l9760m019L340p115l3888k1606m7495m0437J12386N9158q533k8761q343M2110R0330
51578A15120o8605j77124p2565J9860J31880K9007p802O2659j2919K9233P0162K173j29518j8733K5025l0139J9919
51561a2367k3583K6849O116J514L6783k1081n1574N2017L5419r610r2948J8516L028o182K932k2487P804K6499O1527
51542C9172K7738r8689N171j5841l5941P741M1810P9303j7469n7419j9975N0979J3510o768j2828L6603n2804l5311
51524e1018m8167J9968M8188L4425k5406m2236J9670L3686J630k1501k761o262N3243L0225l823r9863N9211k7423
51506b8214K1258k8921N9899M1826m1120o3317O7960k7296j7040l2727j9977Q3092j0326n367k9165J6917J00234
51489H7716m1547p0792m5601J0901n35j941N0949K1842O310P7190Q401M3611n8742p3137o6409L459K1250m9698j3330
51470i0103K7688j6685k7855k6491L5362M7547j2023J2991J1619q964L5777K0655n3205K594N3193k5465l3996l2843
51452h0204P0002o4418K3594P3808M255n8719j5410M7736K7086m328n3000j6134J3012j970M3400m524j324K8951
51434C1813l8593r9745N1034P3064l1861N6182m4354n9397J5721J1798Q2214m45o0686j6133K4561k7972n4858Q0199
51416g458k8109j8138L8890o2823K5899k7749P532J0879M950M3868J3144r405Q5887r677l6156j8862j4912l4404R685
51397b6959L9514j3176R1590K14l1024l1813k596Q5762p7043r0266L465k9086p3764N0265L6956L5568k6068K6470
51379c1991N5291N7874M3249q2539q7086M467j1462L9951l1559r932K7382k6585l1378L7191n1035K9977N9166P539
51361a480k9852l6522N0193m6831L4771n7398l0759J1359J3184J5516j2871N3955m4915L6857k701R100P449L7823
51343F878k6979l4493l638N3193L2075p6954j398L4095m2266O3669q0j6761n0631O6751j9150m2798O1195Q251o2865
51324e1906j2296Q2895K0818p0p239J1734q4873n1263K2916J2518N2768L5341p1404Q1495K6906o8209L1645l10m9864
51305a8398j7515j0335K8992Q8738j7702o3393o3921Q0854j4275l4807N6060L5043n5044J8884K4217m1066k029j3797
51287a9494j3181K4727P7750L1090p2973o9445O1731J774l7557l730l2834k1633P9961P253j142L9924m6515l9133
51269c3427P4013N0106n7401q2703N5146m38K9340l6602P7748m745p3076j322K8121M568P31k3070k9169L2747m7568
51250c7001J1252j9169M0307J5182l66k6488j3139K6576P746l7451N5527j5287p9519j5675J3741O8145r285k5312
51232d0216P7926j42888n6885P3914l4536k7922J28159K1184r0687o5782R7442N3259J7412K788j4591K115M440K4756
51214B9888j3055L4168K8921q4420L6671n8783k0507l1214L661Q8600K3190q849p590L5475n0141K2553r0014J5315
51196d6131N7448o4288O405L3729j7149n0094L1570k6341j9413O7842n6565L9691M4485o720j5514j3189q421L3779
51178h876j1934J1103m048R031l7301k5518j0791l9862K8573r672O8696N1429L7019j0839K2230K6882l5283o1323
51160d84M737O1053K6103p6237m6801j03019R2146M3435j9806q651K7076m0335o506Q7770R742M017j1520o7776O235
51141a8821O2281L5632q5311k3449j6447m2655r5327P8138J6541Q6420j900o235l8195J3170J1144l1106L7898N716
51123a2506K2131j2027k3520j2838k2372L0156o5416M8600J5940L948L92r984O9124n4208M3197O0437j8730m1829
51105B0495k7775j8617P1666n0742q146N8127l1823m7048O3404j6716J8938k5260l1578P5028j8533l2523j8531O2559
51087D2925m8077n9517K6876K2294K3172p646M168O6352k9896n50K5710j6571j04059P7714M5507o7117n8864k933
51069f0512j3332k3465M0923k6928M6542J7360n530Q817J4252L7490N5319j3134n1380Q738j17588l4332j6300J7620
51051a15440M5120R0861P141p043M4844o1700l5396J5559n3392N0119J240Q280k358j1371K5280l3558m5531k3385
51033a00730M5152q076K3539Q093j1098J4252Q580L4553n4132n9627l1509L1868Q1400L2857K5581n9383K4025J747
51015G092l4658K3250L2142k1365k4630l4108M6786K6047N79m2952q3860J0680R7899o786k2713K7970k2876n5944
50997g7447k2564l2868J7881O4707m6896K4953L4442Q2604r588K0450p5578j7967j0129L9169k4548k3461L9895o173
50979b3118J0165O8438j7565O7342n2530j10947M7883l8858m1026J4890K4496k586k8725O7979l9723O4132l523k3896
50961a7172M4190J3567j5077n0788j6564m4834k9j0769R640j6237M653N2439N4488j9947K1879p5643k8462l7715
50943a32381L7180N3885J6362k399r630J3680M2213l6268k6427J8603N2856l2317p936q922L8915n5884l3741L4750
50925c7461J9072L8503O946n0445k1777J2605R522o035k6994N5955n9250N3911K3274j5525M0779p4749m6740M7903
50907c0506R0778k2415m76P0987k1827j3051n1719j0164r3R39j5988r702L7233j962k492m3693l7037N4903j2719
50888a9004K5300N6173l6908j6047K269m6472K1554n0373J4657O0602L0112L3301R0424j23296l255m751O1314j09279
50870a3679J385p173K1435o421J9318N681K371l1861N758k7707PR9764K6870o8227k6808m9101M5832k9147L399J0343
50850a7961j3980l8909Q262l0344K3997k8178K1727j465M329O4631R54j3159K1961p96P253o8386l1081N105M3915
50831d2125L0349Q166m791J5079J5429j3252j1785O656N4539K7764m0418m4759n897m7160L5852l086L6955K0609
50813C8125O3689p1319r9102k0466o0591R6002J1975r0124M5381P8684j2426Q75K7911J1191j8991Q976J1684l071
50795A8403P991L7129k7543m1677m107k4383J7157N747P667L6473L5327l6486K2498l0051o2149M124m101R462n5872
50776h4391m9467R8710P4344L188L836J8794n8231n4777L211K2627l0582J3262K449K6699l8710j9016j5793J1773
50758g2074N3884n1336K7987j0678K0916J8276K5122J5848m631J1448N4949j8343k5515r2091M029M1433L6216P202
50740D2642p264r7281L2986P075j2934N6249k2607k4274J3020J5333N6851o5448k6481N198K854l563l804J8069k1567
50721c4946M4852N7577k406p5212o0726J8494R0810m9091n1954O6162J3959j0402l4705K9298K3419n025k7049k6448
50703c3393l053k1723m2325M123J04187o3223l0514L5013j6817M1780l425K465l5914L3962m0495l792M8016M2073
50685A6945K6941j3784j6732n9228j360m1189J884Q8557k8657L5615L2037k0747l031m7322N0105L9857m1785m1042
50667b2936Q562n0689j1124N4498p3714K8553O654N0363N894K2706N563n5595r0917R3707L6368J515l5208M118M270
50648a7412j4408m2997N4260L4748J9305q4162j3911K6901K507N0091J441Q490l9351q611j6889l2550Q9145k284
50630A4313K9187k1482k4625j6281j3979K9880n6729p1441L5392N2005L2116k2475K4872J6177j4674Q248m0060l3590
50612g3146O8191N3602k0234P643k6878p3015m8609M9561q229k6567N0286k5477R524L2032p958j0390k6234k9252
50594a05150K7101J9267L2965K5816m4960J3564P3260l2045k3554q653L3577J8254m1869m0164j2521Q4611K2917
50577D2416m4167N618j6141m9115J7865Q669N9765K7244n7109K4058K8725q5029n0726j8626n56M2646J7429n7104
50559a04138L4081n6421N0400J0656N1751J1205l0707R0899O380K7418o9644K2742m711l2643m3451K5500Q1015j8555
50541E1777o2351l7094M1840K1656K0877k9913l2881m7134J6311m8021j1170M3048k3711J6629M132M7119P393k8014
50523d9507j9959j4697K6327P7881n527m6131m099K2508M9571L176n7762o4804r687K2727p7166L2762K9494M3756
50505d1137Q312J043m0195N7851O4436o8067M138O1442p124n4865r551l2566M1476j6398K0776j943l0523m1786N6360
50486b8321j022N8946k7609P969J8145o1602K3686O5996J8572p7351m9244O383O506Q018M6689N7004m5495j929l7089
50467a1748m3677L342n438P0348J3182n7994l4232q2244j106N4286l71K5492M1767Q746M5977n8733o2961K4037l2679
50448a04006P2219M591N2328k3838l8096K1799j133J4164L9258o1054k5642N3853q7336L1578J7647m1723j4307j6113
50430a05811O6459K0356k0739q153k48m3327K7318J4970K2976n4090L6963m408N2868J1479p0706m4063N0226K8250
50412a9680k8689J7314K6190k3355n6714k821k8658M2263j555J3701j4485P721M1318M6834n9533P438O0134j1540
50394A5883J3187l381n1573l1722J1181K7102k918o5398J5671j7547k0926R042L7984q466L5569J7370M8168p130
50376B2096p5419k6171M8198L3403m8882q5223N899J29540q4678k3342Q9060j5167k1038n101K6111O064k7154J0761
50358d1043k9062M2472N1064m5523M8949k0407j4008o9040q00N7203k983j4755j7256K7430j018J3047J7796J9820
50340B1886m241o6386M4678m2632O9498q31J06867p93j06885o0351M1047k0581n0036l024L5623k8818J8700O7846
50322B1567J0314K2239p8650o1900M3305j3436j8290L223r728J6462L0176K3660L6916k6148j952K0038O8798P181
50304I3775p8360j951K2695k6628l1797M3366K521j22051k6457M7378O1983K4630m5795l3317K0845O0038K4076r614
50286B5337o7515O216P4815M7878m2239O372n2033J4105n0406N7666K1308p4659n5593N6445l1086q2664N6149Q4219
50268e685j630K7662Q874J6184O0981j3795l3163R500Q454r1930J6981R905Q722n3633J120N1057M3555p2434r85M249
50248f011r101k4585M953N8637L5069K260j3159k1776K5580Q594j4296j798n2062J3982k6526L3707O389o969k9171
50229a6283j0926m7131L1113J7060m1964K5275L7060o5553N7598K459O045M4704K6212p3171j04616J2235J0233N4774
50211c4876j0957k8687J1156L5584Q6167l500q3161k3028L5604J7810n7513M557j4222M9829q433J147M9765m9604
50193b2362k526n875K5949J0585j5863K5031j0680q360l9454J2453K3382o5665l3394R53R2901n0849O417L3016K4205
50174a36R703j7060O664M1820m4435q5017J3277Q863L6392J1942l901N1395k4316n618k7630N3184L2581r200m8924
50155d16k1881p909m2489l1356Q3881J6914K0551K5356L4812J1554j27017L641O923L9370k9298Q4533n299o296l4914
50136B0660n2434l8181O5331l1558k8639J7093l6282k1234K3330L7559J1317n4677J9419j4776k6831K7716j9124
50119a01311N8294j1128j2613K4139j3723p2888o338P4719K3179L2216Q220L1799k7177J0036k6186N80L3607L0888
50101E6313m4497n1133k2307M5708L0229L6007l2477J5759k6988J9840M1441k6238j4449j4218k2315m4241M7224
50084f342k7555K2599L0752K6851P257J4790j6043M06J857n5299M5623m7745n6076m828k2351M0394P0736m7491l3575
50065e6040n3155K3019J3007N228K3624o394P3833j57j6776K6377j1054L7189k8672P1579j0191o0498l662j8931
50047H326k3921M166K1940K228L0335l0938n3798N3219N7514m737o8581m516r847m5353J6134k5695q68M9939J4395
50028a0058k8555N0323r771j8524j6532o7253N9328K5711Q3372L6110j9563p8776r7746j8233P4001L3081K4923m8197
50010b6359l5183r156M7920j3980n992n3735j4821Q0212L5804l563j1223k931j3306k9512O624K9876L8611p6470
49992e7184j8102J8892L2005o0006M2195n1661P6536P8648o8058Q508o9404J1458J9821k4966l3127O3001M0760j4383
49974e067k1141O0570n2318J5398l4617L777K2549j2332J2924N5570m099l9094m4015J7484l4524J8380J5107j9296
49956d4744L712K9185n181L4963o4370k5747L9801p112k2842L4900L5966n4906J0188m4933J4415J5311K1935o3795
49938i3254M7259K9430J5042p0001n0020J424O7962m9831K379j776k7712K81J7287M9212N1607j3430m1652O2977
49920b816J2892j7591J2747m8644j4781R7254k1593m013l5975K0267m4214N060J6629K8081M2935j0606n2966r0334
49902a07668m5118J01235K0866L6292j2040J1544L44o2523L7358M3898l533K3225l9624l9762o4397J3470L2577l9032
49884i2888k745m9594m0155R2915P3402j7302J2355K6763J1947J0759o7209J8078n4945L6818P1183n9637J586O2520
49866C3851L3494q8133O167Q758P9066o7994l8764l6551m0579K2129K0552P9118q1454m4005L135J7337k1108N4502
49848f0479L04J7876k1668O669j3683K6184L1696J8194l2666o561O6017o995o9472l3728N0223K7920M3728j03718
49830f0159l0161O1825L5850L5883r0819k873R5701l7127n2975J8030K6210K3083k6487r4966Q9386M1596M372L3112
49812F9481m2962J3987o0839M8255K1722m0937n3140J9747j0580L4626J7625k0908m1190J7190K3535j7942L9190
49795A6860m3351j7932n4183m2958M7347K7399L6540n986J6817J1544k6220o282M655L656j4731k170k90R990j0608
49776d9903J5573j5979O5236O1872m6236J3201L250j473m4420J9691k3786O1269j360j13454m0164K2329K7489J4400
49758c2465n981J6179l900q987M0014L1888n5284l094j00503k7376L8773O5577j2501j0165l865P6281k6660k5389
49740d7458L143O6424l6564k0418k0741N972j9255k4058J2744N0528N919j1482M5261k9786P266J292p509K9509K9980
49721D0767r1978J0318K147J3274M7500o3585m020J8141j0838J9168L5921r0775j8611L8332L3090j9815j6510j7349
49703g4823O1916M2489n4878k4397N9141p954m2172N154L2898N098L5497l0818j4769p652Q172k9248j05324J6444
49685a25226M2047L9821p4662j6071O9533M3133L7332m566n110k0158j7062l4174N5505N4227k3148k9032n3690L1564
49667b9737L3963K0764j00249l2680R9460n9746N8984n0239J6322J09301K8869j03400m5906M5463l9107k9628J4460
49650f3106k6562N1344l6088L1471J1894k2336q970J8902j7305L0302J2092k6140J4722R272m8746k4579O283N0556
49632c6994K3286k9329p9220m023P3128L9205L3334L3691m8775L6369J7126N3462K1903o2825n2991M4456O2456N1
49614A24310l4131m3434l2174l1920J6825l6686L7086J1019j8535M074o0975O3917k9845j02069n215M0555O884N8088
49596c2226p2071l0914K8639L8039N2066j6796q3516M0308O522j0174R0384J7357r0167l0786L6590j2720j9136r538
49578i8139K3842O8727l0809J9717J1126l0292J0189j9046r1962K2626L1959M9033L9208N265n918k8664n9765M2191
49560d0712m1321Q8878J1690r5523P346L6125J1762m3261j2716m4292O3135J6010K587J11784n1072j05654l6708
49543a21942P9199L4334O9037P277j5597l2769N3147k2045l3720q7199n0899N6522Q7700J161k7730K1319K7074j3238
49525C1631n5906p0222j0759M4424q810r374j0028o805M7003O6069l2730L5774l4238L3409m2499k7088k053O9284
49507A7082Q559l0089R4022K1741p3784l3885K0911m6600k3390O857N4352l0360j3165J361J1713J3914j825j3131
49489a5717K9441j7802o3294k2157L2227M0658K7038J3971P361k6609L4257p7755L8953P215Q998r4905K942J9358
49471e5820Q867j394K8140M7240n6402o0853N4312k2947Q639k7104K1841L4026k5939M4908n6395j0742J2387O797
49453e0439J2844l0210O1129L4919k0087n3089N092n5100M140K975N7285J2340J0399N331o5870n7229p3744P4637
49435a24677M4379m8784M9021M6712m4140J0991L0L1541k7494N8792m8257j799j5752M4848K2124k6256L326o308
49417c1703Q7660l1642l1439J1626m4569L3352J0449J453o1557J845Q9851n2522j4331L2326n2070n6659K7914L9259
49399d0757J5225l8730l9513N6276N7149L8277k9599j3720N9896n7774k0637m1324k1943R1424k2315m8584Q800L9022
49381h827P6295n1146k9746K4337m0259N1784k1734J7947j7185N9228p8247l7704j3124n414m9198O6558J5243K2140
49363a9052R035q475K0816R84j9679o215k1818k9602Q6879k050j2216n0724M0944n657P6910J9207o1732o0509M4948
49344A994k524k6555K3222j1245m5019k4708N0291M1366k1119k1308J115M4389N5j4461k2820k5511L4394P2640l2950
49325B1246m8734n2619p8519R9736M9907r3719L4909L7025K6344k3272n1539L0307l8310l5325k9043K9947L3043L801
49307h4815j406Q6524o491O887j08454m1749M630n85J0595P2529K3578p7487M8587k6376L5560R4905o061j58382
49289a28011L5997M5759J9166p340K5338O6848m2286J1049m5430l5499O9304N410O2812o3946m4571l5214J6397M2645
49271a572m8912L9285j8153k5456M9331k9292k7999l2618K9997K3305m6744J4770O0257k1806M2796p6906J2331P3813
49253A6427M4103m8502p7549j4616o4286L7786Q663J1492O8L7570R4259l5168o199J6729p7634l9066L7934N2642
49235e347k9108l514o3035L6763K0895M0831N3568L1278p4631l192J5110j2983K6926k634o0147m089k8651N5296
49217f664L1902j6482L256K3011m5723J7207K3341l4506r444N4348l1004p4418j758N8266M3506l101k2506Q359p7097
49198e9507l042R9391m4185k1693k053M683M6476k5924m324k6907j2899N1880J6936k8843j0897o0038K3336l189
49180f0799j5306M817L0457M7582r0848r920P6991l9341L912l252N733q071o334j6928j733N465N4793l9872k3495
49161h6149N234j5444K7965L3663J1739O960r967M5050L2823m6785k6985l324k9007l4064q504j7495K9599M4549
49143d0142k7270p8682q817J08492O6751Q593R269j20271n701N8931L1116k1671l6022N9169n583J412K3234k6610
49125c802K2295m1864p1708R0253M0451K6999m1450q037L6949o8012p338k7533L510M959m4093L4448J629O0100l9277
49106c1521j12984M4532K9843k3817Q217J3105M7456J6969l0436J7831K5955n5169j00054l7587P2383L3878L7811
49089d3588q320P7877R347j7344j523P40n1820j9616j2736j0673k4553J1070J0724k804P5826Q6074n2595j55636
49071a29550j0482J00408J6423M7326M2415r1085P818m7033k4676L8987M2305l9454N486K7202p7031o5251N981
49054a50211J12999k2713K2733Q0295K738l2880K6157J950K492j1301l9077k3982K4396J9953l7577j04728M4823
49037h3933J0678M585P180P6627j1592k4979M0912R807R707K7351p4436M329j7426K1278m4395j4306L2299L0140n343
49018a517n861j4406O9756n7177m1315m580r061P328m2559J3579R3343K4041m1088M4344k8089J0263N6294o0717
49000A2578l7094k5035L3677L7405q2692L857O4196J2758o5215N5991K7401k9370K4224O5262m4041n6981q4904L0647
48982e7336J22662j0043j13307l0576N8158Q655K9514q078j16732j0999L6438O4965L5383j6714n2192O0564n4429
48965e4067M6406r5991P2090P1426L1781o8845J3653K3910J0909L2273n3138q7687O6776k865L6296r028k1073J066
48947A3892N7097l9760j1776m9336L364k0886O2273n1056M9338K0797j7261M7976p7945j11889Q557M5506N3375N1367
48929C3633L6930p7193o2543K8128J180m7947P8029Q5393J6396k9048m894j18349l5057J2034J3120M0973J6677J5457
48911B919K0318j9064l5579K5084J5066l4566M5362j7351n0437p088j6803Q306J3172J1092N935j8921K1188p0993
48893a02360L0375N7235L347m1292j4791p3661J2838P2281P8345l028m9834K9825K1925J4803p4611K7202J9381N173
48875A3153n0819k3884l6684L3904P2192L9282J860k5465J2575Q594j6542J5420m0910o0833M595k2174L9602K0680
48857a5454r125k7050N49l2994j1854K5723j4353m0547N3162K7898N3160j6509Q021l9094m5850J2966P8515k4285
48839a7121j0780K5770J6626k4137m8780n1223o5788O7403M3672m8276l7947K9117M3044K3989L84J5642P8926K682
48821D3203k6888n6689m3185m5641P0368K4162j3668m3266J7712J8295j7352M8877q117K6971k5082j3297j8168O1397
48803c68K9525J6978l2808j13123P3065l4796K8436K8544J2047J300L4261k0795L8516p3240N9993L290K078n3948
48785a045K5422k3248m0886j210M2298m9223J8980k2292n7315K4237l615j2573N5002m181J803j2522L5632P056m2917
48766f0597L1343J7923p3185l2688N2341J2528m6972J9522k3587j0369R2045R891J0595p2108K2462l2814O307N5252
48748b2111k3597p7409l2072N4852M7613M0191p8194j1158J6936l6669k2994M3004P9624m3595L7968L5212l8339
48731c0738K1796J0346k8865J1585L2792O314l366j438p349o161k5926N6186m7381J0136Q059J4866K8386o9623J463
48712a8918O278J6043J631k8075r3728L162P0621N7219m0443R411m7090l4946O166J4242L2680L4217L0246j1246
48694G470L7502m5131m9658n7589m7599M4308J4255N94k0871l8037J5915J26916Q3278l7677r8402r333m7102J12032
48676i129N8396J9674r7115n3929L3805q894k3250K4155Q3170j724j0442p0171o2263L0759l159L055L9381m4303P897
48657h4087K0630L2673K3356P314j8732j3960l6250M8387L815L578J9158q136n9359M2913l0493K1430J1023M0954
48639B4214o1161J8125O4881j5561n999L2908P894p0919n4044O960P291k6161J1753p488n0695N323K9561k484O8831
48620a6771P1511j9857n0787o819P3186q6321K4570J9543J9947m7340k1979L919k2675Q1315p175k3160L7235J5153
48602D3495k1311N4700p7902m3183k9004J8214Q9110n8001M4920l6663k7616j28380J16389J04109r6960O0226m7344
48585c5201j2331L1002J7185K3556p398n3517L9190L2994p0145l9887J10O3103m5623l3638K1570l1081L3577L8668
48567b7866K2580L8903n2055k5312J2047J0452K0796p532N0378N7607n5545j11728k4231L0478m6521Q728P1613o2244
48549h9452J1200K6873q8407L4997O1057K8413k3923J1503M8753n4742l1161K6405M0228l76P7748j6898j3509j2650
48531C6059m3796l1661l0247m368j4699K6794N3664r165j517l5832M1549N6711k6257o1111N9516P0453q2359J5676
48513A9410k1647K5500r737l3337j0225k0862M0810J6219k4310L81j5042r954j2788l7602J06745k8599k5697j8278
48495e9013m7346j4158L2317J1830k1274N1317M3794l7357O3248j7911O4456j04293R12k3602l5497K453N5070j9429
48477e4483Q283N1289K5333j5116J7130o169j6567j2885j5462n118N478J3653m6183Q467R323J6993l310L1188K1173
48458C3017k3414L1796q2797j01805J7052N7012N9889m8716L1265p899k218J8769l4665P4751M630l2734m3009K4273
48440b4803l0295L1742o7345l5113N1327L9897O346k5721K8664j4881o8466o34l5489M2380N2648k5298j985k9179
48422a06205K2127n707M0344M1024M6903o4157M3176J3971M7119m9738m2259l9171j339L4168O530L1871k8911O993
48404c261J878l2878j4088m9177K6271M7771m3433M2987l4571k6870m0871N7304J0176R112L3630m6622J7849Q0706
48386C5913M894k4111m7349l2023m5863j2450P9481n149j800L1873q569j8932J3211Q8279M0210n6056l6875l9773
48368c5089K638j3989M7454R94j0023o4019j7834J5597J2935l6078J3768L0155M095r623R4161j9826n4742l9000
48350g8426K6717L0486l377j1501L6694o8560K5682M429J2271J3497j7566L567L088j357N7104p84K7627m4015J7184
48331C2760j1448l0787K2747l1035J6516L4444l334n2069O831J0945N344K0251R567l4873j4413l8161M8215o251P206
48312g545k3868J6122q9676J3959R676L8120K2023k9610O631M6318k8679K4534P2085m0771M8930j505Q670l7222
48294D8192L6423m9200n3923k770J0977J5389k3644L4855N4860K008n1820k2886j4732k788J1516O4682m5259K005
48276A3885m9901J500j6284j2378q482P0633l1364k4167n75J4083k4855O9747n0273J6274n7807J0754K4682M9978
48258d550n2503q328L450p6553O1541M5088L1596p822m3525L8611k6419p215J1192k1195K7069o5033M3479m68M7695
48239c890j6785K1746n0398m5834N6607k1376m9516M111R3440j9518R5409j5811m7562l5895K7364J246m709K8042
48221A6671m5951J6326L635j7886N1994R1022k1343j01520o0373P136K7288J3490M9017k0166p0316l1029q3337k842
48203a78184J27802K7933K4515N4215p2768J041l7320k6526K9028J9448M6567m9872M122J7407M2086K3399k9820K91
48185B3364P796k7333K9692J4856L8899m0961j412n6853K2440j2010l296K4732m3387r326j1356K6191k6564j6221
48167f0749K3813K3494J8526k1258O199K0861j5609m4185N359L4307j7188l3025L456M7236j3169j5601J7072o607
48149b7068p869l1544n7860l1766M5925M8841K831J4468j5575K9997K4188r800j6737m2815l2130J8730L5827K0980
48131c1377m3090M4155P7683p2898m3359N3348k0199L4815L028M0889j4945K8505M3941j04167l0691O0200K5934
48114E1772m3938k5876n465n3315L6278j4379j8684Q0624M3527n1554j932P257n6186N1241j0250J6403j05853n299
48096a05629P3331K0110m555L1137j7182k6679J6606R49j8990Q490O068l1097l645Q4907r0549J3287L330K8427K1410
48077I726J0769R125R232k8587l2253n1221N9589J06048m9302k5708K6667L8999o4525n957p6295j3785m349l567
48059h5394q3234Q9696n487K6403L5915l7707n4947J7258P6339r697j3834n4011M5282j3164J32890k1011O3428K5340
48041A34065l8726k0953m2416r4453K6904J186Q0283K44l6708k3151l6254l940m0979P8440M1934J490L0543m1981
48023A5528M8513q2979M2261m8187j6375j4757j5463J8488K5862J5492l7227m2869M7767k2309p053M6847J8090J4803
48005F432k4854j762m0396k4977N5427O8176n4530j6291o7136N0857O9162R738L599K1735o7603J8940J14096k9581
47987I1032j29661M2178P263K6149O483J5852j4357m6862m219m5847k7765J988J1715m8142N9807J5296K2290j2783
47969b9583m1337n6746l5450O7361K8048L5971K021k7347n4720J9440M2630P478M206J4865n3717k6897J2151P7948M0
47950a3638n7887L6118J858N495O84m6926O401l1078P3644O0797o2363l2644m1499M9081J6266k8168M7951M7289R761
47931D1142j06422o6628l0616J6783N7952k7136P1968O1752k2506k4011k7174l2415r567M0184J0785K7440K1727
47914C258j0900M0112m43R820m0208K6349R190j3016n5295M1424J7565L723j447j9382m452P3176J4345r4620o269
47895g070O1858j4713m3742K6974k1262K8892q2373l7316J3955M3152L0584l053p6554p7727J9450O4663K1237L752
47877d9293O082j3788K3756M9009m1205l851L8256R8274J3700j00892o5644p3213k3714K7340O0459k9698J7146O1297
47859e979n398k3926K1218o1436J1770N7566k0669p7016J9147J10804k6915l1196K5256m7525L8060N2021k2432o065
47841G285j061k5182L522j4140M6320J0277Q173k4125L5568N9661j11803l4165L4748J07511l5013m730j9164q6088
47823d2406J7845L741k1188P7072k9039J4685m8104L2528J5898k9682N7877o550n981m5193j2046k257p0384M1085
47805e2099J4713o9289L0690K6916Q0529r928q360L6078m1367j18481M6007k2409J4259J123N0380k6479J0756m3841
47787h0802k2093P637N4283k1429J8276n2440K5179Q9046o3490j5878n2000Q0289m517k9468N8004q962K4036J7788
47769B3459l3948K4071j8415M3282n299j536p9870M673m0382M6617K3403J4218K1110o7764M4677j3739Q671L2426
47751B5654j1911J4497r1990n346P4163P0618o121n4688n0665m2560L0207K9104O4500o938k7121o6858K7122j1369
47733c9702K811l9605O678K6350l5583n1397J00428R5855j6841p3576m9172M4039N2994k131j7720k7019J635O9482
47715D7526O080q4198K927R5630M0477n3078P938N413q4593O3693J4548n5926k0156l2424P6324n9504n3968P194
47697g6097M9425K9194J5565k3117J0775M7171j4721l7018o4849Q069k4383Q2624k4207m0141P1616n1116K2064J4277
47679d869k1061n1694K6603N41K0322m1993K6631J8086k8046K4318k2371j1884J6522P742M3499l1085L905L697N5482
47660C4345M7485p1827J3647k8911j2845K7916o0434m9090j077P477o376p43J24306L6980j3343m8372L540M8156j379
47641D9455q726j4204m4544j4194M703M2277k8770J8023j8221n4342Q702N9058J7173l1940r666n9628R766J0842
47623f4236N2871m6573P8239M0458J4450q3660m6696M0111k5588j1692k7507P342N8089J6206j3743k6825M0050L195
47605D491L7393m4280J1795M8951K990n0436j0917K7057k9765o0654L6003m0026O7632l0625k093M204O0399j6135
47587A5984p2595M4075J1621J4354M555m8807M5435J3696L3027l3850l1951K793L2544O840o5609j9115m0040P5540
47569a1503p659M0636J288K498p3776k8114K3069K6383j4687M6828m2632q573M4786J5254n1731L6112O647K2131P042
47550C3999J9877k2161J6037l5084K4487J2437l3690k0314l0923n1956m6337M9779N0280o311j9181N1461j9155J8480
47532h275l6083J3138r597m6701n373J4295M8584M3784n3225n3056l7391J8397q018O9276K020K2035R596k8162M2038
47513b718j7834N5760l2285O860J4275J9708o1345k4884P356J7450r98N510j7475O2650N462l261j9146m2886k3816
47494e1617n9845L5056l4614J36664n091L023l0927q3309j8872j791J5196J0289n221O0093l3040l2006o213L5533
47476f6692j3287M3763q428L6492o9904N6099O0904q9144l7527Q780K0164n703M3006M5414o47k1223O5296M5211
47458A12574m3225j2026m3040m3996l891K9773N1844l8473L9478M9156n2434P526n5142k4522L9435p050m2920j7766
47440e4699J231M3005J3127p1073k2140q3718M3657O0063J2667K4529j8901L0180N1226j6781q066K0224l7875j4621
47422b7965M0617L1414o9715N3873R7678o4325k4879j8702l1724l1064J0063Q289M0391P5605j3561l1173k4147l1998
47404a1323J1990j0568k6489J6792K3573n1387j821Q4475l4859j6399n2704L1036L8335K6040M1304k2474o4702
47387a9181j01068r715P6607K9396k9136r253L4339K5309l0294J2673l9575o4613J3558P3125J06280m4507m6098
47370b2153q4773K5329Q4078l5052n9378N4714J4395j2754r598L3935p807m0711N3636r144J0015q7767m470L3915
47352f3590M3698m0164n1289l106O5397L2290K4555n7016N238K1390J9808R1943k0126l1927l9208J7089Q8792k7842
47334G5932m8912m0271J4727M8910J9026p944p2527k5853l0643o1755L8935O3517k3163J5561K0193J2732l7328n1962
47316i0825L9315O5733l5767L7110M6781m7871L290j6732Q8689k5988m3430l1274J521J4515K922k5491N8606m7092
47298e988o8431L0135K7487J7212O1400q8849o1127P0318K3806m6788K7209p6316j2876p518M5387J6748L6968K4231
47280A3008n1030R023J2729j5647O9606m3123m9706n188n892j3760N6365l6999R883J4940K0432N2737j22092k4537
47262a09251Q4976K7484l4958l3365Q4968K8445l2176m1458o752j8453m2913l2946K9123K1586k4766k6970n8257
47245a85683M0476L7612L6455K9751k9118m8858N7544P1778k5085N1601p7879l1061j9835k3806J07782o353K482
47228a2197n0280l7308L3378k8995o074M9723m2947P3456O2402r083k4170L4045k0873j6491q470M676M9348l662
47210D6478j8313J7517j5832o9450p1751J6086N7992k397l8263K5119Q4998l160o3216P5236o326l7787L874L2448
47192C3253m5599m8257n0990L4972O7466O0026j16279J5831n7197M0547N2186J3648M6150k9828k6125l959Q2603
47175F8448l7439k1361J440o3643n269L1445M3889j8646k3561M3695m9617j0001M227l889O4998j8871k5503k2720
47157d2378J3434O4475j1046m955q206k3118J62N7108K1116l7451j289j8014N500P692K191J650j2504o0220L2680
47138a3173M3039n8851q0868J3798R5085K8115o2625q294m5816n0657O7895K3836K4935r0894M4362N4189Q5823L503
47120G3402l5959l8354j1756l7533j5848Q196N9290n0674k8124l2732O6802k0647O1944o03J9245n3844O1766J2726
47102C7297j7394M2905l4760j00370k668M5517K2572l9196k389p525l4650K6512P2945K1141r149n4439L0811k425
47084e265P687l4862q6346M1326L6675j2983L5194L4302M0346R216J3316j1266q9838L20n0204O2068N041n9788J1759
47065e3302M6817L7064J7557L941j1378r2415l870n8318K2426N2992j8662k6538N8454O9059m4859l6457n048j6833
47047e9370N7665k043J4778j8807J3306K0466k4222l4834J305k0452L3882m685M3243Q725J7330q0086K2659j2626
47029b3766K1499L7887p1083L1247J1527O8400l8924Q2531l7513q3812p1043M6000k6390J0813K9100M5649l6599
47012d477j3782j2075O643p5221K7948O8342N2828l7503q980l4875R518l808O569k2831P2567n3765m1249J8823L2813
46993a2515K2882l6071O4044m8501j0812n6681N0930l923l1967k0197M1027M0292k1029O717l0851r9456n7824M9723
46975a54212J10341Q1919o020j8259k987P48J8783k1588J574m0919P5178o0405k4046J0683K9778M2009M053L4725
46957H1355Q871m6053j5400j4208n0005O631L2856k2768o4518R2992o2183l6631l769P0862k1825q156l6210M1878
46939d6281j4138Q5331J2370p4003r1851M9251J7791M8276J4465m1964o9448K8314K9832K4815m7144r883J3559N3657
46921a7051K5461m370j295L8498q4256K9857k3081l5168K1331J9550L8375m4848J2871k0410l7168k5996N86K4004
46903h3110j1943M7820P0245o1943k014J8138L7056N046n7864l2178Q9866n0384q4731L163P6168J6513R5054k0103
46885E4799p8804K6322M9468k9802M233K5618Q836l54l6868j104k900j11403q645M5993L66L2359j376P0061J4319
46866F1118m7340L3141L0321j5229j1122k1563M8408p1070p0868l8403O6562m2596k617k5637P2874j7120m402j2820
46848f8363J28301m7136m7305n167n2059L5700L5270p253O4175l0691J1728r540l9696l7432L6378j0110N5686l2777
46830b0291m987N2672n5994j2945L6314j65J7212J6949L5180J9173p7385o8662O0755K5855o6227L3587k5055N6903
46812B2889n8394N0601K0582N470k2084n4907K7971K4589M0535L8725L4998j18505o7144J01829r989O335o4000o039
46794b6538J2411q773O3579P3151k1813r9877o2958M1727M1654K2595J5721q4727Q3467N3789j8423n6241J1577l9835
46776D86r1432L8440Q4360j2028J1411p3711n0533J4622J2114K1545K9618l2382k6417l8727K417Q9541Q586r326
46758b1416O0730r511p635M1083m096p249L6619O1621m251J23921J20610J86887Q8179J07799Q8052O0304p22m8945
46740H71980k33517k10091p9362p9855l5244j25016j0782k2186K5104K3389M4006K8990l0331n486K9544o2236l8004
46723I0903j19532M0633P8974j3984k5479j8349K1464L0370m2190l0995N5406k3027n7787P1171j4350L523J3344
46706F0095L5053m8908J0945j6422L1205j6457k5398J3342K8766k2841J3812n979K7121K2650q8264J0902L0035n2640
46688G017o1214N0717R5058l0600J9943M248n9574N6693m083k544R18R714l4172J8182M588k3262l8844j3429j8310
46669a8954j5626Q4208K163M2863k4115j01030O5293N2000J5010k7571P557M9718l3427j0714N6998o9662K4684k4981
46651G4414O674O832k2107J5936j6359j1494j0173J6138j2177O2121J373n7046m3696L4979K9116K5947j5372L0494
46633A15600O4625q840p460m9704N675o9315k2689K2627N4737M6289O4483Q691p4391l2025Q899k935N0391n145n4875
46614A14638j7293M7002J7656l6690L9240R3515o5253m4619M6924n5196K1328m457L7856P8834M6022J530r385j6605
46596B95047q5994R5794N0150j24060R3769L3425l0710r785Q046K2159N4901P524l1496r858L7976o0450L6256M1385
46578D24079N0175o114R79j7254o9946m5267r9629r4626m6660J180J12409O5464J0977Q4083m2832M561k8469K2289
46560C25399p0925p624J3028N4338k4984O4999O2398R4149R3971o129K2668K4310P102J11057J06688N9114p251M439
46542I26747j10431k3978P1830J05439K4540J05248P2705m9194J0697r965o01J8843Q8153Q6535J4131O7070K4494
46525A422263N8158L0060P415P9083J17776L7971K6127Q2009P7915O056M7279O7078M3813J00114N4408R5974J56489
46508B509988J38777J64795J22536J34852J36320J94476J81012L07023L59235K79383L69310L85691M98214Q10988
46494F592600R78278J179462J426476J312434Q02748L12067Q95447J904118L133782M830363P326535R989042
46482D0683352J2705399J6508323K2476952K5995501L1015279L3519134K1273645j5949721m5066517l7601093
46472A05560254k6742376j9135970j3540169r271912o602876m867462l879412k955779k137279j282284p70923q23003
46460A3550809j841143k065168j591195j258509r81804p82530o25116n97207m58704k90417k24894k01844k43509
46447B388769k17074j39420k02698j95208j21282j73218j7627o3673n8065j17748j58279m4898j6016n8231n7776
46432G47556p2203p6865o9129K1567M36k0055j30457J3295j2654j36747j52004P2754l248J5676p3026l7396Q0803
46415A68303O0881m8389k9026K0108l6350l6373j578k3836j2473O2889k9328m9761N2988O2845L2745L1909P6205M586
46397C06345q982M3068m252o551K4505l5401j5217r4452L1967l293k4377N0310N8013J18955K8720l7781p1702o8846
46379B91029r5796r0934j30628n2397N864P764N5467q563m054J2306J4670J1779L1p2855O624L7559N9547j5719l8118
46360f424k3325N6530P6189l7J5416p123K5383n7159n7504o517L0990k0321k3667N9846l5978O8101m9386R945r110
46341D5849K1422N4714r9172K9553O2980n2898m8874q8194j5769M0740M8617L409m0661J11414L0934N8111q3255
46324G8920o2717p3805P292J0536K6950j0494J7831p602K3687N1031N4855O1251M626q5576q0384J5760l502P8655
46306A07314p3593p6458j12273L9382O0484O5086L8173m8907K4124M4509L3032k7506Q800n2075j35O1347N118k4138
46288G2284j2656o3824J1116l5037M7516Q7046l8526K4257j764J2897o9488J44k4892N1872N7065k8671P517m4304
46270E2552n2298q9j0273M2374N449l0050o7750N6673M415K6742J2608K6282O401m7497M3626K9555q1497l2220l8973
46251e3970J0654j4775L5557O0123L1152j7404p5083m4945O8251p7800N1014j8003L8009N4103N591j6293m1070N0502
46233D5613r658o5049J1745Q0029N1200k0834O681k5574P5621L7464N5093N4841O6790J55046J59473J89916M9963
46216I18360O8751j06272k03936k19065o8458o3301o8479o4213k3250n3151j3540n6644j7533M3454J4339l9983J5380
46199F2459m8372Q151J8076k491m0002O1714L2632K740j1554n9475M4849p1848P358l4305M2990J0886J3638j4076
46181B3370o2521K0574L6911k2356k1037L9159j2931J255K0601k53j4339K2122k2706m6167J6074N0849l6827j7196
46163b5418k6122j7557Q2347p2397M860k290P2251k1486l1659k2391N5899J0619n9065j8169L1647M6668L9105l4876
46145A1966r9760l266m2090N3940K8917J046L5997p116j4520k2242r358k812N6344L8558l683J3450k583k337j11601
46126h1150N7993j6493J732k3209P5609J0885p8924L6731P637k4079n0257J8079M5102l642O0778Q697p9366k6857
46108f0734p162Q4142l4578p2177K5837J2955K6160J6273j1156j765j8068p5815N9499Q6580l1884j5446j1527j6033
46090d4899k158R645m5577m0432N8814M5776m7461J6440J4285p7950K1192M5313L9298l8708P5239n5015K5801M2161
46072D1764l9029p7040q583N7610K7385J6086n0192K4592L0761J0487n5450O5844j0425m9627p8373M5574M0573M2418
46054C4375j607k2933k2764M6314k8688n4630l7839k1262K1152O0499p4554o77N0094L8233J3308l4121k5192J0181
46036e0111m8143K3082L5640N1116k5283J4254o110L9146m4051p8524O6253l333L4526K8907m0979l4024r322L7831
46018i125K0814j6011n7071k3490m2907N4775M6913l9609j6578n6817o737M2377j3348p852K564Q4650M3536O517L257
45999A5858m3911j0100R255n489l0725L93J2294m9146L9944O1995l1529J13243K3108k7664q1121k507k1916N1141
45981B3123l6117J415J1381k4571p3696K665R4466q535J2326K3797n7768K9599L8878j6973J9444n9326N3127O669
45963C9904m6037n648j1221l9372j3942L8896L9406K9192N4181p2302q468o3799j5207O3491m6383j0401K0180m2022
45945h9552P0612k1687n336P8851r200k8556j4473M1052n6223k0694O913N1912k2880l0304N1248J8152j3557k3166
45927a6888L0393k4939J6471k5731Q724K5000k7824M1692o1206L4160M9792M7838N0579l9363j26625j3576K9638
45910a865L0835l6210K9123M3368j11343P351O5521p1153k0392M1202L6998p4465j6445j8827J6537P2826r142N3298
45892C7217q321J9380j9062m9406o620M0200J8883N3567p5493j2085L8439m8823m9698J6143O524k7738l754N3542
45874a7105O7305k3117o8006q027J2387K6555N5368k1429m1432M3717l7935l8622n346K5952J743k1789J758Q1338
45856C3315P786j3598J6360q2831Q407k1356k8218O9968l2349q442r241m0792K3031N6559n1015L428K2092J9515
45838b7381M6730L5749j4232l1610j8078j5681o176K3793r174j8205K9708L6678k7260j7020K714M1913J6244k4246
45820B4466l0609J8049N9833m3110j5873n2578K0862Q030n229k5780l4269P7006P0807r346j7511L716r1197K9289
45802a3444n689o5736L1205N9889j8395L053P9678n7811m1774j606O133j0336j280K7676K647n8682M3769j077m0057
45783f1837O047n4212K1471J9546O774L253k068j8190Q1719N8381k4020l0015o3836l7662N5197j1422J6809m3852
45765g7917N196R485P3409j9969J425q976k499p0635K5394K0926m3018J18371l4421o2643j0705N996L899M4367L6257
45746A3942K8245q4419j06359J6685O5387P1320L510P496n0224J3491j4083O0754M6649M294Q4418j53932q646n0794
45728e2266J4737l3206M1354P501p232l7441N2520K937O3064l1191o952k3992p2195N7794K27J28k5370K8237K8245
45709F899K0396J0350J4973j2476l9630K0265L6273r0422o2620o9930O1172L1040O0917M473j7087M1853k0533J1375
45691G288L8320M1419n0825o1616j8372k6233j0771L0610K2416M32P6766k3474K761j8323p8360J4571P8942J125
45673B6676N7498m3114R852K9350o9122J0102K2948q8214M9546J9141L0775j3278m0207n0664p7965j3015J16036m675
45655b8330M757N0735K5444n7766l8451l006J4517m1968j7707J5485m7119K8413R3816O0687J9458o9844J8540J788
45637B9449l5494m0793k3771j0958J6893k0858N899M3807J9185j5392L5779J7384r595m8195K8597m513m1976j8497
45619g3049K5503M2218l421j7738L0184Q136o3805K1308j3330J8868K6655L4080k277j9121L9230N973l0202o3973
45601c4761n150O293L6372O3539k2590L8316l2381o7343J1256m0509l8325K2157J1429L0904Q4029M27q352j2483
45583D2828q2951j8274O1088J4757J03r5094k384Q794Q2333O418m3490O177Q102m1672k6460J9118J6515k225n4963
45564a01280N4110K9997m0680n8365P3220K3908j8208j7883K0395j7433M9875N6973k4802P8782m5346j29265l939
45547f9941N4196p3808k4851K9457P8814L8877p3936n4660k401N4601M656L2176l8354l2656N4792K4866l8810Q3803
45529D6821J4155J6519m9604j259q924q5740J4159P6204k8457J1212k9360j1842q2321M4381K6270N937J5319N3690
45511B7160j7824k2570l9211m1946l0285Q5759N4129m2262J9677J0318K4740J2232L9602k4912m1056q6396m0128
45494a12973L4512L0012M7371j1278j502l0593Q50N9066j3993l802l2661K4445L8469P6530q4223q1005L3399J5650
45476a1726K8228l7206k4048J09453l134K064m9082N6981l8741o6915J7923m6520K9297K3124M0441m2861n1902M35
45458f4189P9959m6832j7488k5443o7046K9137K853K0171M0708M5872q369K8060L955n4709P0501L1300n5350l0506
45440a7416l9766j4391M3119j447K4841n103k6796k192K0214O3322j8976m5972M5341j6824m2748J1898j83j7564
45422d0643J0941R8090n7472n773l6697J4660L0387L585l6094j2338N3661K394j6195k2106J3694L5038l1313n1820
45404d8001J02416Q7821o1512j7705n4250K4444j03422l4156R8222K4248k0922l3543L2958j6959M333l1792L9196
45387h624N131L8197j9170m7677n76j9113K219L0048k810N8760k9877n460o9774K0455J4592N2407J368m5285J8098
45368g091n7178K1899j4346M4254L1491m5581j0974j5781L5375j6696N2717j7370l8473k6341o6379Q5149O7864k2269
45350B70o5100K73P820L5674k9206j2278k106K0745j7599l6264L883L7856L4331L2903J4039m1912N1208j7847R930
45331B6620J284L7038k7469l2521l5830J9469O0161o6495J4847L8701m2234r2159k4729J0334P6129L9744J714k5800
45313b1196k8904J883L6652N26j3844N2686M9737K6821J7191m3773j09158J4424j1382J0477m252K1845j7009o0810
45295g8086K7534k7176P570O235R7471j5674o9232n6135K277Q5962J0917n2953K8501J0913K4161N6246l6433r759
45277A2339k8041k1166p020j8095R6223m967N85l3236l3436J1663M7211J073j8208n0253p6129P0082P2616q5321L105
45258f0975n352l0502N1535k3995q5471Q3566L8186M7605L2567k3401m6044l0314j8804j4052O8154j3603M356j6726
45240d3270K4817Q361J3359J9057k4301J9494K176l2110l6856K8545P0397J2732q5277n30M0100N3987n4976R155
45222B4860j2164j576R907n9813p3478J16067j1210k8382M075q2817Q3989o2877N276J9051l2961O8356L728O1467
45204C1498l5554M0208l0367k4330j7424J13423O8607l3210j06884K7448N7224M915q4030J0144M5178o6464k6438
45187b6056J3595J0493k1492j9248k9336M5551J6865l5221o4030M0475O0529j1875l8596Q5745n6074k1800O0881
45170A0406J0001l4234m7929J7781R1099O8403k6181l6196q1611j2953M8232k4453Q557l3266N0546l7017k2786j5432
45152f7033Q5199J1201P346K1254j2497k9231j4758M8545M2350k9405q5488j7981O5403n2176l4907M3233l5394M412
45134d9927k0084J3822M8417l2560K196K9445J1093l4553l9604N064L7902P4343r401j195r773L1081l4160Q673j6029
45115A4750m2764J8974K0885J5829l6420l3629K3747O8354l2705K2518k7060m3788K1666l1508j6720O8006l3787
45098b3652L5056J7001j08889L5959k4187j1610k6810J2481K6456j8460o773J0284M3342L9894L2885K1851o7410
45081a2582m5638J5375L8942l9209O9051N4620r4120J0188k6735R574N7504m7100K0981L2991M8090n1683k5127j2096
45063C026L915R677J4125o5345l3913L9690J5644l174M8417k3082l713L8273m5520n616N1992m738l8607n2645m067
45044e5661M0378n3615J8701L6123p7957K5708M4652l8026N6745M4413n2230K5585P697Q387l2854P233K9792k5588
45026I483J0565n6028j9661J053k8919m373R1140R681j4718O4857o4004p8038K4055J4288l4904L9845n6308k7954
45008a19940k233N119M0904K7409J6092L398K1306K2998p1362L0308L6993K0547L404J114k5865o6276r87j1446j8658
44989h7175K5000k5824J3473Q1464L6492o3879K5505j0563j8249J6562l133L7556o2891J0654l5315j0262K7246k68
44971d3607K4148q965j5897M1587p9315o360J7418J0406j2617O1204K7641j6710J2993l909K1006q6333O6328J8638
44953B7656o3758K6819k2718j2425K9067L3265p9703J6036M6961N0788q397j0799Q855j2584J144k7324l3952o9757
44935a00826k2709N8442J12391n2829n3854N6307j9092J636k906n594k2793L902N9715j3497p0576J9670M0393j6877
44917b9097p8141N9518M7493k6603k4098k4740O1447p4144J4197R200J6729L5799j3233o9709k932M3119P0929N911
44899B1645q226K3034j1032L0122p7695n70m7197p5979n8173Q2693M8092j4100K4985N578q4637J04782L9479j6185
44881a3384M5623k2300k4730k8800K1961L8604J6067m9875q242j4403M2597O9640l4201j6578l4423l7104L1814o5476
44863h3210k0047j0070O1620K5036M0069R294m847j3619l2711J6675j0255J264m9056R6316j5115l9420K4301j705
44845e480l3492l8201O9911m1693M1662N2037l6758J7563J7091J1742l9116k5813K2657r375j5214l5936J1402j2469
44827d9482k5797K6561L1690n042j2327n240Q089j3477K1748k2030K106L240N4059N9859k952j0031k9229j6400O9976
44808H5321l6934J4908l4228n3059k8301k6872M2929j7580q28k6985N2617L2336N3851J267p4461l2639L8631m5786
44790e5813J8833l3034K9466J3919m9762o323N0337O457J01964K0212o7818o4667l3181p590N193R280l7406J19468
44772A9535N8302n0539l2324j2119K4308M8053L126J3967p0162n4156L5359j0340K9306K7443k0180m3211P927L0824
44754E119J2962j1817r346k1487R3754k8206K9762k9440o304l5403l3146M5032L2179m3451R190o2183Q350K5654
44736a8781K3648N3733n4388o002L940Q137M4702o1616K6052M3314J8065j2913k8144r077o783N191O2577n5748k8695
44717G212k8132J26k5987L1522M2320o126L5498r1710n0095R4348p2436p832J4904O588Q3755L2879l2529k7234j8476
44698a1405J2831K2087K796j93k7148R166N2189j9990p4601j9251p2307r431O9633K9386N8164L9179l6573J0794k347
44679C2979R2032o3600j1797P027n5062l9024M099j4944N9818k8290l9831l1041M3969J8062j6745K0108j2722N0620
44661A5658n5384l195N7337l1981N3367m9314J1873P1938l2189l4911k2435K6762K6577O554N62K9495N665k7060
44643D9319k2249j4677n2594k1660j2157K1096L4216K5033k2201J4654n8751M2837o0876K187L8345j5393K1580J3176
44625a8115k8359M7386J3035P3157P8746j04571N63n6684k064j4128L1935N3012K714j3084j5665p7874l6623J8381
44607d8238Q6489M3069N5703l0891m6102m1070J8466m9597O1160m1314j25375k2135L2661J173K0578P9854k5177
44590c0746l9394N0548L1160J9971j0313m0067N643O0533n5973j7507J0353O0523O993O1288q513J6818n5114j0203
44572E6000m8686O585Q755O8105m7958l3848k9336L478P421L1079K795m8216l1246M7784P7387K5787M3399o5263
44554G4022p1702n9504M1045O2676L8733j3921p4907J598K9185n1693k2304N8174Q232P624J3088L1325L8787j0390
44536A00068J3407j3670m5078k9884m503L253M650j2713N3836l024j08963M0358M0414n639m0840n4923J872L0005
44518c1374P1468l0185n0643P9531L9031l350J1754m0324J0583p9609q1085M2553J02606K7446m4081K2246k5850
44501B0717J4121m1977m3712L7906m032N4390o2581k564N3621L4753J3605M178l5271M851K8800j9651k0297R6166
44483A33023n7987r9813O6762L0831j3922j126r770P3749K61p9089R096P5783K9168m7872p5572n5088N9683n9103
44465b0986l2235P0741N926k4544r028J2828k3399L2009K614K197n176L550k273q2264O0343L8719J5846p4116K0896
44446h352L7936M5457N2545o7465J5402k057j8919j13202m5166N6209K7141k5822n24l7241L0126J8196L5524K1998
44428B1786O4709K413k8055k9074K9479k7530p9497J8301k8139L9877K2394J4382J2611J1421K994m0549k3111N9916
44410D4328j2351r105L3310l9707L77n209K9748l114m1769M0147K2712n770j8935j6227J8330K29N451j5319K5018
44391E2144k8670L4382j2902J3520o390j5084K275k8247M1415J0816K1162l0205m6401J3833M8374J8080M5287q0271
44373E3118r858j4592K4046Q803L1734Q5612p2667N9352p0303j10043P9373j5849p8194R7572Q8005j01657p1841
44356a7389J8573K2173O8419m3251n9777m0653L4058m4751K0621L2132J3221M5747l5151k7591K9367n3911K0799K516
44338a4848k536j3602l6036P3124j5331J345O7867k5076j8138J9460M2255K1980l0259o8081q3364J26880m52k8654
44320A6534J6457Q460k0957K9586k8131N8429q0368R097L3961k8254l542L3819j3990R363l9708l6205L1348N398
44302A297L8942k0485L3177k7141l5412k9405O554l1468J1699P4340O5456k2462k011N965m7019n5152l539M8579
44284A1915j7751j0143m096P1844N6480n9473k4188P2191k7820j06446l1559N276J12643n2772K2892n4708j3272K87
44266d8700N097O8852k8071m469L5905q236k3159Q767Q268m0573N4698K6932m2601k2245m9501J7598J960Q2834J901
44247D5257r33J516n0163K6019j5005L3227L1672k2718k6587j9132Q8924m4939m4945M4051L0202l6016j0476m7098
44229a7144M3960K3873K272J1477o3878k2778P459J0503l1275N4169K1129J6804j7219r213j2638n7740K5414Q8678
44211G3853j215n3404j4082K8435M3140k9779j688j4491j6269J7340K0786o7279l5155O0416k7702k2105M3839L7498
44193D2138q2273L979M630K8013L8134n7305O3213k6464n3919L3537O8875K7281K0237p2202q1735J4203Q9163J9105
44175G8610m8768o638m3074K8435L0087J9558M1891L758Q400r4755J2985N633o6356k3299P2381L8533k2517j5650
44157A9214J5538k4862M7761J1255K9022r6267j2105K7139p28m2083O2731n545n4177l7921L9575Q2815j8372m8450
44139e460n704O6320M2556o5423j3716j951k0311J2987R603L1070j5008j3779j4380j3157J8963K3250k0918m7548
44121c2606N4983n992j1916O0127L8926k1420l8212j5228l3342q3953O4715J03485j4509M0260m9292m4692N0014
44104F1348m7604N3553l3972k9893L769L9471p3698j6533j222K9469K4289N8773o5374N9454K6688L0668l5409k7733
44086E6044N941k3546j9937J0743j0640L1045j0704l5579M727Q914k6852l837L1236k6962L3720m4993j1145R3458
44068F1633k4544m4638j265N610J01638m132l0552m8102m7192M5557J0526l151L5542l5302m2645O1536l1080j3383
44050c944k8136m5780Q9404J8228j9541k4809M755M1084N0238j4886q972m3009K5767Q087q992k332J1775M209J0728
44031F3874k3322J3915J8794n9821o4912J9590N9558N0185m6208k4370o410r941m3255K6550k1576N4752N6928J1542
44013G5873j03091J8912j4163L40K9799K881K2787Q9966q9981K2043L7952n2155l311O2945m7052l7971p767N1058
43995E9065k2804O615n8037L9751k7953R649o4882P4659N0659K1281p886k5093l4355M8218l442O520J6863K159P204
43976I8191k2060k3344R594P4007n6076q7991J902L810P90k2818J5503J0659m7J8419r967j21l4426k047N6918j133
43956B9763J6170l267m7726L1637o0619o292K2843M1710N584j3702N1379L6587L4382o8812K5836m2231j2133M5332
43938H6441n0571K4633l7071L584j0124M3512j2127j1739L9215k2784p9355j5886j1028J0230P3595N7728l3420j4158
43920D0675M364k357n886N4207M3389r0944r168K1937j0376j10208J9098P3607M3361j5208K3918L262p2454L9000
43902E0217M0312n5546M353K6036J162p545j2J7742k6148L2393q812p5254L7401n181J0895L3280R8441r7394M1368
43883A17708J702K3001o3373m9483j3909k5863L2690N413l958k6501K6839M3395K1110j3488k5523K4223k1863L4181
43865H6301P2256p9895j9258j5803p92L934K3822K2222k1160N4153K8684m6413k0365k0864J9742j3073j3362M0360
43847A00489Q33J7519q922j1594l1980N6518O6384p7893k0835j9198k554l2399N4906j5703J133j2594q099K6083
43829H2094m8688m0882K5699l8447Q3448j2357n5116N0222q581L3933j6148o5426J5938N6335M6353o7525K5680J8639
43811H5171L3445J3702l2724P795k240j47j3374m4786j2124l2728p107L0980M3285k6888j7931p3191J01434j1552
43793D1020J598K0205j4800k9255J8491K6486L5096j0991n3730N3747M523j3138r559k7735q18O2112P2318l4402
43775A41168p5901r3486P6618j5165m3P091O755O3503J3106k8000L9034k7759j06897L6228J5576m0658K2083M4613
43757G7866j6140k1419l8711P0911m5697j6828L3340K2500N861k5173m3927O0450j7434q0460L9594K2151O3509l2855
43739E7538N8485J8871k381m1931n4388Q727M8571m0130j2683n843J6353L6600l5525o2913R994L9198K7634P495
43721G3672j9321J8168L7704P573l5932m8840N5704K9997j16924N0632L186j3051N9582k4290M4788Q3680M9942q793
43703B47477k0562j9466R446M2522J9081K7817Q22j36374p4249J8691k7190L1657j1827L3432L9029r451L6590j771
43685B05674K7159m4558M9491m1033J04396m8303j3381L3101j7609K7098j0546M8789m372M0515j0200L0072K0268
43668C96561O4640L6879o0683q1677m3420n3949m9871p4617m8228r784O039J0492o2738R3000N6523j6356o6130L0707
43650A27388K1593J1686l4299m3596J09628o6319j3913M2747q729L826N9347O8368p2871K1601N7994P468j06790
43633A85129n5583K539Q677N2649m1560j5353j4363L659N299J8853m6382j6235j033j9758k5119k1081L4306R3060
43615A47704l9091n163N6241l3833K801j5328L5960k2824j7751k6148j5281k7626L5719K3433j3256j2030J5365K392
43597I1284o1202J4202N89J5007k7903L9318N7288o0404o7238m734L9027N2996o4887M4280N224L5867M4652q0703
43579G2663l0935J12319O1256q5340l6802K4877m5792j5428O336j2523l8057K0449L6946J7270O59m5001R724l6901
43561A5720K6037o0011N0537L5415l8j5693L264J6169k8377P5260n0998k0983J7688J1226k1639m095L3348p67k9092
43542E2971m781n1575N7563J0737J6792K3637m1651j9902N5191k8454k6460l752O4153K6852l2656P55Q4184j9132
43524A64472m904p8321L8181l0470M7904j8095k6138K1952J5362o0141K4201n6384M3182N424J6002j8564l7252n698
43506D0713M6674m6290l1437J3659L1431m3854q3637l6097M8428J29787O3894M25m482j4907K7821L9413m128n9097
43488A18316l4675p528r0378N6106R8164k3316M0738l4601m0681n1929j7059k2566Q1653L1249N4608l041p1654J1821
43470I5227J8438R255l5463k2154J5367l055o560J1287O16O0340P7594j03253J6124m0030O7465K039p2730n6815m031
43451B9661Q2453l6036j2614k6253Q1156L1827j3363o1452j2002N0645l0074p3486N9392P0361p8972K2217K6357L492
43433A13309L7544k7051r1009j3571L5339k4736K4361N612J5443q950k1471J1509K3244M4554l1779l0740J5859O139
43415H3606m3102L8281J1407K180n0349n5918J7667m1469K9330K884L9831L5501m82q084k1866M6183P6751k2342
43397A40009L6388p3756k929n5079L4346O7381J5064o5816j02643J4867P2240r93J4029R357l8567M3372o2058n5432
43379a0220m3791J2627L3684K3230N1831J3229L6770l715J2491k0274Q80m3527O6631K6084n1571l7678J8415K8749
43361A13845J2221j5048k9844k7028P440K1012l4078J1094J2818k9306n3156K4781P5113k7779K1345m8343q328o554
43343B0205M5165J148M625m0952n9799P7567k3921m7447j962K119R9898J2562L7531n433N328l1006k8201m0916k1003
43324E508m039r200N7620p810L8789L817o943k0546L5834k7982L9120J3661j6606j1744K4061J1926j3161J4670j6284
43305A10691j30128M1205r51M0951L320n7075N3743O126N402j2199l6299j6692N3794j5255P076M323O1627J3271
43287A32930r9404K141m75N5951L3435K3667m2286m2264J795p095J951j7340j2197M2504l693N1474m5856p9934k3559
43268b8255L3279M8685n2320L3953L2363O595N0230l6281R479j969q1594M210Q5636N2088J6211o6174m6810l4053
43250B5273K3010m4896N001M1784n5588k0225p593P6869P0804k0902o4568J8627m5205J8322j4694N5138K2468j75
43232H3450l4598Q230k4706J4659M6773k2948J0186n8515N7979N119j7974n6442k4995k801M1120P2151P7206p1566
43214A02328j08441J8439K8906K2554N5037n0232q816K9977J8749J174j0793K157l4648Q883L886L9919p8087O7804
43196A08796l558m8784k8217Q2045r6459p2832M4718P7579K0884K3870J5034o6465K6321N8343k802j3222L9873r0579
43178G4545j2793Q0292k5162k3343N0231p0565j9970K3708r330m0418r760o717K4010j4937M307K2307R1159j7769
43160A19795r8515q185Q4644K507P207J5275j9999j8116L1787j5955J858n7810l9684O3462L1166J5414k2017J9638
43142A12472o6182j4003J0699L5007q194Q4895L120k8059q7667M8421J7599m4240M3788p7546m0669p610K5288j3717
43124f598M9572l4071O1223L2082J7681j6888J2216j4976k1548p070J0812j4310J3599o5428K6409m396j5502P249
43106C0056L0879O7363k944l1082m9978Q93K2649n010k478m795P4932M5934m5596j6235r2145k5301O0142j2074l302
43087D1908J8352J8004N075r9205J4243O5469O1575o0069L6657M7230m483j2243k5099r9709l4529K7524L3721P5506
43069A09927n8258m8120n3240K7168N1634K5095J4674l0014N6328M6923L5008q1987m5654q676J7213L7233k4601
43052G0653M1609l7649m6991O20N4859O666r956N356o8874R3506K4139j4174l4582k5083M8205N744L4782o0013j162
43033H7655m2367m8142k321P7451Q385J5891Q069M8680k5300m0583k6042M8937l5109k0860p2709L1652Q1899K293
43015I7479j2035J6368L9558M3719q0034J2047J5583l6595L170n1269j7751o577J0490p205n620K7850P3101L7934
42997A60213o2283p0716J2K1897M357L370l9438q426P196l5358j5780K3892N0169M1841o3202L6263N3743n3078R780
42978F4452P9288L0327p4925k5876k2761K6432n4174o7738J0801J05537n041O2054L9005l0946m9844M2892k5523
42961A03960K7708q2413J3878N292K289q64J9216J63l6384O8924k109J7652o7280K887K3702k7748N1143K7278m6413
42942A00881o5945K7686R9942q3911O3127l907n7157k3499m0766j8313N9434J8821P9079M8749j7810l2582m3330
42925A10499k8926K8734N7426p0944q3418J1979M0411P2051k6383n9548K8934J9953K1603j10880Q7974N1547K9790
42908A80802m2213j7170n7805j3995j600M6225P8296p8176l6800j1401o688N2308J9046L6279o2732M0235K595m8932
42890G8274l9493J2289o0395L3635O8861o5082n6750O4397k743M5986J390q4157m0728P5787P1304p8766K3685P4422
42872A21916m7134k3075L288m909m3310r687L8121k3872j9942M1839L6445j821o5814O8444q470q457J9254P579k825
42853G7570M4130P417j10049j1029m6698M9717J2612l889J3315O6543n4281p1036K3872K7269O2671P9826m1614p0
42835A26276j4992r097P900k0842N0413k9628q0921j3611k5075Q7241L0290j209n412M286k9699p187K2971j4077
42817G7627L8725M1949l0451j3004o7839j1180O3645j9601m273k7195p370l2643N7050j9073m7415q9712K4131R3668
42799B7039N749R238L8542J2962N4141l3118j15200N960O6038J0278o4550J0792L0080R275J9397p802j987l516J1517
42780H4835L4407m0750m0594L2374P2610m931k1627k3108N010j211K0773L5827m5892J3410j5214P7663j1140j00219
42762G2223J3424K6581N0979l2349j1956J2482o1259o0389J9024J9421R392L5741J7167K9048p4809o9344R714K5790
42744C0880j6307m371r711L6657N2342l339R846k0688L6516j8779K1636k235j2161j6774j3704l5613M9296k765j0379
42725G0347K5999o2379m3313P0396J348M9847J1858o0800k8278O893M0228O9968o37o4990n4990O6843L7265k6418
42707A09187j8808p491M0258m3343j4598o7584P187N5018m803k5446P8945M8166p7281l0793K8309m7749l5255K1031
42689A4950L8254k0357L0088m3683L2220O858k8580L1987k906l6830p6518M9539M7969K8924L4035k8620k6101J3976
42671F5205p411M0077k0525k3799O8452O8381j04184p773k3102J3673J4041j7117J7174P275L7212p9520l1603M3536
42653E9992N535k322j6225k3257p312j7561P0499M5458j0342n5085n1004N8091L9098N142l8404K3849k0521r7503
42635c1872M875P3654O4115q0830l5420M6900M0892k0220l8104L1563M5210Q180m7266o8018M0560M0210M2170p3982
42617D2617K9503j8620l8664J8880j1866n2910R7217L8672L8261l6514r6172L1512q234l5436J8324O5984l0405J9211
42599G1360P084l1449l993J648l165K6522M256j8736L385l249O7972k3358m5183q2750O6224N5388L0716O916l2504
42580I7084j10J6864K0410m4040j2671l6479J5604j183j3774j759p1122J9917O672J3452J3706l3070L890P2911M4729
42561A11031J7212m4009L0804j5554O045j1803j3490m9921M9213m272K6434N6511m1323O9193n1088k1808P1418o2788
42543A21805o416L593j1897k0089K3670J9840l4896o422l9688m7790K7969M9613J9893l3081m8812q025P2775j1996
42525G0046o4754N2396K1069l0917L2985j4622m9919q175M4590N0653l1077K6566n7235r553M9253j6384n0113j8430
42507c621L4795M5304r889l7564j9558L0401L5328L8598k2406Q305l3891O4369m4316q710m11k7430n6513n7776P5735
42488A0750P1632K6262l951n3787j8547O2125p0478J9660J0135O185L4670M8045k5202q7016p9957P4078O3484j2475
42470G5613N708K736j2448O0725M2364k1944j09344p971j1929N3929p1644l1126L927N0667K5431J2896q389j0379
42452D8822k1475p857J6353K7506k9961J4539k2906k5333j894M7590P2031j3753l8059k8110k3604O5701O3605k2409
42434A20786l7432n3227K062m3510r258L917M5813Q003k109K4734K3377n93J3708p1107L3182J7435K1182l9377k6591
42415C0995l4746k1580Q659P9129Q2750m6141n455P2892l8413L0276m4666M381p7039j5731k0318J8603n1728K3636
42397d496O4610J03333N9716r280r7595q1450M4023L6628n1662n2546n8135P7595q707M8745K4866m4399M398N5070
42379A10714l5314j9160p387N4408j9461q2849N7856O7732r6308M2829N0187J3845l8902m2568J2906K323l1583o249
42361C3019J3510K04M6052r714q2352l7470k0658P6498j8777o287N937M0215L2888J4534M7586m897k0395M6071J7358
42342A73322L049j16861k2374l722K4191m3172J2607J24863K0742k9400k6280k9536j1677N2233l2498M053l5677
42325F3863M2911O9542k9732K9584p1102j6098j0363m1914Q9586r787m0477N413R8594p5489m1442J4243j1742j1309
42307E4281N0140l5697J9168K9685r4378l1814N2007k121N5790j8932k7830k9466k1512P4269k1481P5003K1072j6840
42289A31344j3401n1045J2116K9082m4613M651R0230r505n6978o2035m6036M6569L4058K3129R480o3089p715L1407
42271E7649R6652o1826o0572J7497j5518l1049J0013J03216J6105q5992r551j7265l6129J5477Q1220l46N1022K8186
42253A58789J02393q4701m7225j6132K0901Q629k4303r4147M5524r261j4249J3683k5872o2857R0903K2369j2572
42236G1872j3843J0736j7095M308P994L054k2240O9877N460m7513j076K5745N611l518O1063L0825j2582o9248K2846
42217A32276j1312M4510j7897j01019M4933l6452K7630r439j94L3341K4970M8651j5618K955o1787l8568J635J3395
42199H2010j1324O8543L6917j858m8797p3675l7395N5609L8656K5011q9972o8164N0214K7545j1071J297j5803O284
42181C4027m5690P5722N3525j9665n8059j0735P4681K6580o3318J3106P5416k846l3484j9562L2491k9913k5003P3867
42163A51140K5321o8214n2753k3545O3038M246O5781K1187k1739o422m3653j8429j2754k994p68n7840J0425O2951
42145I4978M0226o8309n9558R3956P6757j4163p2576L5398j6136m9898j6205K58K0647L7260J6363o4711J8619j9569
42127E3337l460K5664k6186j8960N2979k9389P2088j2831l1067P6317l3808q0664l715J3279L9709n7598k9411J4650
42109B0934N7334L66L2167k718J9064l7541J5566P374L8085q360p5614N167N8294r413k4848j0800k2039K9860M3070
42090A35948K9410l8210K8479P759j04099K7776J8830j8526L4125L3479k9939j4335j08044L4683K1003P8644K7171
42073A64154K0184n3742k7932P16n5916m7529M7234M8168N1156q3759m1916M4222K2779N8580n1318m7723j6817j0626
42055A9915o8503N1126O4145L0066L510Q502K2589o558K2753M740k9462K5448N9672K0182n6294j29613K1653J3969
42037G7840O773k859j0842l0212J4738n3251K2360M0923O5898K7237o4830J5741L0295j6435L317J09914J04725J5057
42019C56389m7607o4026Q4976J01370K1624n9272j2948p7303p165r3489p2081j8067k9515k7005M9386L7466j9541
42002A23192P526j2581j1633M3381N111k4898l7435L0343k1898j1172L5279M9361J1951j5806j9267J6151q7602N094
41984H5097L8494l8212L0866M7279j4960n9484l2380J33346j2830j02864j2063L0151K7683m8961N4058J3782n475
41967A33527j8865M441P352P5645m5285o3287L5089m5894J1394K113j2606k336j3944m093K8956L327k5955K1798
41949I1377K7949n2843j1812L2680l4159R0968L5372r4576l5968L4445N3276l7801k309O433l8299L5865L7287m684
41931A33201K1340j4529J0754j7170j4005l3623O6541k1074N796J5892m4583O0970O547K5958j7026M9439l715R1232
41913C21945J00053O1729O8440J43818N8262j3146l0852j60270p8683j40133j36805J3868L4617O1724j00693k7476
41897A76398N6794K1099j9693J3880r1231o1680Q431L3361L5516q2104k2157K3554L8567K5288J219K5624j6390m0423
41879A26053K3464Q438j0315j7272l2666l6764Q0212j8838o7997J0420O0022J5326K8807K6631L0368p7841k6004
41862A22044N2942J8627L36N0882o8327J464K0214l6388O0762K0700p1129m394N7508m2943R571j6197q533L1332
41844A98471k6888L1539n0787m6233M4295K771J2766O9904k6306k3762M414O0363l0728L5929J00642o0986m9636
41827B45768N1739J0160k1066O1086m1097j9967o311p534K0051n2864j8194n461l3652R54J5955K8287P5351k965j877
41808B98363k7338J3471p965k1206l3412L9930J5243k8065L3051j8504K4201p088l4381N1598O9577Q1432r2945L9671
41790C95633O0307n366K6351j1966m940k5879r636n4953L2236J22040l777l4320J4164P3626k7175n60L4687K2532
41772F03004l7249K2582j4752k230O7674q141l0031Q2211L3578P0224M3040J8341l041K159M2641O0119O8359L4260
41754A052748M4883K9108l500R8291N3086L6868n799J06253J53306Q3485R3128M7440J13623J21156K31079J68387
41738B423542K61285K73172K28716M08903N49499Q52726J155560J719888K368974L377749M275060N538063P582920
41725C1016057R148095J0462696J1065044O983478m058179j4070221j2959040r596454o917806m757416l321045
41714A2995209k270822j743091j356009j047068p68964m47720j70561j24156j05950k56828o40164o51161n05457
41701B907258l95929k72844k78677j77379m2752j31505k24822j30033j34941j79207k0286q1555o6426m8019k2389
41686G00494j28019k2482j8935m7349p0726K5921M4919k571l8122m3381k0714n3857j1241L1650p3783n096P884j0030
41668B64562J3295K7996l4239K9013k4699L5543p6042M0292j758k3169m6133K7314k329M813l8845L3594L7708J8943
41650B85859P2526k310N4668P0845p9114k5126l0404k2209o251J9001m9499M6251J3468m5777k5298J4270l1149M9674
41632C09425J38650P0341K561R3181l236q2392p7519j1207j22215q2244l0680O8471N6445q8259P171L0816k887k8900
41614B47522N800k3634J88J2224K6662o7234K2680K2310M519J2803l5824j2075M338N571L8877K8345L2251j01119
41596B24204n9566n485J5308l7231j5453O0144M0336K7012L0973K2358L9336L2561K7335M795m4607m216j6394L0483
41578C71893k7016j2448j2616j3570K8236k5037J161j440K0475L4826K344P2105N161k2939O3150k2851q453M301
41560D57282j0493K991L5491J7043K6680q0113q921L3009l5500R0734N7008R7201J5780R8761J88489J03755K04580
41543A293777K92299L35661M98213L79500K89685p6040m69843n10304k94312k78666k44627j11083n7817K9482n8604
41528A017321k5582L0316O9322J10695J82265L13767M43728N59605P83730J168938J312476J506078J391740N68081
41514I432480j355793j974056j513591j080183p08532n29671l88536l32158k56006j88889m1452j56685j03524j892
41500H01512m2168o0200m6553j4822l6610q1752L1905L6210P663n734o810P1621o877j6243r1000p2657n1046q830
41482D07609L7142O6206k8296o2422M64n2127J0185L0497R3082l3807k0760M5501L6648l6578L6064J1479j57077
41465C83810J7833J0543k2132K4617l3065R261N6138N7243J0042o8448L2468m8439o1969M508J2045p74N3491k0260
41447D16912J9630j6905M6268M5025M5352P6875O4881P1467P1849L2828K92N7486j7322k6293k6008n2136m7364k7686
41429G35151k462k8503q9856o472J08286J1706j7650L8796n1988J6630J0557J2618o792J0073O4494K261o2419J4416
41411G58846j0467o933Q9099J1178L9748M8878P8007P1129K3097K0991J85294J16924J6811L0447J01651j5168Q861
41394A568393o237j05424M9922m872M6054j9568p627J6632M2006L8847M5472J0494J09930J28143M6057J85284J72279
41377B315785K48238J62968K09339L07898K81198K96807K11004q3009j62789K0013P1912J68902L25007M77772O62996
41362E514041Q50878J342646J674422K126160K643697L215096L176316L202317K965063J220400k315092m604586
41350B1011358m082372k942225j876823j096623l37732L22220P33245J230672J971424K858053M069374N718669
41338B7579240P651850Q768400J0010804Q872997K691585q771793j3195149j0661578p816417n643592l907705
41327A5578642k758185k005425j563518j185185r24894o43029m75661l68409l20310k86658k20152k41464j43096
41314D442656j58119j48368q3525j38974m7411O4535P6863J24108L8016K6409J01091J32942L2095Q1550J09524
41299D653392J33291J53697J25559J77178K57621R2099P917l8106p0338N6796J62082K64075J88597K03658K68222
41284F635740L57151L84297M11462M74229O19957M00999K62493m3572R0173K07382K50667K50048L21801M46932
41270A1069759O97967P32887N94883O35424P49973R53383J247895J349995J399368J380600J569410K456969L402538
41257B8241051M551321O337095R033947J2754762J8273213K5043245L2653871M2243177N6415713O8296969P7372913
41246C81217277Q2555365N7702262j4994649r6316447j00902252p7320227n6472064m0036521k7678984j9847609
41236H7906151j5029525j1945457r536456p610243n579912m019343l112344k827846k396493j762212q20394R5357
41224B3361283J111119K075755L654062N078944O098280P198122N778270l20891r670156j0317483p551067n419669
41212B1076569l792560k618199k008123j378150r88020o62756l32434M0110M99732J103301J684412K437381L341659
41199A8402922M736557N770426O680152P301006N058281j983713r394403r096288o858042m951857l563798k385889
41187I715354j744982j276869j009757q33670o62373m66151l84575l04909k93214k68051l20496j88827j55048q8701
41173A717731m8654j36855o7190j8750P184N1463L6147j6623K6567k7002m8167j27045o4562j1838n5217o4464p4539
41156A078186o1730L6407J02756Q3879P8189r1210j90898k28241j90409k72560j94887j20783J44790N6984l7175
41141A93298k4157K5961M9099L1251p9814N9716P039P394Q7929N2l986m172j0124L8763m6111N4557o955J0005j6034
41122C73711O216M9893J22678J63368J10131K10694K25127K49556J97963j33098l66398l08390j27100j24132n8990
41107E91229l1051l6060M336j15251l0316p6385k7310J7807n1142k8208P6270k4110k6059r7099j796j1822j04946
41090B8087l6614N8961N5763n206K9645L9193J105R8215L8385k3370o0499k3081K2951p06k0050J2987p209M0734
41072B49291j9894P499P6990M4811j9029k9745l5254q1190R749K6220K2107R419n0108l694N1419N7033o6154j5470
41054B34000K9211P1990M4317m4863P3820N0152N7942K032n4302j18303q2673j691J4560m0921J4914J3519N2831
41037C16535r8891q5646j0237L7513m6979j48M2200M175l5581l2014N7371N3692r9288j9410p9393k3829l2148O4937
41019A2859L3721l5743l8753R241r498K7246Q4517l0416n437N9021Q0226p9687l7025m506M9139M0741l5597j4538
41001A05511k3821L9028l9458K653M0016j7548m0979J5349m2189p5003J0436N5243M877R407O438r718P7926j4870
40983A03298j9071k0365J013q370K5457M1257q1153n815R4067O5803J27502J09081N6979O2192K1495q1207M1274
40966E33437J09152K47069K22632K48627L32228L67394M03681L35517J473m34198n01887n02842l15440l08163j82524
40951E56156p6689J4620o867j41261o9458p6902l860k5859j9735M4953j9055j1308n1415N167Q759J5580P1506p034
40933B07298L7685M0352K278K1062K2549n4849l9803n1420r4443K034k8211m2344R887J3306m8124k9766K1096M475
40915f938L2967K0211L6920N1182O313N7706L6231L2602m3179k9797q1308q2273K552M4702J576p2235l2917L9661
40897A3976K6207j02368l754p622m418J10122L3082k2313K8195l619p685m600m5047o187n342l0950L5469Q398j1910
40878c66o3716J0061R1991j094p9517l9692N4085M4157m9864k1778K9807Q9375N2176n6278n3062k3168j5024n462
40860c7369Q538J5347j7963K3839N7274K5170r7308L7104Q2319l4160l6435l0761L7461l7531l5231M0490m3268l5898
40842g8382k9410N4014l4597O0752k1586L648J1926L6711J4084L382k0782N9314j1297o6713J1982o5054K3009M4632
40824d367Q214N4863l4348r371J5040j5866q9537j920Q298J1853M9394p6584l5375l769K8174L0446L3911K5127k762
40805h579p3077M2568J07621K7824k545q0893q298l825N2146j6883k1121k2249j3140r076j1095M1178P563m890K3124
40786B6353j7597m9420K4084M347p0648J1214J7647L759K7910K0712L3513o0940q045J9797K830J4171k2273J0073
40768a2513L2340J3432l8171n9085J5950M7731K3672J3997l1901K3649J6857m7603K2041k4287J687J3336k4772K8870
40750A5230k9808M5220k9675m2140N0973j9562j5625J6803R741J2049k1880O82O7113O639k1369K5382j01209q30
40732c2266K3347l9478n6198N8918L5805j3172L2800l5489k4573j6363O9001j59m3809O9651o616k5254J7381P177
40714B0703N1449l859L3603l4900j2842j28694l1589O0174O8014l3372K7890L5873m9190j8790P521J9358J2853j416
40696B2786Q610j8548M2991l5041M315M7513o6037K0604M3315k8843j7977L2750n853P496k2736o4794M6895L7808
40678E5254J8627n0231l1022o613k745M5954Q40m7559m0057o994L4509k3573J728J0223J5533j8733j2463M8319M444
40659d559N8294L6338o1087k6592N3692N0402r1198o7685P7840j7136l7850n1024K0411J02360k8839M2961K6431
40642H2759n4864q995k8015N0760j9259j7277N9394l0711r1440K1873j4199P1608l681l9627R398k0003O2734M222
40624C4677o4901l4504o1904N4441P3536J3056n4088j1124P6989J9610q0210m2376j1993N7489O18m1706K7143k1433
40606f6680N2433m0476K8697j0553L7128N6498P345k5922p7854P199N2595P888J5956O0687m7029p7170L5258K5855
40588D1855q828J6932M0367o8683o7754l9922M8939O9935N537p8732M2571J2547j66p1718N2235j0461q0934J2863
40570h3417O869P0323N7727K2258o0443J2385k0657L6249L4539o3885P4669p8209r892P1988N8109Q2242j32799o8891
40552I165M7076j7368l5364L2723k6815o1690O3595K7347J5370L4816k5956q3758j9346o901J0151O5796L6375n4250
40534A0966l7692l4712N839j9174j8445J01013k0439j6589N0056k2043k9518L500l6894j0757L5009k0026Q4900K6723
40516E1717J3214l9745l5039K3789M7332J6472o5880o738p0752J2989p364M3557K8182J8798J6127J8049N3522q1348
40498C6882M116q6596k0956N2863L6705j9065k2143N296m3648J2916r781K8462q175l0036M738N6098l0027k0778
40480e3129N7251P7811j7040j14489N2425k5549M3483j4486N4397m0011l6040J3089j5570M7526j7908l9550L3713
40463E923K7456j0829M370j654J9818n1620O872K0732l1752L332M1407K3896J4463m8549m9183M227N2690J7950J3678
40444F3227j1934p07L035r2071M1336N4750m7450k9310j0389J6596k1416M3080o5824N2615Q834O70n6883J961J339
40425d8541R724M494p1670L8621R0227o0223j6757K2554O031k05k1448L7870N9015J94P315N436K9027M0857j41262
40406h741K8678M8566k2612m2931l2769Q3531K4150k9525j8598p4288M2689M6123M1584L1337p5871l7038k2665L166
40388a5214r076J3554J2110L9592k071j6403o9905Q9779m7336L6997K0778L8971k1524r8944M5877r897j387J5303
40370B1204L9116J962q4615m8508Q5261N2784j01651j8470m628Q44M6585P954K912L431m1341J6063j6517n8768M1406
40351e4976J0504J3326k9082M603n3083m2680Q2435K3807J8947n9241J8119M2566N9546j8352M3381M514l6384j8561
40333I389n7408k6963J2959O0064J1122K9594j1645m899k6891K2449k1355j6376j0461K9846l4138J372k5980M1712
40315a7609j5986L1613k3269m9703L0496M9766J4765n5360M6525j0986l1159k9015K8106N2974J5892l0528j630P234
40297A2126M6788q9828O6614m0767m4771M4659L3749N5204n1702l4690q8103Q8668Q427j9624R31k6462P0160n2194
40279b0815j5053J8644Q2343j3208n5513j8477J03618K7533l3059p2747K9328P2649p6130o7285n348k0751N0601
40262a3670K6849o4477O5242N8451K4209k1167k4767J0860l9053j5832L3562q2051p2569K8917n5363j9166R8828
40245f1197L2906Q050l0061J1026m4175O2422j2026K373L7515K4910k2104N3752r238n9917J5961j6255j1561k2130
40227c9749J9020Q2370n2226l1875O1971o3167O182n2249P1784n153m0729J2780Q7731k7741j4396n9437J2479K9011
40209c394q721l1193q080J9694N0873l8634n4619L8003m849L77m5195J5837M1354l685k8559o9268Q4072N700j6885
40190e7172M952r766K0639k2886l0195q0448O2613N7629M6139M4161k7079q324K9532n0405J4864J5356n578J1869
40172A5901J1511J9366M7408q9066l6097m2120O5050l0417k796N0617j3000m0751o4532K0670R426M3728K4411n554
40154a6245r715p052n7711O3485M6454N5651m3624n5580P882O4497j0624J357L4522j6328N669j00407J7669Q2014
40136F1914o1336l855P657j9546K5741K4615K2191n5933l9916O2318Q827o1059m5496m1389R5361M8552M159l8377
40118e572L7509L9337n7520j2384K2122K4373m4385J9486P729j6963k6217k7911K9805O4577k3464k0972j9823K7681
40100A7408j3140P8119j0707q7211m0237M9710l38m066l3835N8957J9870n8462n110M7966J2216k967J0926p2802
40082c3703J9392j0115N3191K8572n2144p8913k5210J7090O1117J6354m2880K2120m8228m4638Q3541M430K1589M0805
40064C2370k1515n7646k2845N3695Q9908N8522l4229r6095j2307n651K5123k050k0218l4144k3983O0148J3975L0521
40046C3579o3896q399O9942k6781K663L1056j726m4709L3799K3768l9861m5659k7443m477N6225N821n516j2644l4627
40027e8885k1333M4592J02315k487J848k2619l6877L9200k8405n9522k0860P467J3064l9292J9735k6732J0488L6628
40009d1675N590N3265l3019m8760K3930m5653k9512K2656J11618L8940p9540l7827n1384R829N4201O6482N7544j2102
39991F4583l9961o2551l4893J0785l144J4019m527N656l5384N8082l4115l1712N0125M0192m2827J05531n7207n0748
39973d8096J9772R625J7056k5448l4962O3610l6853p5640N3596J3866P827k3515L9526n6252M346Q4058k7196j7364
39955c2044l3409l8558K9996O0993N1163m3868K7133N0499l6024L4785j4386q3143q9404P796R8789J7395O705k0099
39937e681j7886L6626L7651j6638k0980l046m3148J574M1073p0972J2700K8234o0706R4400L4293n865o5012n205
39919b8588k8257K3966N0071q2067R9894k889l6280K4445m9334K4822K5024N2899k1953j6423N6002M1647j1423
39902A21556j00440K9129k2359m1500j9288L4832q0908l3540O6069m0260O804K2571J6533J073K1405r904J9767K741
39884e719k3642L273J5765o0828K0821R8757K4525m0715j8396l7339m0748N4827O678n6861j6645O4966K2125k1391
39866a0547J837j4073k3887P7144j2450M2603j103k3459q284K2484n4776J7240m9714q4108L4314N4911O4151l4306
39848b023n231m0988O2731j4274l3678J4311L2717M1797p5956m5474M6318L7260O7160q077n8522q6487K3867l6026
39830h0575k6407R4491L1758p006j197n684p5842R5372M0972m3897l1513L476k668j5398k9250J355M2211J2537j9409
39811a6674J0161o0538k2644O7096j4185n608o5985L6812P0272k5065k9047M3163J4392n1151j4944P9633n2025p720
39793d4057l1294J2422L2316L6207m6385m7942L6228P043M0211l3858J2054O9386m4870O933Q179j4271p233N3411
39775D4480K8454l6077n784j3072l3489l6227O5501O2238m610k1736q8808q22j3016N82k401J13733O594r7841L6973
39756D672N2403p613m9534j5357L0982o9182O2182Q5715l8116M1471l4628J2643r7951k1868l7813J4878L7418m4715
39738g4413K0482N9583J0500j6030j166j251m2272J4525K607M2165j0880M7332K948l2311J974j35238M7172L4562
39720b9711L1399l5649o4779N4287O8604l991r4626O9080K9367j8532m6509k2570L4773r927J6558N0547J7013K187
39702D7521L3830p4482J4807J1453K838J3389R542q3279O4223J7540m8063k1831J0808O7094n1054k3366k6842m7587
39684h3459J06466J6706o2846L5899j9375R623k3848m1330M796M4078J7354j1152p047m1759L269K0905K4125K91O834
39665d70j3981m5253l7206K6570J1697K7296l9998Q9225j0298J8665j7226j6873M0613K7710j4677k628M982O9186
39647A17334j6598k378k6102p3279J1102L6174Q11J943J0125j4307R626J0253r591L9510L0341n7680l8954j5185
39629A3145k4029j374K3213O419O5717n4838j1426L0243r262o7179K3902j9816j0002N9849o2380J3744O6069l8442
39611C553k7647L4127J1967l1308R656j5997j8797O2548k4900o6733o829j9393Q962J8802N3234k4803M8319m093n137
39592E531l3474O0202j1541N869j6132l2400n5168J0089L2523n625N8544j4219k833l3806J8574n8993k487L6258q724
39573d7812m7240m1603M2381q235j1522O5843K6111M3045L7628l8856k0474k5829M9969M7763n3031k9368l6949N30
39555d7649L1571p394k4741J5513Q937L132N2357m8979J931L5172M087m658n2486M9852o2470j7764M2130M31J8831
39536b197P67N3732k5334m1871j8957m0006k1102M4582n320L0441M3324k4568q634k6248j0957k4757J9338M4697q109
39517b1179Q4497K3303p8674q5354l369L5828Q393k9560R813k7622J2406o304K4169K5134j9910k7744P5320m7519
39499d8372P3183j3786j6211K4011N120m0206K6450k9444j4196R6783n6994l5277N6855n0750M2534p6201Q5455J4375
39481D3329n2976R962J5406K8637l0027J567j9913k4100N3312Q3302l0761J9717m6247L220l847m7540J1861o212
39463H690J2226m3783j4125j0516N6435j9083K2315M9173j4805o0526o9258m8311Q8336P6052O589J3904j3704k0413
39445A9196o210k8353j09555l0853R5326k1242Q8255L436l4490o5161K2177k9933J2337j9012J7416M8768L1924n0118
39427e6092m6398K0535M6374k0205l6818L0297L8035r090J5057O1059j03657n4840M6660J5696K8045k6029N5699
39410D328J2380j5750L707K6792J5576m5590p5650J9734K6216K8118M9824j9869J6671N6344k8814j00604p848l2628
39392f7063Q367j7217K1895O2551m7643K1523l6284K4088k4599L8836N6359J3556k7954l410n4855l758L247K6879
39374e482R9078L3746n4579m999k8279o7342L6969j3089J1689M8358l2475j008N2592M6783q6090M81j5953m5096Q049
39355a6647l7418R431O3925p352L5263k7150K0819L5440l2014p8108j919k5962M5739L8014O3205p8882m9206K4591
39337a8231K3687l7237J3761k2936L0622J1593k9877l8079L4253K7925j9252l51o0914K6509j0186L79J7554O602
39319d4178L0551p0186L7465J9478M5012K5986M4804l0052m7290j1593K8567j6730j537j3717L8153M9401J2394n9512
39301C7016l1163n7850k2528R706J6398O7089n4868o9458L5755P831j2511M4145m0784m2277M573n919N1506n081
39283f8420L5562M7108k7549m170K6258k5085o6023L5640L8044P6637M1828o357q209M0120p5152j08245m682N233
39265d7462P9930k8200Q906L6466q9792K2708J8567o302k700l5152r7208N8537J7573K9034m4114n350N2418J4961
39247a7180j6801j4167K2482M821l9386k0558L4622J19591j41707p706J1590K6351L4631q298m0102O236K5548N6896
39229C6863l3095k2569r142n5290Q311K5520J4575O067l6667K7546M4316K799n365L3783q626l3818k6418j9249L2764
39210a7695m7498L301k18M3705J2457K2410n3426j7782L401J6664k2727k2326K242R2364L872l6034q456l4229J3122
39191d6853q585J2816L3458N3567L0688L480K9488n6672l0608l6200J9223o356P949o4298N3104O1656m090j8953
39173C2814n5626K7186k2554o238n6868m3710k3203J6611M0716J00043o9148J3041m2179Q1412K3098j71k1712j6249
39155b2737j0962k5334J0077K7884l8272j9062K022J2260K092K7178j6767K1313J9251P1119l2489k7642P4096l1310
39137D2717q0257k6716M6743P506r097k6549K4177O3038l8617J3717J0366J4437k8147j9356n3328l1880N8131L1578
39119a537o7949m536p166O701l32O8806Q3497J462n3723J2671Q120j8714o665j5355P2142p7955n2651L4763L3932
39100A5511j2666M2538Q882K9908j87610N469N1350l9406q260O5610n7025J9889R6871J7030j4577p270o6597O5220
39082B4867M8112n6386q965o0315m7568M7104K046q3548O6309L0932m9568J4159L3359L8460O2941j4600l4091m6268
39064c3020K1381O1791o696P970p6083J1308j7755k0524L811N1366l7896N056L5544J5215n0217K1636K532M8628
39046D4047O6468r4345J0250l7206k9433p855j0247M3156o3887o4502R0495N0940n3761K6797K2861j5489n8709J2849
39028f7571L6297M071k4162M17K8325o1202P3517J9483m4966J9329j02447k6861M9324P7390Q0217L9159o9144j3975
39010A7201K618J5594m9552L4293p9465r311J0140N2862l384m6798M0280K0022m387O2575m4072J9256l8892m0407
38992d1427P516L1807J0021L5787J0464k114j1290J2148o2320p10J670j1527O782k7516k6877M636l0461L0150o030
38973f9291l960Q0490K3333k6254j0771K2387m100p2520K2994n455K5913k882L9432K2724r9627q304L6817p557j1872
38954d8503j1558M8688l6655l9406j7293P4302Q8785j5854P731k2910K2462n8542K4093J7891m8176N724j1698m1184
38936f2103M022K0637O4188K1854p3630L5527J1686k466J4573j4196k6055o0656K2062K1851K3043L747p5975J2388
38918e9503k5618m918N4999K503K5366M2766l873n752k8113J7150j1826m6053k7692M9681K6021L4854M2626j7653
38900F4965L898J0664p7879J9034j5036k7591M142K0597J0912j0445k3213m1554o7399P7770j6010L1921k6645M556
38882e7313Q475K8885M7181j796p1998M2887O6779m3727j4034r123j120N9920p0377l1550L717l7004M8865L1024
38864c09l1161m1135K9794j3904N4904k5759K1557L5009m3963R6066j4642o9101K7622k0202q5239J8306r526m0256
38846a11939Q1017Q4539m7936m0855R0358l9923J2123N5947j8655m9873k725j5006k3683J0757j1420L0409m920l8013
38828c9798K3196J9422n8996K6497P926N0195k8402k2887J03292K4860o2736j0153k9249J5769L5744J459K311l815
38810E4635J615r6847L2609j8618j1080R0620l2159p3442k3731j0972p069J3354L6907M403k3219J9858J4983k336p45
38791c1234j846l909J4730Q4682K7562p2224n4036n8959o756J4963J4011N5656J02486l4852n9218j821m7165l965
38773f1895K7754l0300N4132M4350l0114L6439p222n396J7061o1398l5246M5169K2328l4874J2778M7765m3456p8707
38755h0832J5436J1531L4875M7366J1588L5349o1234j6452q783j1758L6554K7798l5329l926j2842P069N0811j39476
38737i2255J4931q870R2971K8699k555m5621l0383l0705p675L4045K4890j415M5235j3952m3256j5676N1473k2688
38719b2807m5268M224N6262p976p437m207k1921L4509L1367M951j7997K214J6442m4250o0243O3852k8106M2969l2390
38700c5812K9285l384M0812l4655n9659J2588P9756n3314n8743j7692Q2146K9624m8091L5626j0064N3400N624j06756
38682e9309J1609J06972n4549r89L9535J7114l2684m8161M1105k3531j9142K5679M0619m4810k555K3431l4602p1294
38664h5562J1575P0826j6305J9172L0820K4440m5423n9541l7698l0081Q1342L2678K9231J6705q8582M658l5437L8690
38646c8492M4497m3952p095p9959J00401N1359M6731n2840o0830J7281L3164n107K2403q403m5255n9975M9404m2650
38628g9318P1660J7198O0612l392o9424m8129l7046N0568L0547m6586J1683K9856Q3346l5396n138J9069L0777l3921
38610D6966J2258q107l8044K771o0866m6514L0933K7527J6264p6383N906K2860K6979J6707K6281K2530j7835J03732
38592A13965R94n3107o2023M6767p3152K728N2866L5314k8423r530n0013O5431j2149o2489J7554q867k5536L6187
38574a3483l1911L971j1439K5228o3523l3984J07777M5197Q466M3606p096l5186j4669P1901k4608m3100p8988J5024
38556c6817l3875J14771l1310K9984K7409p1278m3710j5711K7695O638M6115L4744o9977k9370J9432K7434N2971
38539E5145n1672k1729K6878k5710Q31L0313N0991l0731m7344k9579J7827M5641K6071o0182N1678l0435Q505J0916
38521B7414k4411J3494n6418n2969J1119N3178J9412m4878M6348J710o339j9674L1099J8270k1920j4577K634N1772
38503C5264l9203m658N4100J9996j0912l1747p926n5458j2832J8583j369l4239R603R3858N4086k7359j6699q1147
38485c8059L8178K2471m5019o2087L9031J1645N614M4439K149P549m2477J1389J9202K6004p9416K8157j2280l6000
38467e9510L3965Q409n9557L865J4379o1729K0742Q8188N799k9779k7863M4508K6111p3273L7101L266j2096l7155
38449g4629P2132M4992o351m0788k5173n9184J3676K117j01414q95Q531N7499M2316J05262k3998l3751k1926J6669
38431b4915O2396j0844m5376k8741N524j8410Q4171K5640r056r6919L8516J842l357j7347j0932L7396N0392Q160
38413D8140q8775l0039K7441M3806M3118o579o1934m552j1640K6696k9338K1179K7952l1394k927n9521J646N9328
38395b7393j1671O450M1435R0363j0570R901l2744m4879k5953j7218m044m2197O3746J8837l0161k5852O2741J6437
38377C7228l5229n3397q559L5074k5307M1435Q9282r0984K4965O7423j17784O1497K5662n0905o6955m347k7911l9857
38359a38669M4846p816K6962Q4452l556r255j169L0542j5221M437k7236M148J6569M9051m6338l721k1887j3308L331
38340b3838J9856j1301k504L7903q973J2331o7485l0631l5415R507M2628k4437L7793O8828l6824j9508l0610j5124
38322g7804O6656o598L2820l0334M678J8244O815R09l8775k5897O8028k1163j3269q636P1505l7342l8279K6637k9000
38303c0805j9650J7802J1911M184M7433N1310j0730p0901j3841j1669j4424k3764K1830p960k1587P1730J0501n6339
38285d4969Q706N0020j9271J6326j859l6017k4791o500M2376L8728k6938j4304n4973l3899L5578m0355K2018k9499
38267a19623M5669M498l2291K9479o682J0209k147j099o293R860M3819J8661J6392p723o9225k003M3868M168K9030
38248H567J8845l5152P430M540L498M9219p7106k1652Q184J2167M1825l7505r3881N7007M6668L1271Q040j5260r411
38229G294p165N59J8074n451j05688K562Q6030R877K3443j9795J5398m5119j1664P1276N0430p580p1481k8120n572
38210b2692m8497L0067N2137J5179L1422o1193p4633M9615L3905K2685q722p397k8726J8911J5788n9301k6721M8315
38192a9858M8382j5965k593J2760l8465K1362J5955K190j4173m2587K9897R617J9512k9996J691M8136l2096k8107
38174a4338m1649J16899R197m7440l6556k8876N1951n989K7652n1017L3879n6786l0585M8507P666Q872l2165L7107
38156c671R09l8809m1541L5548R111M225l4316L585K8484R003M718l1894k3568J3004K0925L6858L1599L311j3696
38137A3785q561K2329n0867J7212L6135l2939K7603K064l960j1759q356K6848m8098J1243n3285J5474J8802P017j135
38118b0448K3196q963j3959K7780k3953n078l1791K7258J9873j27087O5249N3140j7685M2168Q2774n5871o8841j611
38100c3849k9900K8933M236J3508p737m4655L4707J1185M0448j8450J5715P589O102r0847n721K0742l006P58J09609
38081E9367n1309o0720R1636p5112N1101q7549K7407O3513M1568m3919m2233R814L9091j5792k643K409k5156L7378
38063A8851q502k9902K6583J3414n10j7338j9008O3027j9649o6033j0967n1097L0189P014R6400m7322q5809j8245
38045a18904R9359P026m3299R888p475P53k4784N5698O7017q7518L5866n0503P74M265r6284J00298P7714n563l1751
38026g423J5779j8561k4255J3075N2658m503m7359M3957J1995l077j530j10236M819J5238N579J1159o211l3311j5212
38007i7419l1113M6975Q277j3100o847k1244N6659J3834L4078K1142j0411Q380o5380N190l733R2752K2548Q440j6014
37988E3014q4684N8222k2988l1319r289K0457N8964l2955K9589P0774R86k6283p2822m6174K4941N5988L9396p7544
37970H273j5248l1961N1637N408m0328O605J8908k62n7844L6437K4973m6468J0362N0688l3183l6096J3551N0738
37952A6190l1890R986k3399o603l5239m312k2199N4278K9399m8206m6581M3426L4370L699k2669k7856R7455k1539
37934a690M1514p852o8017j120m5327l6612P2394K3266M4209l0388N8617p022j14567k2057L5287L7903K3620P296
37916I454Q394q9934M782J5009j0978k8572P6570j8192j804n2520j7563M9303L1996K1570n559l0265n655M7426k4227
37897b0765M2894j9576L8761m1617o6828J12219m1717j8621L6450K8849n490J743k8731l7857l7121m3295P3758N7234
37879C0290M95k128N075j5441J7607l362K8839p219N1514j35943K5949J2037P6569k4537k9479n1874r540K6000O5699
37860F0551J6547k7660n1618r226l6345K4047J7142K1819k1312K1800l9555J2268M7020j9708n107k3807M6611k0497
37842A2970k9689J04874j10534L1956J7408O8735o1110n9644L4085L056k2720q436J427O3256k8413l263Q86N2422
37824F7266l960p3642k6270m5369J1838K3176K5834L541J3397P257J9218l9236K5164L0217j3918q25o2861M2679
37806C506L5440n4656K0006l1273k2368K3424k118m8670M8585o756L0619J5198m7763j9335M2618k3769q28J8447
37788a9693K4014l3336J1633j9745N5987k2708K152p1647K7704J2855n473m7772N151R2317L616l8210L0928j84M2308
37769D9897n300l4751p5386N8840O0510k8269J6794j9250M5131k8071L7338m2254l6042n4972J5625L3245L6659l2035
37751b291N9654m5170k7565L5180k7025j4817l6333P2836j8639o2733k704O654O9638K2640j1334j9995k8810O8643
37733C7829K5273k9742o6145l3936P7941r689n840M1933m0419j1900K6615L088M778l2973o3249J3781J05893l4168
37715I070J1673n979j4333K5625o1111K7421L6422L8166O41o0631K7510j5660m649R014o9147m3733N6488p6740L1261
37696g8692M2604N7993m1068K3613j2516l080m692l0689L0731N045M1432m5365M4598Q507J9808k8614m9300m0309
37678e9994N1856Q301j2545l7571n172L490m0604n9232J6526N6430m088K6637o520m9501N8704J04461l4459o2009
37660d5290K1136o5541K6260j0982O2762M8047K2397j8146L1965Q137q0698k0703j7846J0150J0903J9135L33m5205
37642d3186N469k2818J9133J5126O1826m6072m6331M248N1219p9804l7998l5268N87O8557l4288N562M2692M5881
37624b5465N1961R910r177m1674K0510k1341J2070N805k8218k1605o415O9232J2846n4159k766k002M0688l9920J6914
37605a2806o862J1072J2127N0748o3504m0262M6105K4813n2858k2058P6149m446o130q1334j4280O7681R405k1942
37587b8382j2730n904O6120J7554o6141l7696j3191N408L3606L1657M856l8484N2136j8274M522M4426K6576k7432
37569C8627o2145j856L9123j2329N4527l7337L1379R223k1547O0010k2032r5689n1978k4263P7027o815r038o7561
37551a02674k908M1208Q671p9090l3414J2670J2276M9716L2826J9211j2832J00665n3336j8942J0664r66J9688O462
37533I895R357m6235M6796n5871j2543K5839J3523k903O302N3599n2537j5459K0290m724J1621J2276l6057r349j1831
37514c8011M5685L1153j4007r3591j0820P8118O6511o3676j3303Q6459K1316p1473j03803M8862J4733o4654p0783
37497a51284J54974J04777M5743n7710j01988M0483L7714j8580l2046m3878l9882N9880j6186J8193n0853R557M1153
37480F7j8263k0842M1000j00135K745N6701L4418k1051K6409j5806M0316o8718P7066m7368j8268P419K7747j1409
37462g972N2805k2774j1988R338k372q194L8537M6669p9556M3167j6946K6584j1501j8335J7326q0766l0885o9633
37444a26496M5646O4011K5880N024J5628k3280M4978J4173j6504r298j05176O2118K886l2574m1448K3604j1169L6007
37426b5990J4244o1537N248P6103l4233K6782j1741l4197K451j822L1393J1900L0402n2331o2375l758Q0088r20M3830
37407C3537o7148o0977N919M7652j7092N2525M4247o5709M1117J4984L2262p8128r833l8583M4538L3972l5181k4669
37389d6567K0823k1813O3040n968l3352L7075j6947l999J6296J0141n5860k4346N4343m587L3370q888n1814K2947
37371a6106M8137p9529N0873r4279J420O6837j3952J5407P8149m9511r5384P2992K3968n7834m450K0088N9152J2655
37353C8633p3404k250M0160m6157P5821k659p1835q624J6693j7504k7193O2304L5088j4901m4743J7888L5575l985
37335H907N4634q09k7095K7653j2058l5328J7239j3336o2177R6693m3884n2754m980l4307J6857M034N462J0559N085
37316c9605N2271K3142j1274Q459p18N969J1891q7380Q8742M2872o8517M6274K4948j4044O831p3576P0340L1948
37298A18573L7277J7044j0420L2541K537r3124q9993J702L8273n4809j5394o558K1042m942p0787J03434O2744L8649
37280A27789n5533m254l1237K9994m5965l4349k5270J7503O9516n6157L6190J23159p9814k5721R8927j0433K2615
37263A56960j1316j06224k6946o1941J1760k4847M0889j9643K4093o029j7368K2521L5824K1572n1335l5740M8590
37246H20J8906j2836j6630K123K0840q0454O2341J416L1634l8385n5490M4197J1344L6294Q1292K1040p5990J207
37228E3669k3702n3667k4996r581N4787J3574p366l5097M6904N9401n8657O1964j8724n516J2473J3405N580o4138
37210B0313r0139N8336l11j4579R0973l4554M8874l1560l7731l1414p8232N1210Q7605k7485k9390P0084o0630q451
37192a7081N387L1971O3616n6796l8390n2174j2013J5504K8973L4654J1603K0826L8786j2865k4328m1041J492M8142
37174D6266N8344j1623o7619l8280r993N591l6009K355L0177n1609L717k4615M8131L6838m6833L2986K4948M3640
37156D6412r7492o431L8739L78j968j0639k3333N8359J6801J0206j4376J1223l3791k871k0845m2259k2224O0417
37138c3694K7822m7832k8288K1927J6380K7693j1119m6498L6890k5128Q342O1904o8438j8097N15k9755N1933M428
37120e1015k6022K5723Q1482n020k015k4896L0374j9016j9264P4831j809p2561m6877o494L6735k2972J7703j1615
37102d2728l414J2124j9135J3334j0553m9661j092r999L7271L1757K3600M3061J0241J1719j4535N4076j3534k0564
37084E1968m4971o1216n0851J6206Q5733o3350r883j4429J0580K7235J2030M0145L8488J5899l9802k7133K6874j0617
37066B906j5401N1794j9713M8901o3902k7551k9563l9509M1110L5023M623P326O628j0982m699j1236N609J8171L1026
37047C0561L8186L394j6370r2599k0418j2987P435k3142O268L3350K3801n8692j5454O2565N5274P6710n6715p8493
37029c7326L3733o685m2543l4622J0868O083M8226l0076N5036M6344K2839n8269l9166n7625l7359J10Q9399P509
37011b3524N2622n565l1306O8685k4220o1774K6322k2774N2022o355K5762o1053l4909R3569k406k2905k1348j4814
36993a3971j0485O7929R26l9777k4173J8071O944L0424R0q0470Q951j8099K1087m7564n8784N4803R5641r366n690
36974c513M3155J1730r934j0621m6356J0957P887J6215K2544o1551J4197J3234N3738m7288K0552N3618N753n2393
36956D1924Q415N856K7259o4555l0318j0919J7609m480o4089L5860K2956M2701n3716q30m3675M7558j491J1992j9345
36937c1288j9622J6312K6113n483k7801O523M087J3007p9554N8041J7570R686L2472k5284j5372P154K4731K5555J779
36918C8626M678l0633l12l6216L6503l931k5258J7585r019L815o30L1257m6431J6575m1177n3445N2578j8186k5644
36899h9265L7312L0316M797P2399k3047R969L5203p6284m7739r304o504L2860K344L4066j9716J1441J9401k4824M890
36880a685L6076L7689p2865O617M31o1572l9636p252P3629o2429P2338P2613p925Q305p6378J0729j5458m2756J27499
36861E7970Q187n8530O7508j0853N52P634l2517o2901l7672K6232M1686j5203N399L1266O9451j7191r9164J9778
36843A632K2709r697m5192O4152l0760M3370k3463n9834J8339K4638L4310N0450j1180l9015n5829l0020m1264P150
36825g9504j0074Q580K4981J0992L6733L003m800L3802K549j3854K9236L0252m5200j3807j1686n2631N3502m2192
36807d0118K3079K3781j9345j2638J0050K4437N7631l0574j2049j8783P6536j9816o6091l3566K8002L6557j0058
36790A7035L7647m884o439M408l9280J3872k1691J9728L3427p5326k0113J5178L4237m6387N4104O9887n9742l3195
36772g534J1533R126J2616j2116J1604n1602K0143J0434o8686M7725k865j1972m4157K8252N5211M1474k6390k1539
36754A257J2818n3103l211N8925J1001l686r858j9946K1905j649o3933o482k9000o820P6955m8201R324K9586m5775
36735f9893K5082N4948j3763j6357n1813k6148J1889r771L5881K0082O2326n9275K7329p8570M9177M7454l9701J2232
36717a8891N3604m6626J0037k4383J1667l827Q7255K4021l5164j3917K2639n9685N0425L2305N414N502j441O3734
36699A62669p3685k7932k9800l5295J0798l1671m4174J1342J14806m4704k7088J6457n3537k3679L6425J9268l3601
36682e3401O6139l3945L4459l9J8977k0122L09j7300M6230J4706P389j8601J6709p5m3600p5130N2834K3241J1455
36663C0235K1166J1861l2155J0546k3545n095q032j468k3882L1342R553o8723l4378K1043R8808J0229K2604r5344
36645b5235n9501L2935P1702K0942n6241K3089L7846l2169m4664N4656N208N3400r692m0400m1140j9782o248K7583
36627g711L3809l3385O3063p1115o8661k19L1233J9284O0570J3840k8060l8718J6321n8812K3643J6089J3690O0231
36609D5092l6558p301m3488k467j6245N0404O924R272l3744J6763J5745J7032k6669j6752k412N2226j0721p7310L788
36590e6421J23j6059L6600M6829m5234O812n59j2837k5870j0165N3744n466K7646J9415L6566k6322m3495M260l6925
36571d7358J2723N0896m7728j9832L4419M3793k2203J0581m2107j3901L3623k501j4338j1331Q910q377P5777k5485
36553A5561m3476N0054K0272p0938j2958O6516m6049M3121m4066m9102r1872M5555P3651N4868P9486n9469m6767M47
36535a5166K9037L7632l609J6337p584l8818J3025r5278M4315j1046O8334j5805J8348J0405m0285j3408Q3064k4746
36517E4752n2764j4098j6380J4245L1301K580k1165j1124L642Q11n5420P6378k9411J2549K6388p7959k656J735K1365
36498c5231j7263J0867J6986K0467j0906n3676M5756J8064L0842K0731l3327J3532L0684n1036k0870l3916L5204
36481a3092j0208L168m368k4065n4222L7473O145P375N1914l4757P179N1195j1783o571J227L8773l4912l6166O3039
36462C7344L6405j1633o8704r143M2699p414M580o1854J0382k3918Q5162o1535L6353j0904k4050k9516R023L9971
36444f752r721l6002k0868R169J05755M145j2571K0697k4076q8299R305o664J7891J1681j8020Q2902n2414j448l81
36425a5671j7066L6221l139N2026n927J5948K4699k7559l2841o7135j3745N054M1361k7055K7149l0481k2332O2344
36407A851M0693K6207m7190J151J893J8095k5643k8245K6523q639M1627m6167k4875L9144O399n2495P1816m4135
36389a990M8603O6966m1728q8316j2373M6348K8761J8935o6625J1713k2978n4192n4927P7440O9415n8189O1194K0386
36371D8443M812o0337o6506L5290l7878K5130O078P7890m3072k085Q568O904R282L0549L0543l9359l7866J0368j8549
36352a1795p0595K6351P3153j5412L9601m0989R6377l2883j19621l716j6033O4827l9202L9999P5796k7595M5698n120
36334G8841j07709p8401M4673J0729P7479o355M5542j2643j5058l7762M052k8891J4717q9656P5523J0543k6321o185
36316d6882M2812M8570j7729l4723J9819o1060M6942J4244o6284k8903K5584o450L5503K5412o087j4803j5568K431
36298c7172N4224J8895m0559o839O1325k9304n0639n05l580l095j8441J33874J5404n6975n1681m8859j0855M7432
36280b7350K9836j06149j0246N2142o7348O6159J8887m826P1189K1550p385r858m3169N3294m3301o8865L0785M5731
36262A076K5723m9590n0676J03479k0056l8424l2560o464R8111n2396O9067J5971K1564k1703J4443n2101j3602K987
36244A4849n9654N0470P8991m354J637J7918q3220j5854m1255K4306k7251J7215M6674O9471k0013k4682k3860j02304
36226h0916k9040m129J09544R5718j9077l6154j6357k1070j4930N479l7520O776L9158m1295m2339k0799l3257R2827
36208d7381P3491O6064p4011l4448q6447L5463L2381K8455J8964O6804K940L3242j0334l783k0878r8726l3638K3801
36190b8041l2743l8205M8561N2996P3438m4581m2213k239R347q7985L9293N3407K1428L1163l9196J7716K7558M2053
36172A01757K5711r1333n4423K2911J9210K5366J015o5918J9797J1176K6133j7083n2136K221o842L74m7370L0125
36154d9309N9634L2004m8578n8624L5608R7848J2462N747k5602m7383J9012k1759j2751n8247N5529K0297J5831o6883
36136c5164n1465R150M3581P2874M3102k6515L3452m3708M3743l1287k2322j5309o265k2498J0486m2581O7634k0035
36118F873J3087N6932m0154o8561k4773M7117L0265M8496M7621L2578p2793k6585p3633o276K5911r499O408N39P7717
36099G1270j1127l0209N42K9738k4816J4709j04354N933K0115K6041J9475q0670l9207L871p190L7746M1354k1967
36081d8746k8927P8512J2444r596j7868n7613K9792k876Q716K9181k651l3987J7314m5709p4677R3047R3113n8903
36063a9434p165m9603j2283L5333M045p629M058J8541j2281n6209M3033O5851R181r953k7072M2669k1847m754O3500
36044E7981M9658Q128p7937m7805M4324Q1708l2972j24021m3880K4103L3860n5042R770N5075m4o8682N1219O2394
36026B7837o2737K8868j4735L584o2164J9670l9674O3864j9058j1946J0300k766j3497K3427O0658j7675J5460o529
36008B887M3523l186m7660J7865M9470O546j2089n559j7974o2459J4377L6769R912R37k1793J3599k9470J7982O104
35989A9781O117R132o2396P2527k0724O020p5402M214L4496l585l4287L4451m5079J1097K3633J3095L7212j59391
35971a29089J8394R782p889M7910n152K7132j4487K3435K7250j4937m9961J605m0Q5994M1846j3446o1746J1706j4036
35952a5729K2895m2906n1714Q5523J0795p792j0483j0641p2444j770m541R4420N495Q672k3548R868K848R4205L6681
35933A29834l3485o1343O045J325q994l7419o3460O1578l5040O1092K7236M4499o6194o6580L6698l423j6865M1721
35915A7225J1086k0831n2662j1073J473m3696O353O3824n9627J7298Q422m2364n3877O0914O9221O9902k7725k6405
35897a2542j0391l4718J4357K934N2588j5761J3736P1382l4877L5154l8479r6891L4974m9246O9284O9815k6157j0495
35879C4667R539N80p0075M2099q649o9973J4698k0002P1054K2314j2291j16326k3709M5436O8880j3152m5958N6587
35861a4281K1503L0947O0180K0162l5848o1203l6158l4332j5406Q8855R848p072L3652k8927m3168N9666J2474n2278
35843H614m6946j9857Q938k9685O53M3451J3575K68J3526L9153J2815m9742l7296L2489j3318j4024N3419l2254Q623
35824g598N0798m5346j5943J5061l9685K791o2702O5096j076P3401Q0135n7854p9016J1327J8763m1824R520M3717
35806A9565R4709j4893j1892l8390l4319m4637p6580P21J9001J00277K8541l9803n775j8725N4750l0344j05534J8708
35788h4620K5449J0632L8627N0509Q469r953l8815k4058j727N4906l6627q4765J3430K4398j0880K2643N135M4155
35770F908M9413N0958o8813l8164L8981j4815o7207l0900L075k5497J5588k0568K5786L7086M0999r64O0653r6585
35752c4066l1638n5548N0134Q2386K6417m5169n8691Q8613Q355J752Q948l686j4751M1074r658O293M7770p5577m9736
35733a6778l0311k56N582j8410L297M727O3581M165Q529j5340j2032N0972j9612r4679K7214P9944K4873L3273o2178
35714C6561q2728l5709K5749l051J8525o776j847K9081o0048k142Q5961n68o753m6016M6245Q42K6022m7235J5587
35695h300L9389J7402j5709L1051J2767p3060j3548Q535n0850m5572L6489N9714q383k0119k4043N3412m5169q139
35677e4133L1472k8166P1825l047N76J0017N7777o0618l0838J9649L9025N365l4213l2879J8403J9262n606k3666
35659B05r9036L246R4662N9485o6864k4905M9101O4348j8539k3602l5875l9346K6227O590N499K1850N3250K2135
35641I8431l8275j7990J7924m9298j6623j1034O1317q416K998o5904M8389K1541J9605P096q5721Q4376q762L2099
35623I1753L2050n965j4659o4252o6327l1887L0826N8296O9030K0797r5152O6489o794p4101o6563l7819J0536P3589
35605a0153N2065j8454R655M506K2255m2525r0668L8283j3423M6038N3179n5611m6404J1611L7202m2900O3981K2233
35587D0870p2563j9425P412k9215L4006M8177K180L661L1307K6731l1565j9773p5431q1881K3970O892N3574L0935
35569b0138l6009L2586p254L3956L1241j1888j7897j3764Q5132L5054o9122k9239L9617l5110l9968k3535Q819O0222
35551B2703k9520k4018l7632K1247J1365P320r0765J5456K2552O332P0625K9979j8177j2973J7411J6305j7257N347
35533A6300q840p910o739J9246j4345J6170j0634l7724L2379N4644P1631n6844K686j9401o4553k7944l3657L266
35515g2269Q2336n3333N359K4075j3783j99P1625N5681o517n5672o1016N3956J15830r1354n0914L8705q3015J5218
35497b5287J4128l426N9082l2636j4575j3368J0830M9061n2115p796J619N9730j8394k9342n0654j2461l4409J9268
35479h0745O4445J4679l0759k1409J7705K9878J5334l1502m2975K9329N4457n006p0697J7490K6132L6352l0685r370
35461a7347j7889J0845m0973L7291M509L6138L0718o3905j973M0664M6005l3134o0973k0147j2802R79M9743J7451
35443E200K1857K8682j1759l0595l2151K0434M8858K2940J2406k7332r2136M6678k5315N31J5213j2350j2005p062
35425b7906L2024K5980j09134J6368j4781O7302N1332K9152r1223j07433K9185Q7077j7890J2373m7852J2599J2082
35408d0745K5305J2631k2490M4822K6685k8061l9293J9517j01401k4540J13767m4112P359J9719L4905j2304j025
35391i261r4732K400N2366M6180N019j8037N8456P4455n9096n0243o7025m7920J204q76Q358N90N7823K6722n430j
35371a9048K0846J8846n3618J2781L4105k7971l4860o2163K6448L7049J2030j3022J9261P887L5177J3281j438O9395
35353I4986m2227n6564P2639p5666n6049k415J0780J454O212P492J7660M8843M7958k0546j6448p1546q983R0327
35335D7907m3520p4251m4319J14917n1582K796L997j012L8859K4871n6304m2965k1399k8424R5164O2601L0582m3614
35317A4304n136l2627k7134m381M33L849M6107J6402n0009J4669n458Q638k8222K7115K8196L8119Q440n5812o746
35298i253J2213k0716L0656M9826p6240j2999N0630p4756m0799l915K8580K2918L4364m78j2342P9286l4072j9866
35280C037O6504m9733J1201k6702o0986M0196K900J9667m912K6802l5683J951j8828k3897P3265J8324K9527l146
35262F9487o1529l4712P3021J9028J5486j659l1661L5980k9825O6602j11565J909j17928N4009P5853L4377k1564
35245C5309l8791k1161K4890J8878L8791k760n1517K8148r969o2115K3545M2201k5517m1133k8964R834N4569M2894
35227C7132P2595j13589L186m3708J3670L2918j808j0058J8335k9640M6512l0412p4803J7321N496L8894J3925k3534
35209b7568J5455N5709K3793n0612o3573K4641l5748J19809k987n5136J3008j0687m2710L0765m3246K3796l9233
35192f4524N2561j6266L4892K686r443L3519l1076j4656J410k316k4982J8975J5231J5270K8558k7983k9649J1352
35174f441l6775M4288K9392r70j8861n1884j6349L6190l2218O8110n4515m7916Q451M5223j0391K5507J6986N3159
35156E0986k4102l4694N9245L2781j2532N4355Q693p1210j6633j6691k9231R607l935k1293J8787J9004q432j9950
35138e245K8449K2931k1683l2625K5008j1084n7254K0577R6194l9757p187P8976j0556o5107K3461J3510m3852M1117
35120E5873K5276p0067J2368l3578q166M7245L6539j2384j3452L8552n5190m0138j3754j1896m443J04350M6283o5976
35102C7442j9678L704L4552O1362n6058n4476k6822r147J3499P6958m1334q8310K2808J6866m078O302J9909j4265
35084b0766J4728l4078q080M8672K8753M137j2794r6m2963j7373P791L4224K8731L4617k5390m8025N9045O0630l638
35065A08125j3624l5918o3227J5256j8221J0666R339o3176K3726L3465J2855j320M188p941j2546j247k2179K5823
35047D044j5003K9807q115M7467N85L5780m5808n5721N7392K6761j4496P6567r7040J9012M146l0000l7116p3086
35029g4824l0064R7921l7419k0577L9332Q5009m0108m6803M9348J1448M111l772j0527J4413J7977K3267K0514o0588
35011C8658m2050J2668N4746L9865n0965o7988p0122O7844L1188j8539j939K5146k7255N2608N824p2578k0194j1201
34993e4284J37362J7768p2210n1267K3180K1688r010L6204l9779k753O8448m2550j22477k682P3084J3O990M7747
34975C5472K5464k6533M1941j0129N451o8896l3545n6183L6758L8638N760P9343n3530l0711o3938n2862J3238P0449
34957d3813J02789l3524J7045k4106n7793N0159j289M2465o3682L1742J0078K0216o8202L666j8276o5276M4652N1146
34939b003P8458K5029j7072L010N0173k9986k9423n6860L8972J4381K6338o6432m1920j1361N5915M6817k3354m1727
34921A8955K9507o1510o2672N587K9990L5157N8969P084j550j7258m6136p0777M4343Q051k1284L3899n8801M782
34903f3664K8169N6092m2061L7515L2402l799j0477m0324l148K8252M3877J185j6061m9566N8281o6213K1317J7697
34885B9474k7927l0819J7257n347J0058j8253p0900N4837O7378J8713J8519j3000r1478p798r911N512J0467n31
34867d3749J04508j7522n9222n411Q8564o4053k8119L6245l83p380P2742l5112q453n0718m0321m618J29002n068
34849F0932n2534k7599j7529L0181l9146M9927l8699P4548p11L0496j0887m9319L9982p0614L9623Q3569p2037m4753
34831a4570K1068n980M5545N9485j7584L1964n8273k3453J0269k1278n6083j74k4445l5117J7057k472O1188J1087
34813a766j7452m6955K7689J0493M2603O732k0338q4178k360o3806M513K9905Q7180L7899p515j6555J2659k7148
34795b8400N5035r399k7741j5297N344N2744r6083j6674L6725L3312J8751k0074K1934K1916m2766J5552J7183K3321
34777D5383j4240J3466M714m989L1700k773o999K4892o7310m0020n952P0838k3091k9968k9348P4847k4580m1853
34759b5283O9316Q3022m8827l5578l1647L967O719J0150L2111j7843M5408P870q0681K6054k3597J535k5211N6973
34741E4458k3281n7123L6740J5884k7K4639l2407k7141o086P9733m0140O342o4620O3834m6774L0695J5340l4288P213
34722B991M3590L5182p6812o8939N0530k3262k7647K8876J04625P044l0589p7505K2913k031j4220L505p004P6579
34704D7826J0384m3038p711k1496n4813K1155M5831j7416J8335j4231M4896N7923K5411j05823J6133K1322k033o6339
34686b3684R9642k6586r966j7545N920k8688K9706Q438n9933m2361j0519O857P2026p704m047k0016O4781q995m7914
34667b0588n3074M2853R0246M5204k2892j16807K3944Q1987M5422J9442o2642q1569k5740K1094J0781k3663n901p989
34649c9892L781m3814P0615J1697J9436P796j3427n0607N756K7006q081j7021K1496M9786p5691J4392M6260j3904
34631A5584J0156M2374j01872k3914L9634J4494M2251m0313J1388K0949k0982O2002m3519N1304m9375n0754o2899
34614h3492j6196K1925N9495L6558K2923l566q108J8130j3269k9402q653N9467L8533l9616K0971k4670j077N401
34596E5354o4673K9148L3693m7989p7842L6534P957O8020M947K4474q0840k1457P0741L6544N0617l7920L0031r3689
34578B3650j6942R6053k96n9623K7802k5970m6780k5174Q9317m0583L1561J5681M650q6139k2594N4909m8151k533
34560c1162K6164m2105j6776j3411k4863M794j5699Q8846j3531N1113M4663O2349k3942k5017j3160k2709k2769M3499
34542E6284j06207n7514M3759O5851K0445n336j01926K7040N5778M1556m7442J5030N6894l5084L1872p0412l9468
34525d8880j2625L4894j9856O2500L1931q376n8823K3484j6869Q7273L3273o5197O304Q003Q075k2335O1782n4156
34507E0402q476o3833r597L2535o7144N3064n6401N0276K2378J2338l922j0724N342R135o4872L5477L2445k2182
34489c759n3305O4461L5461j8056k8074M3141j7411j03221q920j6563R7817j543k9950l713J9236O1888M8360k754
34471H3095n2739o6151K6782K5822O4250k1071p375m644j0108o9157J9339j4610M6766r417M914Q4433l3522m3075
34453B3532n3511k6446j9526N0228L6522O7389k0597j23j8653J4036n4321l7735O3044K7088k3041l6390n642L8687
34435B4541M3032R416n4861k1682j068J3650o1201j7383O761l8122m4424R0680M9243j2899l666L088R6569k2889m531
34416E4254j0758l1909j9227J2942L7714M621p2911Q819K3255M0017o0951K428m2368L2948l0278N3308j0817J4235
34398E322O1863K5902j6363n1726n5271L0286M227O9776M2809r101o700j3770p0181M2438M5815n1340k9181k4386
34380D19j6551l760J2302J5156J8763n7742j5266k7771J8340k7234O9655J0712k764l6354L8190k1278k8126J635
34362e1674L0141N5794k3752m8445l0687k1121o894P7774j7386K1916r965R8944J502K2457L9957r1952p1206L0829
34344F232P0916j7665k816l837m3780j3882O748Q4001m0431m2453k4100J2138j1108O694m841J0606L3325m809l6509
34325a5571q508j5905l8576N2067M0972m3811r11l530k0368L1321j0934N5736L4443j123m5296p3049k5036J27629
34307C9550M3538o3216p579o3879Q1212q8339P9961N436m6942l8703J2041K4421O9350Q614n9786k0543N158k4613
34289d4319P4737l2667L7106P056l0395N4068l3211l210p495N5763n3176j4581k792P9058k7127k1014l7299J7633
34271A8135j1414m22O2324j1617o8285O1032M7076R877q5816J0623m0733j28J027R358L0025l6853J4900O4242k7176
34252D6175J9583O703N975K9143J0444m0841J3264N4355p557k9807j08414n4605o411L8519L913J9994L6742J9924
34234E7099j6818o811k6717Q642N094k4544J2329k9005L2178M2789m1863M0664O058o7714l858j9807o693J610J0323
34215b7044K0117k3954K3335J2512j5161O190J2888K448m0411l2678p3522J8660j5957O7217J6754O7946l5573k5809
34197d2042M5095N5526r405q2797J7490L1066l6671m6368L3946R400K819j2385N9557N4616l1868m2109l6138K7371
34179b897K759j3750J1369O6736p350J3364J3919m1899L2660l8748l3210P5289k2610m5532l2027o7418M6186P3478
34161C0319J5258m6833J5950j9753m9663k92l805K7354J5531N5734L4969j9838K2191o134N472n2272l5137P3453
34143F2504o0632p077M5195L2996K866o3958k2628R684l1647J5456L3282j0952j2070N3695J3377l794k6996R0135
34125A19436r471q8286j9077k1677j8078K8619O886K0697N9374k4968n3220k3856M5n0795K8114P5087P371k9625
34107F576j0465K3123n663p9744R263K0455M9301J3148l4130L7809N4415m4849r8038O4819R829q113k7022L5015
34089A5729m1325L1580k0873m849j8154N4929J2017l3414K5374j018M571J0996k3887L297L4441R070k3632k1911
34071A2941k7528o5607L2705N4996K4867J1392k2068j7581p301l1579J0407L428L9938M2521K0661K727P10r676m3982
34052C1971m0396K1155K400J6816K3108m0960l3357L2488K5532Q0120L947n0134l7421o7380n9464J8488K7825M8311
34034C049k0308m4403Q1320J8305r342j01135l7826m6318R6702M7192l9292k2358j714K2061R356o276P7043M6894
34016G2950j5277o5490L2430L299k6884m259m2234K9202L1939M0418l9061o226r6043O6978K5925j1398n337L997
33998e071k0626K1369J0783l817M0118k7214J4250P7639k1419l2463o6039N1443L5280o8827o3816N6345J705m0332
33980d0692K3858M0705p7485K8858k1768K6053P2132l0329j02006K0887L3285K2499M9229k0457j9824l1545J0337
33963a6263N0896n8086K2457p5100M298P0841K1111J1432R105j1332l6489j6619j3172M848l9438K2797M9422j4518
33945a3810j1728O518J3351k8700P934K734l2397j7133J24O6919j3275n807K3129N575r842o0459k9183O8717k702K
33925c0033L1197M1104j03698M4286Q6917j03166o5737J08761l1427j646N2612n5498O1818P0419j5572k69k3057
33908F7011j9003p8266M1251K3753O6533l2223n9151j12816J4634n422K1017R6518N6549o3456o1139k1770L9588
33891b6392O9331o399k1728L0951j7212O970r3448o2629N5628Q7884K684k4561k1883L0947M0174l8995m5157J9643
33873a4192k6127L4606k5655N8709m4091L0042l0061K7405J2397J3681Q1918o7978R176j4108k0409p0471J305N6193
33855A2340j965L860M484l401K8837Q0281J4095J404r3269l1264l4758n023l661J0053k8580K5278j8782J6439O9911
33836D6279K0760j9128j0402P0511n0031j413l5523O0028O861k4538k3089q2318J781K9958m9735J7704J4843J9184
33818h268j7075k4295N5155k4834q648l7326m660O5834m8971L6715m6934r068N0620p939k0391K8030j4989k4099
33800f1143K5136K6077N6098M8300m476k1635m5192o2915J5777N9976K1764Q443r836n721k4856l0681j5773m2294
33782f2951R652K3535L3744L8501K9660K6340m6516L0974l4022o2143n6797O3401l7735J5154K9415J324J7699J6887
33764C6122K1042o7915j0337O0766K958p8896n850j4858j7156m6891M3669M5388k4600l960k034L2762N0131k710
33746A7631l4815j8238J6356k8646K8928j5299O1280L1112L1497k4804k3035P045p9503k5721j5992K1606K5825Q1705
33728E6932l6336n7490L9851N4804j3079K8474j7959n112p0882j8772P5453p5300k339Q360J7268j0420M2920N6496
33710G2869k7729j6424l6141q6870r139J1309K7534K93K3344K1580O685K1435k0772k2596l1408M8847M9511L0993
33692F3321k0141n9820n2216R4472k371L05n9835K0530n1074M7998J15054p2779q8463K9597L9754o0407K8291j6889
33674d4673j9284j9378K2288n9526L3740L0935J2177r2413P0376Q8099L9195m3268p1061J7810j3159j4466M9437
33657a3171K3220j2028J6202m1277l5410M2507m4166j5993L4091J8687r4667j2341M5861N1931O7794k4501L2383k363
33639C6759k0123M0260j27615K697J9809J8370K6101n5291j394L5591J2377J0777o346l7879J721O5258N205j554
33621B4723j6055m361p440l2352o9654L7741M6937R3076o5427k5678k5415k6737l1759M7847J3399l4511N7103J8809
33603B46p1559O0889P4069l6975O869r161n5732J7039Q233n9313o6217Q4794J32016J002j2859r1212L7921N1319
33585G1369k6101k4354L4091L7110n7413K5244n7140K0228j2018J9709l9828l3689q274M7203k5807O1514K1166k942
33567E0068l3682J5234p9747l2173M8256J705P0998j2355j3079k1621J7183K2713k9658K9694m1479p2948Q1885k2192
33549b1198n9681K7782j9882J6692k1760Q383R608J11444J1770l2116r9831L5371j2834q05L0813N994l3062L5604
33531g708m9675O5182k4005K048J0289K82l2340l4717M6207N7399K017o4183j6364k7534N895M2232l4121Q133N3668
33512B705J4564q9704L0678j1092j7167k1391O4594J4842M7178O0085p8271j4385m3503m1995Q0477N044k8330P43
33494b4928p647Q875l7386j2389M5850K8099K0258n344M6754n8966k8863M4506L1573n4805M8325J8173J9130n3261
33476B7954r786l7247k4454J660o11M0455k2589m88K3139n7447p913L9031M4350m8555M438M4240j2526P464K7658
33457C8773n3563M031j0743m4327N9796P6761l2537n3889k5016O7902J9747m918K3530j8347j5542j1826m6679N7377
33439C0530L3782o7438l7610j8286R0532k4079j5670L5790J278l2173J5665M7721j8802k6901l255L1786k0971L6907
33421E8806o2202k0401M2147j0761K4144O5389l9140l8047j4487o135l7091L6776K1476o9515l5977P7753J28032
33404A20767m0363j33636L9454J9714K9027Q515K5527j2793P1909m0729p8737j7608J2238K7525L1986j2126k7404
33387B3266P1884o1416k2448l5078j3202M4273K511K7429J6776J4751m4907n745l8104j8924P7263k6289j5324j4497
33369a7781k0715P6090n5800M6374K0671L2369k8941k8282J6197k147n950j2q3704q671M9786m3825P3976j0997l3011
33350b4373M217J1338n9173J1474M0444K8462m5940J4142l562R192j4148k064m8429j8168K30Q4638K3399n4739K3626
33331a9434N4291N517k739O499K3099l7395L4840o3739k5029P1120n1470P967k6737O28l1459J7907K251k9041L3898
33312b9026j16619n2231Q4285O7295k2266m5428P3497N13O7726L6904l586j7244n6068n946N1896O2661k7679p739
33294F0945J567J1053m478k3208p9860j9436N36N5148J5158K0256j0730j5259K7583m3732O175r01l2841O1750m3662
33275a3936P940M330J2312k8541Q69m2068L8163l9519q493M0401K7385N1604j9802k4465j0290p837j9020R11l1637
33256f1693L0620K9381l1418k3556J5305M980j590L5794J1973j6911Q825K1771o0826l8073J4582M4209k3238l5962
33238g5827R103M0434k8932L8977Q027M5095k514m2538l6972O118O211k9961K4245K1489O3658J6186j1708n3523O031
33219C599j6073K1310O1727l7271p1262J3404m1236J7121L8107R333K37k8193r902L684M1449M3358J9731j13010
33201d3887K6099k3033K5664j0095j9203l149Q8406j3855m2409L5050K9118J8691n8874J7572r714J9921j5349m493
33183A6460O5538k5679N8232k5044l3508k2602K0480r524J5222m2641K882p116p582l8288N7563n7599m129N9719
33165B2384k8113n9184L9054K4655j6607J8795J2183M3172p6996K7502K1277J1848l1479j142K6808M9430m4577q9491
33147e0481L5762L5099m0882Q4126k8031o4078N7888q044L4484R6376J6337j00159l8469k2986K2356k8448L1585
33130C2435p9685M2548P7757j118J5957n5300k8179n8683j5063j5483M5602M8667R89n1832j665K8369k91N8037O676
33111D9738k8799m3784J1925l775K8472n680m891j08764P183N3716Q4333K0271l8754L774q0296P2828J8836p8671
33093d2338P420K7789K1549Q6053n5510k6079j5668M3743k178N215m6725k2739N7939n4749J6274n6113m0557O0133
33075c6541Q589l915M1758N3880L4126k1541l5160K129J2341l1432M6245L2817k1444l199k1552l898m8975m1139
33057c6911O8963m3729m1779N5028n7065l4141O1376O2669k871J4507n7594j9900l244M0966M3783K7786q431r974
33039E9439m0548m1915P869M1576m5299n0966n686L0444J5914L1388M5289m1184q5582O2434Q4971k8109k6743m153
33021I139M0689m0432n851j1729r7410P795P1394J8562N695j5688Q079J527p559L4130N650j18627j7703Q0524K6458
33002e357l2477K2710L5557J0532l9063o8946q604L7412L1330k2077p2953o5689O7823J5792K0838r426O2334J16790
32984I6526m1736p5450j5203Q9607m8405n0030l0781J3629L3648l8786k867K3706j0262M5676L1489m083m7628R5578
32966F4628k1363q3215l1607k305m9802J870J8198N5407k2321J1766O093j7355M4678M5393q4790n9279K8867P4350
32948b0787K0029L0430l8273L0520o402j6177Q880L5867j6568l58l7526m167j1648N3979L81n3044q829J06177p9459
32929f975J3708L9241j7542O7685n1587m5085m5895K2751m0611K6022L0904j0924l7863j468j6857L3806Q7268l4683
32911A1895l8134M285J8567K2264r2726j2872L6987N8094j8376M0161l8972m8855O7029J0686j6594k4801m5705J6170
32893e0897J3312j2154o4624J919k8683J0686Q3446K4752j4038O8944K4097M718m0504m701k1660k8307o7820J4330
32875h7184K3916N4795R13M7711n3038l6049R929J3869k2915n1417L3639J02463j6662n4399O850p836k1989j0243
32857f7647M5340J1526m3800M6339L1275k1683k4837N0869M409J9349k2331n3595K3198P543n966L7668M6979n7688
32839B6948p489L8917p203j03493j1685R4043N1615l5141j6239m7474m6806k5511K4378K8354N0792K7088J3581p8206
32821b3531L891K0653L3409j5339k6051N8438q640R965l1803m392o4807k4969Q2289o1584K5993L2717m992q1108
32803g9861j9616K4267k6355L7526K3774P103O2915K6513L8701n4295p6230j3314K195P1613r1371m469k7489k9606
32785a27999L3108J03887J4724l0633j7859K0242m366J3563O9322q8066l153k4454k9810j080J0872L0636L1928n7139
32767e6277r914j8602j8482M113K8061j2103L0299K3016Q7725j5686q6858l1124J08681L79k8398m945N52O8252l5827
32748C2862p5479N822Q956L6752N9919j7995J3800o596n5984k1723j609M0451P1375j647o1344j06702O181j3731
32730h6692M9582M3823J727M4490J8762k5784k0759m482L7266N3140l064q7751Q4072m2836p3656J7723Q584l2772
32712a8627n3300L7787j7512j5971j2849p672J7319L237l8081Q6939j5636L0115q4508l723P1431Q7288J9989j15203
32694b8977r9348K5650M3034M4697K9954p805l187L7761o5227O8461k4808q1258O621J2158N17J7031O3557K8492
32676F7323k4283j7218O913N2466l7734J1091k1869m3216m6765p717l0584J36907K8309q4504k5659l5098M778N173
32658f1687m4476O8531J0349P751n714J7784K4442J89j6762J629n930J780j4013J2103q5601j7049M7930O4454k4990
32639a9280L0093o3009K3697N8772N753o3589l8869N95K2305j2586M3601j2423l196K0009K3913K1213o4973m9151
32621g7125O3555J3193R0408l0071K991k9381l9991L3934k2179M2503J1547p603k3182k345L0848n9864o6321P0337
32603A254K2602L9708k2285o3076J7120j6746Q2391L7145l6080j1535n1350O810O18R354N5434K7321P532m7740k5876
32584C2601J31m3346p0887P4670M6884p4009j8542K9609k550K1954J490M0644J871n2471o719K0965O6120k7272K021
32565D3164J0535o3723L286n8693K7007r500K3957J00975K847J0287J1144p1527k5427o849k6412M8486K5037m600
32547C9994K2828q1269O78l3492k6232m587K671O5551j4737L7446J8018R237L624K717q328j1050J2464L3400l4441
32528C4492L2411n3368n1355k2232Q4997j269j7554K4528j1710n0897J3308L067J6219n260l789o5020o183m1330
32510a20945N4067N5394M4890l2763L8764j0189l0438k6351M4297M9283m2220L5752l4100q6639k411K0463K3437
32493a9709L2501o4900k8122Q9385J6558J7470m2695j8156L2874j7166k6678Q5490q467p3424m2217j7853j3002M8114
32475d9997N1365k2114k2833K752J23547k8114o0055j8447M3213j9703N7485j6451k0034K6605K1642n4860r1719
32458g7718l8880K0706P4189J7449m499j7895K8650k8414O451k9104j8447l9592K6583J6443J488K138L5913J2738
32440a1801o9936L8433L2997m6876r031J6094m7513J3254P3865R987K8005k8953m9911J3559K8537j5114P3425J4637
32422F3658J5178L7085k2143q9220K2787K4428p0868k290J0045O1414l0627L597l092Q033p0914l5199K9133L7383
32404a1612k6677J0280J321m4038P3674O678j9970o587J8330m4656k854k7510Q5981L0218q453j4125M16K9445n4319
32385d458m8396k8283O9143j8907J7511j781l4188J2360J8020l6907J3494k4954O264R26O1201K7962N5171q6862
32367b684K5213o7719l4795L0122M5707K9608r243L2577N814p4971J9871Q7423l6506m8400J9390k744J2540r734
32349B1469O8147n1174j789J6559K3096m3310M8887k253k4993l4317k6694J1041o107J0981j9992k5471M551O4517
32331C3148l9260n2701L481J27807m4291m185M280l8740M174L5521k1775L7306k8394m393O508J6014j4546k6107P450
32312A297q894M3110Q5228l4029k9416o5696m4110O3725P429o6961k4731J2677J7309l791L4377m6113K6009O5873
32294C3293n2251j7917L5988j3342l757J7809n0942L5117O8642j1324J5307l5034l9462r850J5279J4263j1444l422
32276a3047k2409L866m4682P568L584o1982L073P556P1071J5441L660J0617k5216n165K4886M3798j0761m6433M8009
32257A3434K0974N716p8244m2883O8749Q1953K9468k2787m0815J6968k5074l4322J2950J6526k0684J7662J84l9981
32239b0206k9380L1037n8714J3627m4748J16848m677K8225M9215n1693m8712j814Q1665N260k1090o057m6845L4207
32221B6148p8661P3867P733n2570M4194J06992l1479r4037J04167M1119o5034j38427N0743O678k8699P8809p3131
32204b1588l4432K6979P276m3202J2004L1110n0411J5337J16921m3562j9611j3553k83K3773q5285K1163L0038j1907
32186c9233r108N374J18400j04589L5625K2865K6209J0960j2893l6003l0323m0113j4589K2722L5646J21464j7081
32169I5333j20627L0802P5031n3061q139P0714N662n5886k2882l9146L3383k5631n1964K2136K2987K1510j8879l0161
32151d8818O4137L3011l4447j5267N1645k1969q699j3092K3892j5789m969j8897J3090j3773q3726Q9127R2173P1850
32133A59479p6504k7002k478K5588o5244k7862m2036M2699J6208K1516m6683O073J6021K1163K0990M894q1077r118
32115d3373K3550K4999M332m2752n0684k688N4781J0094J1307o627J5193q961m5618P617L7126l9355M1991l8528
32097d7596K9536J5318k1058o7164n951N4613Q4917k9816l9060Q336j2247n7756L6779L0199l5341k6593P2349J9400
32079H865r959J4413q8780j9203P3424L6300j9228k8650L4418j23613N4966O0365O3174q3131j5714Q4281m7425m0923
32061d6420L5329M5515l7116K6340N7086O658j2096M578k7854l5657n0340L178R3313q8994L9088m8966k3861l7857
32043i8076L9318M7405K8785o7561K6679j1830J9748Q361K53l340r582J5493L6457l2267j9419O2479j8924J2723
32025C6702l7214n285M0406n6209p282M6507j1200L600p099j5314M7528J4384k469j2105m5660M5842l0885l6095M941
32006b6907P6380m4316l1965k473O9097j5818k394p086j6206j4352k365L0977N7568J1533l9398j9948n5922r340O513
31987c6422k4675L9984N5017N0210j34782j7429P6583M4601N901J6553k6115M7674m9824k8998m2157J7702j8943
31970b5120K6853l867p2431P7026j5456m4300L7026R356j882L8727L3164k9916L7468q5303J908N7410k7560l639n08
31951H956K8956J6417j2186p8036k3015N8785O639p2917K5250K2125k5769n037J8207N7726m2082J0016O8229K8115
31933I0379q0485m5096k6650J4351L7572R01o3844K7982M5649j11187K169P1776P4507j5789l9100M753M4361P76
31915C3025l5596K0376j2633M3616N9057j1531n6362o4570m0697K5672N7921n1195p5546K177L0389K940M9892P4712
31897E1647K7758m5388j9256L448l165o1339K1433j9935N3980J3878k8390p590k0657K848O7001M468K0034N197j5832
31878E0140j8937l4856m7743K5255N3749l7598r0290M1590J5596p569l6500r896q763N6128Q1732J1982l7547K3798
31860C0271L8256m1340O3673m2796l1923p2875q529N4675j6532O25K4692K0872K2165k926l4479J1269l1142L1310
31842A5266j1283J2924n0581Q0776j4377o1681N0751N3791o4238k0302j2258K4078L3972n3657k0543M4864p942O4250
31824F3810K9173l7012m28K220L3893O053m480l783k2348q274n9407o118j9640K5752N7121o0043N5990J2172k7605
31805C7046n6185J2922J0139O471M9254O2073O8612k0824j29009K3778m7171l5943J6291R4937N586J4527q1147o7312
31787c5955M28N4108J9349j5559k9898K3325K2707n1740j35L0163J6039O4656o3808m5022K2399L9868M9266L7110
31769A37301q8030n4167p4205M8931K0331K8405J1029j1437Q576M8408m4739M798k0439o7851P7620K4051m1690m7608
31751d0716K2311n0739N0452N9073K0232j0666m8660L0021K6215l5901n2362O8886K6993q8369J2003j4912j8221
31734d4360O0138L3148q513p626m2341j8727L0046J2461L4050j4808o3476l9085M9092j7645o705J2719k327L6795
31716B836K8431m6680N9916K0958l2615K2971J3088j2980n930j5572O8902r721l2737K1126m1157o0470n905M3833
31698A8294M8689o963k0794M8974l0058M6267K7701m3736Q178j1021p0168o749k2260N1086J4803o537l8024J4363
31680B2045P3649k2149J1598p0453p444l0622N8122K7687J7222k9850K3017l9635j0198k5042j5010j0063L4682j5666
31662h110k2412J9961k2441k0814J4260l817J6567N6926l5355L6989j2754J6248K267Q366n78o5706Q9456m2705l3979
31643g631J6596k3501q525l1751K9060K4456Q05r606N6613o306n6195j8614N0620n5283j1297k4163j4233Q4471O302
31624A818K9415J5095J2301k6862m7297j3332M6442m1005l1007Q7742N4242l0858o6359l9461R768L0287M5031l4132
31606A828R1246k1680o8338j1596N7458j68J2838J0451j4093N0554K3929l9669m6993N4314l6476l0071n480n0536
31588b2482J2608p76J5803K3519M75K5365k0874L2197L4300o9040K1646m7379o9323L8780N6480m9584P0396L2314
31570H4425l2935J3159j525K834n6157N7204J8470j1990l7750m6724L6597k9554Q863O8442o5689K3237K3152N0031
31552A04090n5889n5642J9518M6929K5046k5795n9062o1020N973k7462l364M2111O9395J6423l5m3919j4962m983
31534b2648M1297l1477k9271k89O5324n0226n4423J5583O2629K79P7128m4147n0224n012j9235k498L1645N2272n1154
31515a4447L8527J2759k2511Q7955j0938k035m6387n1565l8620m763J455L8821k3673Q72K8894J1720k7222P3838
31497E2680j8048m4909n2007M4818L0377j1556l030J1129q20L8215N00m3745k9383K7027M7810j0394k0464k3858
31479e658j3302N0315j8572N6343o2815m2116P2137j6266j448K1760o5490m9391N6172M2856j0016q065J4148m8025
31461b7433n754J3560q903N7973j7115o762o3599L2527J7927p9198Q3788k2181j7156N0219j8392M440J0526J3323
31443A7790L5445j6360M713K9160m1053L5835j6399k3450l185r601L2349J4291m0102p6209R7204P991p870o530k5276
31424H743j087m857K9731k6474L0166l4538M4300K5106L1642m9001K8659j1585r3258O599P0534J2001N0914J16314
31406B33909m7725q5499J7818L1466K4370m5128M608j781k9035o9785P6503M937j04370J2041j3707n593L9111M9582
31388I1722L181M5504o5776k8138K3159M5112j4047J8306m6679p5809r9488M7891N2778k3542J1320L0198K1907L6974
31370G4573l564j7666J8552P624L9401q0182j776K6681L3238j0134J8396l1584K9207m3186m1214n867M0161K0288
31352G2948M006m0376q11O6171p4723l0462J59550J4697j0799J3081n2707o2656m7929k8501N6241o0440M0204K0497
31334C7991M846o3902p2172K9868L3213J4526K7415j2506P430j226k7327P0312l7372k1261l4951M3916M6156k1426
31316B3530j5289L4707k0528j847M5316J6896p4552j5147K6630L4344j8959k7418o374o0212Q8350L0967n8891J1440
31298A2963N2899J1666k6715m1942M1340n2378N4258l5260J4502L1272J4571j9934L5531m5869j9001L5798o2819j00
31280G82p838O4141J1390o0753m4995M1237J7520J5658q315l943l2243K8520Q4825k1435m197l4911j8971k8990N8047
31261E5529K7314l9272m9201J6677j585M4979J1011O4148m306r328K8447j9982j156J4760m6314l3324M4023M5603
31243A48023r9888m8228K9218k5588k8104M7981N6693m4142J5385l377L8500p099k8953n4832M6321N3897O6600j9932
31225A42475m5656j22799j0281J3696P5710k9587M2492M685j5039o982O0197K2766L4755N5349n7187n1854k0178
31208I2562n0207O136k0045K6211r791q69L2217m2466M3009M446k9847l1621L6571O075J3521j7374k0667O6290r5002
31189I149M7915K1106n685M874O5883n863k4179q728K2770m8660N3760K0913m3066k0583m5012j3850J7424j6784k598
31170B8786K7758J2152k1135M1268L3775J4064q873j4390J4710m3971K5558M7750k3950o5186J4668l371J0363k4937
31152F5039K3042n7561K7009L6947M1569j5317n6934O269M183J880K7852Q2288N2788m7712j0986l3002k6932M859
31134A25281K1280m6460j7231L0303P2831n3535k7623R490K2972Q475L3792l0621k2105J532n0879K6434J08725J0072
31116B22733j46439k7449M0656J06266m7089j6216M5584K8937K4159j4122k3469j7080m1067N5476N2026n1202l248
31099A88456l2908K3361N6644J7497J0760l9727L2921l952j7258R3294l0216j201Q4573K8266R600O734J0937J1251
31081D49032l8412P1840L7047J10832J22507J37163K12940K95165L81051M74027O15080O79240P76244M97341o597
31066D814500j34689j5251R8013r1217n26452p96254o53549n32200l78756k43841k11805j55365j07187j3880n6802
31051I95265l9462K5517R754R3137N6701Q6551O6970J83245K18297L92700N16624O87831P49036R82271J244489
31036F268926J053305P27446M96979N88028L71908j39585o18939q01296o55742q00489j243418j076217q10268n88651
31022B771987m61333l39862k58171k02623k04989m0148j13259m9655J5807o5174n2229p1534K9503J04057J46416
31007A208793J98822L10032N18610N65742N44986P45743P14647L95251p6002k14378K4769Q5511j86578p37302r41611
30992C157035o88313m43586l54573k83670k59636j26370j02713j03552l6986n2825j4450r2934k7506l9032k235n2778
30976D75876j01467k5866q5565j0574N7550L174p3385K5144j1167n907m3530K1784j7091N8889J4177J4486o295K5618
30958C15851Q6826O6698p1325K3098J33905O0805N2331N8229M131j17485K7565o3360p2774K8079K7618L9791M8037
30941F48020j1887q7751O5677k2903m1571j763P4704j5894k4168N046j06793j52196L088M0685K0297J1057J33698
30924E37346N0397k6689K9846n7534L2502P5670L1935j7962P1217k3124L6875k1433R9368k2204L6688N2331R3777
30907I79006L0287m2175N5980L1250J04033L6089k1249p6805P166l853m2953K6626N488N8898M0155J29139J94770
30890A511852L00437M68777O10270P73659Q76448J100192J292887J275408Q56085K71851j4983j80430k47426m74370
30876H420657r11802j238570j260924r91669p50420o11570l80773k90437k02425j48305j16632q5607p6408j30647
30862A224468j71797J8496k640m4846R8727N712j8782J71432J80147L04974M18807M91730O38997Q94713J079549
30847E289687J329126J360586J144739N84966J41558k31844k40180l48254p85958j080278j393713j372843r45160
30834C452432o76899n35151m70295l04749j46817j80329j67094j41242m2919m6509o4513l7267o5625o119L2336N962
30818F05202Q8736j4156q2759n4438O8115p0892j6781l7833q2749J6787o5950o3501M8942n2065k1833J2192l582
30801B73435m7479O5385m7273P4244J07988N1563j3116Q9112O2362L5110P0860M681L5604p5126J815L4516m7968
30784F75713m2047l9700j8495K340j8374p33j01369o7239M9169Q2191J6232M747n4928j9734Q3215J43941K6833J7786
30766G39548L7857k4438r2088o4617o5186j3306n8782N9460J8813K447O4282J13049P8712O3552l6795k5261m0049
30749G57198K9611M853r0539m9563j559l5309o5873p0417k5461l9088p4854l6537K710J9266o5376J613Q8045q1411
30731B67309K7085j5460l3557K0740K2284k8096k2439l2857K9945L8892o0282L6262M2244K045M99qk9418l197N5369
30712C17360j5441K7589L7234K5646K4876O8142M3795q6515R794R485K0199P9721l1943k7871l3030N183l084o7104
30694D04036J1870J4929j7736n139j8369R7578Q1289j305J6320N6718j028l1355k1736p2949N2416m7809j7461O1862
30676E62131J2727k1364p0532n1967j0117J9929O3671J22271l23n2571M1836l6273L7802M4007q369l8517K9407l8460
30658F05288m8864j162k809J4800P5713N8889K1743j8753P9422R0764M8848n223L3725K8972O0526L570j6576N9809
30640A088682k212J4956L1891O4778P497M2199o628L0168k0744M8943m6453J5541M4534J12506k2309m5737L7268
30623A394880J4795j3037L7466Q3058K0117K4430P3488L8076M428o56N2019J15946p002J26510M3481N4291J54643
30606B216933K34459J64085J24443N3162J34017K56733J68684J14427K61816K84727L02725L79366N41585O73007
30592E910169Q51382J229386J639882K227275L078767M029970N151383O437633P714526Q084100O768686L339271
30580E6462430N47822j020031k91548k80167l394561o581963q599268q116350o139503m563439l197558k257748
30568A2568116j713918j258838r10937o65701n31245l89834l27531j56580J8121J80733L11279M40730P18921J030255
30554I313571J547603K209626L110420M006625N318583O730439Q135342Q583595P439597L751184N22140j380966
30542E9287759o99636n02422l329369o725318r064610q788467o753916m932123l525929k393046j675784j049707
30530I847432p40597l97593m8617J4780l2414k24457m29106m71913k66881l02585n75417q14822j015855q08193
30516C733762o17952m10075l01259k51785j87363j22955j79088j58792m7196m8516k7983p832k9074L7261Q7266m4385
30500A424034J1710J01295J23189K35148L80302M68526N60707Q12095R04244R23733R63492P88790K95218J49728
30486H142211R1178q3931k88929n81445q83840r86998r00882q44867o29769n06667l88931k12042k46548j66349
30472A512191j05840l5093L3706m8290l2819O6322K4018L2688J83268R8666K06385L82304N18086N92741P78056
30457D206389R09277J203781J247568J074847P23162L90753K58941J81336j80447o41727r09758j186581j184290
30444F093251j063305q38779p20344n95951m02028l56385k74687k01631j75294r4310m9264j6p6907L5911R3520Q0270
30428A454051m9153J56663K11159K74726M06556N83840O53728Q15263R75171J036317Q64958M75326j0092k22080
30414G626433r1644j46264n60634r32427j073402j024217p42613n50823m77279k97918k07757j15021j13419j74254
30400A118761j17546k683K2666j4536L676L4556k3986n8177q3091j15556m0566q8729p096K4425L9511p5422m9465
30383E66742l6090k6405j878j970k325q0683M0777O2086K0481p3159O5744N1924k4112M0702k5503O6422K5773N0940
30365G19466R3400M3485K4177N6252K7205M0626J01820k0884J10509L9491k7070N2239J6934K2426M1951O2510J33713
30348A538250J92085J79857K31851L90067L50996L23147K33758J00515m1559n300R7498j07582k62013k73118l65853
30333B582599k81094k12651j19566o4724K585J6676q756O6893K1808N2697m339j042J5242J58774J18646L0392O8616
30316B442756J29448J40324J97836L33599L40023M36866N84253Q05474J038330J064190J174060J375410J826160
30303A1888729K752942L912813N138454O322535Q648773J1557526J3303932J5664415J4302583M041771j5818639
30292H1715834k1532018j6242033j1454452q080912n500252l763708k766550k224988j723801j532268j217047q99739
30280D778066n91321m68789m38065l33002k74452k75347l07118k34383j36008q9924j09804q7010P650n5433q6822
30265A298238r3497l6813n4526j35788k5994M6544O3087R6433O7589J6391Q26j03888n1878k0736j0200j22500j49324
30248G83964j22765q7257L2299n5620j04499k3665o5211Q777J2936j3047l6951M7565N9385l8466Q85k5655l2442
30231C40233K6855O2502k486Q4418J19403N4700J13087J30659J49453J59278J41654L9333l5665k8789J31455Q2352
30215A568442r9232j51847j68386j41792r8436j60280j30557m6078o8988J7309k3021M3099K0697k9993p581m9702
30199D73654l0098j0685m0986K8628l9394O7245J3194M2617J4463M4536O2981P1627P4693N3989Q6268Q5313N9607
30182A057652J9846M0492L844R51l9098J249p8478r7675o0242j307k0169o2608J2676j9149N4159K866o2560k4718
30164G27731K3945L6872k0907Q038j5900M1841M3643R2633r86R0847j3879J1399J30601M9294q705J03389O9450n8450
30146A310856N1834j4523N2744L1855M9309N3642R1138O6812L0812Q0270O2413J63591M9267Q8160Q0006J61618
30130B409804J21285K66030K69467J92723L23747M38915N89702Q39287J176008J606830K022738K692650L396936
30117A6346122M083475M587127M288828K417420o44718j274046n9569M55011n50514l635388n181707m294399l165338
30104A3372304k372360j550812j129240o78151n03554k77475k19409j19888k1180K3339K63216L83884N46229Q24822
30090H541725J196600J753892K458932L186563M228979N577729P037902Q501515Q958828P606111L802858P45334
30078F3596968j237358r71317p38027l169119o309204q744389r095844p372190n431471l952402k819269j910683
30066A1845695j340949r94074q13910n34865l74550j36624R5606L17056N04006P43233P13426P53980Q92773J377743
30052A3048546K023359K793153L474436L929126M561348M521870K693626p54644j860155p18149J77557o31814
30040C3258259l814169n932576n301352m018169k878794k082144j550491j110360p76479n14356l24160j18606R4131
30027D930734K77275L43241O15880Q03463Q28516P15659K43904r765m4458n8959Q7682j26568m43630p44475q96169
30012F522330p85422o55225n25723l41009l43015m23018m87053l92439l50117k07986j75916j42651l4222m6987j4821
29997A596726J7901J39585J16548J26091J79353L44245M62733N30262P32775P98067M80220N8407J48454L23445
29983F054812N96256N44486K39244j39290k92841l93178l90451l33214j97292l81375n10848p00664p21758o40262
29969B733625m39682l18245k26635k32634j53060q0020k0377o9743l8883n6647k2196n3900L8631K2673N0790M1557
29953A175254P5991P9513J27895K27959J75589L64229L62683L61260J26712J002q5024j11732k6602p872k97352
29938B549505m43567l27797l95055l08535j74792m8965j07467r2364j09716p6132Q0607R552m5865K6175j0857J8619
29922E43346J4831J3967k1882k1467J783j8343k0474j0546n0407k950l4870L0972j5187o4645L5600K1499L6715k4483
29904D13459L537p5928p3677K9990m4076n3995j5015k450K4528K2522R3993l522L3848M2392J09385J45971j9625
29887F31337j6124M9827o8465K504O221J9823J1882j56862K5175J2587j6917l2952l5973n0666r408k8018m224P2351
29869D12098k2766J8749k2966j02892N442m0803p6398L5077M2191o0750J8269P0903j9830m867M7113N7548O7419n926
29851D17611K5152M4363J17614J9696j2228l4130k0100q8142p8324M3157O7780M1056L1173N2425J6399J2491N6778
29834G12771O98p0981j5562q2959j64032j04873J1495n957K4070k3969l8025l6271k0325J8447j2135J1072k4169
29817A79295O0600J4202p1024J2324J8630l803J1987K4185M5300J5562J2832K37L9943k3117L0682l0144l3402j1115
29799B93174j6474k8552P71L7258Q992m6018l700o673P8116j6100R40m5021J3848J4574O4290k7649J3035M454q582
29780C30683j5134L4850J2849P4039n7986N9056Q9490n3577l6685J32564Q3955Q0265N6169J75547R6070J69487
29764A231642K83457M13650N27505N89663O14476M68472J90202j45050l01441o6223J60204J32552K36616J97258
29750D532983j57348n11297o60085p08717n70687k90913j99282j62385r9181j2634K7803J3691l5379O722J6624N3641
29734A243556J67716K16404M11508M56823N73757N73550P09848P62422N67021L19365K28285L73264N43374N26945
29720G673838K79777j21866l75378n41058o09137m08920k07171k80860n77473q22697q04854o29898m40751l52864
29706A780688k79097j62159j16578j27990L8804m1455n3200M8426P2743J11019J57755J41671L32144L87433N21478
29691B811682N20981N58885L67323q29k73864j80488j70341J6382K13634K21501o4745l14173o01283n94710n14968
29676A994987m58761l20483j92494r8693j32850q3584r1590K5167k3648j3112L8077m2054j2671n625M6604J01218
29660G30488k073K7512M8750K8100k1773r6151K2676j5855p461K0027n9925p8440j16948m8618k9048L9247j3653
29643D26855L8361k390p4330r0603L0132p6551K2342k9003k0600J20904K990j6047m2731P9644J08960N3184K4852
29626E55969N5742N4043N2955M142Q3669J282M9727j7577N6166o8577l3244K7441p5028n6715r991j6196j04719m5123
29608E13966p3778M667K3358m9735o422J0211n6481k2386L511q931j7377R104K6799K9514M0887J23464p484R7238
29590F40125N8927J3430L3350N1542O6918J9407K4201L1422q609M9246O1501k4152p5687k4409q342k0615K9325l7779
29572H79801k2882l4160k2641L045n7551Q6578k6250L0692m7439q546j8759M2810K474M9337J00859N167K375R1264
29554A056174P4232N0533P8730P1071N8284K5499O6329l9028L4519P1630J46942P7891J17323J7572J56038k2931
29538B040808l0793M2372Q4302J56711P3404O1398P4816R1410K39439L08350L59232M50343N77481Q53204J189200
29523F571677J593319K021288K669066L291113L844870M276089L713091J254088k146060k492596q33962N37117
29511B4299100J625735K329895J429044j778125m880565m837173l645971k726026j847258j212356r19987o30465
29499G205848l75968k28348k10837r6233K03288M00388N23304Q13647J229738J799367K329180L251780M279983
29486B1125137N052575O090097O515330M918419K057430R78412K42823j620301j259392R19181J722667L03225
29474D7045603j812005k815088m527124o876439o299468m775496l461483k400389j568251r27689n26235m11055
29462A0644881o30782q12935p75847m43546j0388L06473M77622P19966O85333R87684J515089K190686K733813
29449A7588049L223486L163152J569545j612597k398448j193627J42195J113595J943595J580443n84663l522524
29437B1012201l984993l091339k172125j404705r12843m76692m7166P2728J3303k81860k45364l13301m65775l52721
29423G349348r7888N4023k20806n27492o20901o44097p68131n57915k91801k52962k75446l59523k95563j41573r8523
29408B250750j0505J11528J72174L18651M17117O20712O64364O34402N78679J67886j87658o9636J94333M63078
29394F325875O69367N57910M2477m73795o97798m33410k60952j29737r1337l18415n40252n36279l82878j91802q3746
29379C455228j63189k08002k06623l03544k90005m7949K5907J98712K96528M28672N62555O87150Q12423O01466
29365E849329K59425P8755n9808j77495r6823J18207J81411j3893j50124j87811m93586p07762o73887n49638m38291
29350B938009k92984k17674j81579n2179o5291j901j39275j75213k04291j25021j45700q8363P2780P2525J42856
29335A536699K16593K79710L71170L81898M50014K79564j73090l51467j94152m3564Q8670J87461R9404n5146m17534
29320B656230n61671m83551k56834j17110j43844m3532k7990j79180o1266m3274m2644l4788J6570Q2129n7611m4733
29304F56901j01356K2137m6260j9222L106j25925O241N929j2611k5983m2268M8256l2985J667l8468P5169j13671
29287B60657j3002L9800J2142K0526k0036j23K2999M5213k9818p3546k5396l9951K6804p973K617J1253n452M5776
29269B72490m015L9695j0376r6714j0302p893J9858P3746k1316r5300r8588R682K3382N7595l1428p399m8269j5577
29251D9271Q84m0551p299L7078l9905K402k8879M0395q4079K4140K2364K1887N1522J8002L3803r228p9567l7819N572
29232b0007M406N560O3446n7966M6012J8746j255k3351k684Q1034j08267k016J6183k5106J7877o3113m7292N7097
29214d0696J7375L5349O404l5673L2868N013K8420Q679L9255j0609l7486p1921L035Q563j5882o921Q019L5910q064
29195A638N717k5132j10825N3696l6168P2791O841n8961R84J08406L8341k2265j4662j0880j5736k407p7200K4256
29177f1566L0926N0503j1944O3555J7885p1974j909p0736L8447N8567m2901N1235l52k5253M5014M954J6144l1782
29159E8813J2808q1253k1047P5863j2081L9162R2842Q1322l2061n2634l4894o2558m2495K3687K3613m6079k5172
29142b164P3480L345L4549j16343K9313M8876n0607p0540M911O2153k4978P0849N5480M2738M3572N6838N1932K8879
29124C42283j2883L3453l3819K2215q773k1213J5846r1714J9360m147m7451k4556L7065j12819p6478k5075k26M1849
29106E2917l6428P201m189K3894L0321l289n3888o2992O4311M2804L3409L5416J1028K7596M3484o4385M476L861o766
29087A48781J15163j9236R123l8678j5290K4802J3492k5613o5946Q755o2878j1620l5301k6016o0733p439M6387P159
29069D912J195K328L8352o9814j3699N1639Q232l7307q0260N0961J17345K0130n9292p6571N0962k4433p6100Q5752
29051e668n423q4575j1161M1833J008p322M7831p300L9392L0232l4380j4234j0847m2392p1418L0856L1326J4443
29033e7799K9365K0729J3849N0206j2479k570p3999k5733N6366j1312k9743J4851Q238m1964q351j0795O5190O815
29015i136O6188m1272O604K5408l6602p4098L3547M5953R735J290J7388k0778j3530j9191n6024n4826J19874j7469
28997a6939k7769R6553n11m5688j3776K4495K7466p8376K5740J0003j2316o2054L7642k1899P5594L186j1555r70
28979H826K8707k9506P2689q2901l2972J0526M1719Q328K452O887r108j02519N2320L1782N865k4135o6290l8308
28961a15638N4083J1150n2758J02434K1716j13963n4156O7385M5235M6433q592J9171J8844M2404L469o2790O7646
28944I2073M4003q9355j5849K8310J5374k3113K1958j3151K6807j2309J9788l4553M5600J9704j7068Q5932K7991
28927B22142L1666J2222l5726O470j7425k4190p0839k0923k6734Q2171J9532m6362q071L3735j7449n6035o5160p749
28909A1275J25575P19k4787j7946J1470j105p8352O5458K0856j8729J266Q7089L1737L4921M398o191K8307l826O060
28890B78195p3687J7666P0814m2836L3330k9399j1294k3053n9330N6560o8353J6606M885j3080J9271O5136K007K7892
28872B71330P428Q3086Q636j6743p5452O566O4804K7228m8123j1298P0440m0288m4953Q8626N8792M1928K6774M3988
28854E62769P7111O9424P5430J12688K16499J80033K95285M74994N32101O62387R27849J119550J170070R47830
28840G424020L91296j53401m42298n05389o9752L14078N53477L86576l11455p98414j166237j220705r95242o50495
28826B756059l85464l24174k92318k22747j60815m7890q5615L172k8979j9879R174Q3713J66257J82523K10640M06583
28810B250240N93248P84391R48286J047786J051181P68693J40863k93842m92928l61547J404L56678M64036P5780
28796G334269n34003r41277j299312j022486p78590o22449l41284k77743k26992j90760j81944j06073q3154j01568
28782F26634p9760j3191q2179j4984k9807J8009j3843M6033k8781R522J1044K2857p300O9227J6191n365k7656n4389
28764D62262M8797K4956r3022o3539M251j00012r1803N981K4211l404n9860o6373K828o679M9112L4621q7639l0757
28746E3931N2880L9193K0958j2901O1864J1549k556J23785Q0071j1310m4132K3962j2969o2760J8733L7014N491k1216
28728C61587Q8686K0941p3637L4480o6545n6608o8027l1631L1095k9017j51605J083R876J7779k2217O117J8385K133
28710I2875M2272l8367l6967Q2477l865N1327o6508j8786K3695L411p5539M8866l8047p9143M3750L3277L2102M167
28692A00997k8377K6538L1200K716p9116N3763P5242r272m5902J9635l8094k2832K8349K2286O2636o3202k0931N7573
28674A73209N6241m3337J5029m8935Q907O9543N9371L9601L7636L2714j14536o876K2910J14204Q4429j0835K2400
28657E11675o4321O5109N570N7394N0801R8036J07788K62319K82767K53886L78472N15601O25518O48274N43420
28642D342309J15094k09164l31822j84328j347K52925K80929J3204l03788o01274p31477n29830m30247k93853j85280
28627A202051j40482j03827n2462p0177l4731K5356r9645j06190P7739K4179J32258R5701N6794K43614L64373K90461
28611A905012M71788N68772O56290N14896J05693j89380l22107k45727J10403K23623K22626Q5664k39712o10260
28597C257581o90514n74519n18886l00153k43317j75223j12875m0868l3135j45481k4437j1958j05988k5442l1421
28582B23364m4401j851K8934J3977K9543R919j0226o4975n3809j9178k6994K2629J0954p219P4474m8872j0199q80
28564A25190K9006L438j6047K1933P9812q982m4480P4502p2702J5981J0883R173q1470k3771K6199N1926K0766n391
28546B15966N8792K930q176m2057J3800L8521Q2q708m2276k35p872Q2463L9015j04206o7727K8200L1695O661L8677
28527B75545K4695l9704M3086J7777j9413K5264M0974K7404K523j7127J6301k0522k3398k3836N6523M2598L1842
28510D60532O9231n8263q6236P2442M184L0693R3040L8114J6383J9290M0028J10256N9869J5171L5058M0502J40547
28493A100841O1863J28903J18734K72887K52279K70439M16859N47805O86535P89818R13838Q33209K52953j92630
28479F454333m14317k14377j522L03835L62124R0352m21041q68494r55496q55785n60715m27013k47741j58661j69588
28464A915894p4889r6382k2818q361j7139o3770P0183O3922R4326J78367K09528L42632M46519N32105N84556P49359
28448D904032Q75769Q17162L85279j29832m19059m01371l5304L04283L17787J35552k30606p09663r73611p36446
28434D103972n41935l86351k78548j70592j00122r2713q3959L1286k307N0738O8827J20442M1188R7860J65352J31189
28418C154327J85654J65425J00153O2388K41019L73318M88557M82503O32678Q55296J213843J672986K203009K946894
28404A4778050M013379N122567O297275P299090P363673N378257J074188k162824l593881j961173P54402K774546
28392D7137549L048284N87348l876593p216416q464223o884726n024540l557210k442832j735920j218128r70152
28380I382441p25800n56423l90480o4571L3521K32803N69672Q68024J333706J888359K689238L611899M681044
28367B3553433N819624O869440O911488N223659R98808k264751l807466k076871M47190K376721K675797M86706
28355D7213778l700532o879803q128521o660687m999606l529650k567853j869715j378049j044635q45814o62125
28343D946788p09910n43870l77131l31876k51363j91302k34776j66726j56442j93486k04140j59278j20488j54781
28329A151219j20250K854o3591j25514j58668l5643M0046J5792l0615k9365j3138P63k9014J17549N3652O9238J55968
28312A001283K07678K43031L82829L23333K20669k814j20437j61520l1567M945J60660J20152P3219k21731k41069
28297A958661m19958l50734k14051j35987j88915r2223j11509L4993J0510j46115j4912M0433J3933j7277N7603R9229
28281E23681P0644P7128P5967J23003J89706K85264L07282L01640J29995N4688p0934j42547j14269o2630O1421
28266A810039J88465J34755j58219l41085l37110k81616j94833k23490j92920r7796N379p1777p0974L7730J0506
28251B17054o4227l4151J5222L0766n0851l3904J25383l5422k7032J1996K737O0149J0167L3548N2950M2168M9568
28234D06121J0671L656p0227j08607O1438L7762j2473j0827j4933l955j07146r6960q3899k3186L5745L0743k9401
28217B4522l7993J5426j3856Q341k9552K2141M568l1176k1506N132M3718P2546N9950L1313k9634J14666M9163O3198
28199C50967k9542k2153l5730k7507J16489k7198L540R629l3862l2551o2463o8689j05971k6705n7868N4555J1681
28182A6622n131L8153n514n8248L5284n1841J4596m2510n0057Q407J039Q5894L1502r3893J8530P2695q8136k2847
28164i5455O7560J5974o0020M6758J6991l0251K9004K6695J5703J3273J8941L6688M9144n8760n6875m517O3194K343
28146I6390l3281p630q7485k4732J2162q782o7364N8547l4874J7404L0853j1141o4676L475J18180P2247k9460j6894
28128B2939p0254O879r073O0285J4000m3334J2906M0457J8816K186L6411K0133j7579n337J132k5050J9289K5201
28110A10007m0583J6795K1814j9182M170m6915l5276o3046j1407Q9489K1164l7778k2591K804k2089o764p189N8148
28092A1571K901l7378p2450J09996M442l870j5109K5148L2616n5831j83K0532o6892j7397J1279K9106j2050l0075
28074f3644k726N4921l9903k632R004O7100N6239K6898j8920k1658l4049l5308k5001J368l2177O1907K6754K6173
28056E4346n7754l5289J6644O6813k4604p8783L2827R539q6753q013J07827L0113O7401Q4324m3039N8850J5557J4535
28038B24541l2443j8613N277M7139k6461J4943K6822p096R327J2287N6898l656j4075l8244j5152l1037j1713O2850
28020B61594N1313K4956j6208R707O941P2203J0598m2503j9544J59199J97345J98549J78925L32177L97879L24928
28004B148059K54206M5720j20156j03900n4893o765J65449L1917k66k19702l43182l23523k73586k17415j74586
27989H07377j52697j01816j7599l5147l8751m845L0693L2349k1301M8561j8841k6315O9952Q0367J22507K03182
27973I77676J73686J44473L66245K46983J99931O3900q5978j02291j02780L4428L9244J41069j05k18370l67516
27958A510595k66703k89456j73173q4655j04426j20849o7147m6729l8389N739M5836o1457q4840r4282K1613j3317
27942A38360p9485K4727k2281K1966p2939J1213J2168l0893k7382o2634l6441L7539K3333O5414l0302N4771J4322
27925D1456N5758K8895k2318j7872L3303K1384K1355m1491m5388j0545O0845N4359L4897p4322l6226j3436p339o048
27907G7267n0782n6600K0904J8519k9783m9005K1647q638P86j7469l0452l196P9212q448N4374J5153j54261j3906
27889a34678N7408L1805j0470m4665P6082k7580j0411K7083O6700q5924J9889J9348L3866k6670k9351J3979J7291
27872f298m3685k2426O0523O1743K0338n0053p324q4960l4247J2007K7477K1006p4961R8688J9497m7031J8388M678
27854b6640p866J8252k6300N766M7819m9096N6649m4134n2820O0530K831R921n0296m6847P4015k3249k2124j4279
27836h7868k3645N9146K2114j2292K9446j0480N3082l3986k2273p4972k7238M6933M4406J8046o7136L9685m3811
27819i0843O2792Q448n5072R208K3299M2456k9656J860j0323k6611n7542K0220N8202l4549m3861L1425N676J4217
27801g0654N6620l1201l4506N627K5890l629P8279K0241n8604N091l4434J04075j02408k4871k6622M1824P749J3463
27783b8070k4558l1325J0136j2866P1701J7865o5241M5535K00n8193P9565O809q6793k6259K4913k4123k4749N285
27765a20168k1657M0862L0164j5693l1801L1536L4706Q5139n0823j48122j3198L6377P4981L5898K4057r2734k727
27748a03203M1235k0793K2471Q848N9035j6649k7406K2821j9099o3818L428P2268M1280j07599k5477L0836O7963
27731a3859M7102n1363R359k1508L2563j494n6056o5749m151l56N8379O5615J851q9015M7679l7174J0318K264J6080
27712d9515L5643O325k2150n0854k8130L9423Q869K6228k1633l1182k2266m072N1458n436J6243K2757l2119k9976
27694i0387M5460n8832j8985m12O5284j7168o2511N2590O26R377m6957K8133J17089Q684p5000k7013L4162m8384
27676h4244L9915j3108K1712M3057l7231K1362l2871k5381O1190L0246p6508n8739j2450M0443k706K6756M1929q5417
27658a02045L8848K9893k109l4665k3313O1632J4942J5997J1385q156p901j5059j3495k5662l0637K212l1904M0893
27640g9144L3180K6118p0318Q073K8290n9484L0031N9228O115R278l7472L466M7118P219k0185j1244K7877q460L6220
27621C5906l802n5013p4159R5213K5435o8306j5759k2166m0700P059L9523L3439K0554k9430L9161m2014J9971r78
27603c6066J9340k2387N336K5835N962l1384n0858R6754o7939o2182P1059M2L8920n5260R121j457j6689K9094L988
27584c8771K6114j991k7326k5728N5292K4976m6910J1903k7148n892k5768R4705r4711o0356J3376O7832O6497k07
27566E887p7750J3323N5131L12k6323k6928j2717l3303J3930L6965K4741n2073m9315J8807Q3743m6521O9760J91
27548b140l7891n9017N2089J4010K985n7844L8363o0668O80J19956j4574l4366l8919q531l9930N7841J7534l6189
27530h6611k096J02651n8933j0174m47J7913N843j46k8264N0282q302j02272j7106M1405k0355L0780N9963q5580M449
27511a07000J4403n973N3944j5233p761J9711r8213m95L5645J6401j2020n7238k853N4199P3523j2502O3473j0726
27493A285q1523L3169N575M2639k2022k2193J2386r721k5150l0883m0740N21P4144m701l6200K0359P067j1014O2842
27474b4160j5752l8499j0175J5260L9417N560m5403m2246K458M0976M7050L091K9402k0649q1413J5734k1807O7061
27456c4095n209j5254Q5162m3037J4176J2924k9590o8564M036L1855p75k8463N0282j1143M4484l7798p766j885m2176
27437h2836m9124L3097L8778R575l1835K3615L004l3688l0123j120O2688l8560O6603P777N331M3099N9781n6550
27419B9512l7699k6227k6978n0741q029M0496K9891l5543K3206l7652J9578j7628O791N4239n8390M1575O0836k9293
27401b2056J2121o2822o0921M9763M7690m2613M939L8175j0365p536J3497J0706M6135k6834j3307R73j4773N2298
27383A5070j727k6682j04474N0407J4760N3469k7816m1737K1603J6937K3608q6213N6320j2927j4462K6038j0516
27366d8342J7534N5037N2226R637l4642l6254J9421k8506N2647q2j8352m4618l730K1661l0662m0480l2941q636K4077
27347g5005P236p3403k5196O7496L0214J0006K2853N9752k2221o0458P6925J8459p5j1280o1174r192l283M1696o3893
27328g0543J4198m4561O690M3660L9405M2544L618j6187n3232J3450k4114m400M6404j8578m0310r7339Q3074N063
27310g1158L6690p112j8492j1604l499M046l372l5879n6119J7906L4948N3903l0190J9074J3275k4922k0245J8617
27292h4133J0886L3809m2834m4509M5253M5469n0439j7761K6917j5964K3765N7436n4133L751q026j4220k158L9607
27274d7284m3076M6478k7840J9780j6848o841m429m0352M4235P7142n113Q923J649m3812O4301k183j22805k8787
27256a26862O0946L0353J3590m4855J548K3746K9283m6834p8647K7747L5162k5593J8468L5347j2224l8348K4273O943
27238f5957K5013p944p544J0660N0673j3778L3321l5730n7147L6637o300l7953M0897k7747N9233j4423r0310M7504
27220f0895k0563J580k2758N166P567J9203J5146N4243J9881p2816K2696K1001o2199J0748j17309O0521M2617R9837
27202B3666L9676o0611M8047m8599n638o1640o8588J01866K8630j6560J1519L3087K3685l1919j5297M238P3558K3449
27184A02569k2785m8245l1414j0483k4169J5357L4437P637L0415j00567L4060N9381j9909R637o2669o6833M9358
27167d4223O7412l9299j2931n9639k8728M2356P5975l8032m5707M7786J3546P3766p443q1149N579M2827n206l4450
27149b7560K2678m6010k9903k5261L7348k1664L1824M0665j4455M752N1962k8086k3795j9707J0404m7569L8929o6336
27131a11784k3356M4677N7891O0892R382j8577n4899p8650k533n387J16986R494k2527J1310K3978K484q185j1816
27113f20m7125J6077J5266m5157j1780J386J0989O9647L0597m9917o6614O5554M6941q464n5797P124K99m6777p83
27094f9154Q1537L0715k2533m6650l3144M8108J6414J868o362J9602L8438m4174j8213l004K712K1058k6483j6748
27076b6013L0478L5924l3733O0021l1294l7879L1144J3881q4503j0775j4139J2229p692J13640n6829K4233m3734
27059b5041m9327R1020N3996q9777o5061M5071Q0750k5014m0538J3812o1691J4234r88M7804j9772n119m7606L1387
27041e1860K4330k2135M8462K9741m0733k4521J3464L4806P163p8982J490N7109j5524N362L4902o8266J9943m9353
27023g4602L582N0091p005M7435n9578J08867O6983q5950n016m1681L0881J1038j1728p6010L6325J0436j1413l182
27005a0527N9474m1475k3866N0636J1940M332l2427n4023K5861p3582o528L2376O0545L2481o818m7787K3079J4445
26987A8136M8221l5763j02220l5612r458P0654k2536r130J0397L9284O445K2731N5209l0315r7247K4723L5884j2887
26969b3484j7764l3531M2309k6747m3128M969N1693l2730L6596L2959N3118j3871k1468K9406K6368l0766k5556k8237
26951a9864m6956M1185L8765J3744l5841n269m1395p090M4335j0100N0055n5955K2706K343l3679O1347L6042j05891
26933e1518k3147n794L9496j054p818L928j2826M7652L1337L075K2150P31n9913Q288p9981J2064O2018m2512l6024
26914h9848l3533K8255L0849K6535K3253o0462k6327Q4278J6485P7936j358j2053j1451J2584k5663q2636l1297k713
26896g7166O179q121O00O5618K5325j183n309j1043p869K2657q5583j1617K1430K731l8818n336l6344R431L1322
26877a03096R3483P2344P177q5089k7539M5354N6174p3496j7371M6121j3832k770J1929k2929r658k6794j492K7678
26859b3806k3780K611k5797P877N6053o2093K2951k4562P6390R131j1043n3819m2167J8512K7271j6350L9535L7746
26841A4660J0385j5120m6745J6935p4192n241j8854O7495R7112l9687L1961j6032j8455J3693M1867l5102j1160J0028
26823B3548k9210j7469J9565K6469k0607N2283L0728j03644n3938L4535N14l6644n6036L0341M1660J2407L3442K0141
26805H085k5228j01096L4884L8375P928j8489Q795M7467m9410j2283n808l7356P8988k0684n0916P382R702J2696
26787f6968K2014j357k7161m1336L2406J1870L0813m2195m6444M8131k8170L5657M3471j8603M4955O5407l3893o2077
26769c3480R914K101L1679J7076j08149q866J8804J0869P706k8573k6629N2639N0533M967J603o1646M4425K6841O637
26750A8451j8707n2825o071k80L3375J5164j0103o154K5091K9868L4904q0834n3029J5753L1474M2223N934l3122
26732h888l4588j8655j359R159P3303j27853K3794N7693Q7670n76o6030P126j4470k3136J2086r867n0597m4090M5855
26713h3423M8841L1649m228n4882j7170M6447O5253o4027k3729Q6692J9626n708j4014K8975K334j9784K0103m1193
26695B1762R732l6068O122k0434l2106l7556K1892R06K6915k9655Q417P898R9794M265n9717q4431N2513R5294J5349
26676G0892r944k7855q4386K8701M1779k1863j0652O8276q2287m8860j4208P4985P088n1077O520L7708n6722L880
26658f8025L2653J3949M0978m0304q9534M4748j6297K3578l2702o498O3682k7076j0454M810L8720M0271k6375l5082
26640d8958J2984k5231q055O0974k5740K4128L4580K179J8667l2739l0288J8112o1444Q3523k6895m151p555k0931
26622c6840J2576n6482J0986R079N4425J7983K8294j2376m1492J4194M2443p1314L510M5338O638j01093Q938N5288
26604i905J3144j8319L514k8777P615l0661j6513M2240k7701j6172L1149k3743j7886L1456O050J5234K8115O80k2476
26585c2956P1K6395M8278j7673k7407m5835p989R017M575q582K7615M816n1156J4686J3695j7005J14498n8988j9194
26566b3139j31197P3837j2495k6854m969M7888O3803N0974j20633J0237O2817K5194n5468l2389M932r8k692K568
26548f7684P3475K8381k4599l6087o8174M5377N803N0253k8275M7821N9505n0959O931Q2572m4986m1506j00073j0803
26530g3028j3455J3561M9515K7835j7662r1206K207L1222k7610O1818O0964K2923k7501K7579n0412K1477N0232l5531
26512C2928o2437q8698O6287m8109n347j3941Q1336J4669R415O1084J3051J0376N9653q0128n1750j9638N464N2995
26494C7210J4289o5180o0238K64K5674J4545K7698J0029q8930N2225P0098n2041J4988J0593K8764j9006m97L0523
26476E1008j7478m3947K3637J426K9610j465m7474N637p21n8873J2596L6723O0014n2271m0003q0614R774R4023j3264
26457c1662k7517K8413l8644k3361n4516J2113K4537L3612K3368L0747L9943K8119l8338k9701L1390O885k4360K0440
26439A1468n1186J3094m031L2422J105R0006l2993l5916l7653k3057l2837J862Q4100m14k8245M102L034l15M2690
26420C7236n6509m7391o008P1645O1046n9489K7973o6461K9060J7245P363j4504j5487J4128j4672K5660O402m1412
26402b4175L5082L187j1856n6226J9603K5632l7723l8408P0805q9840O9106K6836k8929L4727O2670q0175L9451K8679
26384D8446n8985K6809J6433M0704o7020R18J2969K8417L3713M219n74r8929p4885m192L9044J2121q982j8216O544
26365f1446M0290M4577m6415N3422j3796M6883L3568m1082j0595k2012J7954l4878P221K2306p6346O4124m6751m6032
26347f9008L8635M9540l4840J623k7211K3464N0457J5959J5927N821o2519l6912k1468O9634J4277K1175J5493m8997
26329B1050k4617l5600M6920L2358N3125J1174K182n0677j556k2717J2377L1154l082p2869r279M1508j7443k4782
26311a0774k5264k3158M4870Q289N8477p495m837J0604o194m8230M1287M6414L834m6608m7994M9722K5198K271l4317
26292C6095o6452j4412m357M102J14771K8900o2668k8383j6556M0392m7090j3130K312M352K1192K0863k3800m5157
26274d9026K6909k970J742J6945l62J5286n3483J582M4744M572r506n316J6179K190j261n5843J8017n065l8861M1340
26254c2187P9899J581k2445j6002q743M9284k5880K6368L1124k9334j4950m4528j6369j5733L6734Q940N8628m5879
26236B0508L6540J9850j8036l3927J8304l495j5239k7249l1612J00668R260L6773n3408l8924m7635Q712n8401R004
26218f8307M5918K0P2346k9907Q842m3042L3434R8735l9327n0371l512K9212K71p2862m2109J0957N4404K1011j28817
26199a03104L8723K2477M4600J7368l3748o143J12626j1234n5110k2638o4201N8642J5328j6826l0267K7731M2178
26182C6402n4774O9293j3163p937K8393K4792L4227r0540N8507j7656q8138L4594Q8752j16516n17L4390K542k571
26164B0080N9924n3431l7207Q905n2858m1494Q717M1327K1888P9981L3189j01871J1451K027J4867j4918j026K3835
26146B3386n0233o58M896K6949p2601K6872O8426l4554N406k3627M3429N1512N771J4515l1895j851k7597k3356k1284
26127a6494J0965m5535N5901P400j3625K3363K8455n2016m3261o239O1103J4833l951k9684P668p2601k531M8831
26109b7418J11326J1913p1699j0569l0309J557m9177L1501l415O020J8803j952J8583O2263j1557j05622l3652J1719
26091g1685l939K4983J7677M2927l3032j2262r203P6014m1452P92m489Q663J4982J0121l3027j3256J2826N720m9056
26072e6696j49k2116P1181J7221m011J6357P9794J6766p6141k6398n4853Q1128K0904m66O347N660j01473j11773
26054a38718J3717P6704M949J1586l3716M375L2074N5611L3074r671J7090k6962j8908m9470n1980p867M0977N5410
26036H275k9674k1126M7116L6358M1867r2224m1824L5952J7108J9425k1789o0541O301N3311N8702l66K2268k8609
26018E0530q7759O1599k526J7031N3276o9752m6489k6464K5978l363K4601K580k6150m3215J4237K8982j6016R0113
26000D7193k4597k2238J2024L6450m6635k0300j192L6601L525j0472N4197p63n4116R8520n0471P153k4079n6159
25982a5359m8248J8713J2202M0539j4526k6204K3331j2800o6835P8311j5692r777j7168J484M5235q346K011Q0594
25964F7465J6706k4330j9239m979l6106L8497k7506L3665N4974m4238m5718K0948L3504L1054m373r6046L5911j4698
25946A5491p4112j6593N1706O8514n7994l2376L3856m357p4199M5555k7991K2920Q0455j287k9047k9931l778k7284
25928f0452L0657P4097J3574L738j3366J6087l8880K6333m8812M8174l2825k4560M8268j3872m391j1874P570L1217
25910E0683j0914m7194k376R779M6131j9600k2640j540O3000j170j947l3769J2071M0040k3987n980m1287m6990L0317
25891g373M2570j7273q603O754j5452m3142K0266M9979K3899l0453k9921j5124J6487M2873P6152p4547n0480J6185
25873B797O5922k6861j7519N0619n7048m3949K1893k8397P4250L5525r6839J5879L7978k8045N1503N0049n8843k6969
25855B1945J8768R006j9762j0910k5218R3267l6165n1318K9067k0467m9243M9163O0237n0294j3209P222N9540J4936
25837H6565l4288k8234p1040O529M2323K0133j7652J8005k9928n8623J4471K0574j8465K2685J1112N7481K2104j8274
25819D5478m6902q038l4429N475l7534P567J0930J1568N6383K925k8614L525n3086J4964N1834k5945J2056K1012
25801I169l2059k8372N0946k298P548k0745R651O2155j21285n6077J05117O0253n1379O36j6770k7512j7460J5699
25783e2783M3986R458K9328j0257K0180L2831m4186J6071r2708K4080L3172m904n3109m7091P0682K0073Q3232l8206
25765C9849k6405k5747j0985J223K2941k206p353O2883P7731J5921j21303p678j8168l4766K2662R533r522O0486
25747D9096K0769l8272j6753N367P2205j508j5457K1137n1209m6470J8452L0549J447M1004l4064j697m3389M4961
25729E6168K2149k3924l7110l5862j2315k4652O1066K0388l5834J3654m7539j4367l3518P2116J7303J6312l7949
25712b3914l8381K4820J190j9050N5688L1923m744M791M3782J8018j0068K1061o2333p6737P263N4580R453K025m80
25693C8887M4845j0664q7875J6865K1437n8111k4267J1631j1363K4986M975N5999M267K8916l4017o4368k7613O5408
25675f2K9936J9268k7069j7568P886l313m6114q433k3699l231N4020K1105j9224P9107L7169m387j7515K717o6683
25656A3910J8395R538j2168n5259M2216M005r850q0112n746M1305m0555K0308K1997L7587k6695N5433k9129K333
25638G513K1484k5399L7632K7053k4796n3662r884L5225L0546k2230l8738L2392J6327L6524j00547j1862M2407K262
25620B247M0420J7644m6722R576K4047j0807k5834K3391k8636J394N4596l5065j2349j1806P8221j3954p5731p7086
25602h6454M5793J5644L431Q351O3420l0819l5094O5469M668K708l6844k827J4332M1481L843m3536j7003m2084M4
25583b5477J4662l1246M4537P8736L5899j06203l6203J6004J7231j1624J5418L1270q326P363K8894J321M3674p7081
25565C8849J3026P99l1708p809n4804m8088L0039J00109O269o087j2743m0002J6053k5757k9815m8366N8481L9974
25547a580N5977K9853Q807k5884k4163l4748L5326n8434j4443L7443K9051Q0188l2346m2923k0687r1912K7293M2414
25529g68M452L4334J3781p0702m4083L6576N3449M2444o4141l6415L4426m1951J16914L7924N4404l3868j32750p919
25511c893q049Q799J3195P8059j989r0291K3749M3803N2937m0371l8936j812j343K5230l8366l3598K5445j0358L8018
25492D0229k1112j8859n3078P5308O6681K4205o6875K7349q1568K4305M7903o55o8817K9916J3302M0888Q32Q452
25474H8406m3330K71K7001L486m9898l700L3557M1379J3826r8374k1033L3806O429M1791m8500R5168n7495o909j7157
25455C8724k6962M2557m4142J213N8544N451k8227q921n2269J588k11j0715R22J1454M8760J7489o2523N2195O263
25436E1190j3814R3065J304q5606P5099R686p7671L4815l0988l1168n8337L888Q1612Q6134n2464J6258n8102o396
25418C8505m0295J9868m0903m057q558K7420n82k7645M8403N9183L0291K5544j316p7521o0302J0504O0800n3168
25400F171j4263l6522j7664R0043j28295k668J00292l5522M240K9880j3204O8956O3345n7360l8428j1060K1231p3330
25382d4158J7731p325j3283J5795O3062J0205n1351o0547j6739M3483M7974k3727M878Q3796m7675n9363j3671j1650
25364f2565M9068J4638k2262R658K3974J9599J005K5406j8490Q2298n4003o6686k2504o2448J7051L0678L3107L0462
25346B7986O324p128n5169L4846N8803j6762l3997J9729m8607N0242O2993q924o8074n3762q814n167L8285K2669
25328A5473n0777K8461J0247J9873Q0860J98l4773m1017K309l197k5905L3127o585K9097K905j2501k9224q958L0454
25309D0067K6034j4851j6808q91j3619P3757j0525l3558m6818K6092M6610J5607o0227k3579P2558M7135n1058n8822
25291A7104k438J3803M3629r048p7205q342j7976m746O1403n4955K3057L1667m681N181n0128k787k9108N4749j0220
25272b1041p5892O241L8905J04785r829O862L4201N7970n2491p8017r586j0906M8475Q884P2676L480j25362k5033
25254b5678J3117L1946M1052K3837k7563q185J7183p1749l9852O914J06410j304n6664K8686Q059j03084O0074P5806
25236G9005l7106O3328j5763k5573J4551N260m1075M7000K7183o5772J4506n6676j08376O5198J4765K4396o218k8297
25218b9664K9786O1918k8921O396J4564m8799N588N5631M8836j0711p4418l0595J2253K527j1305j717L5313n0679
25200a3997J9331L8672q132r859R857m4622m1299M5363L3121L4362M3312K866K1550q1748m0948N8389j5354K478
25182E3342J5905l196J9278K8917O260k9652P82m0374o7184j8516L9395j0616m914m67N849o4877L4638P904Q504
25163a9022l5787M592R4316j4730m5117j4815j4810k7150Q1321L0408k3641O777L4904m13j4591j330J4585n8806
25145c309p7670K5829N8998N6038p387m4760L7003L1979m5588L0761j0677m123M2266q3440l287K5822O0965j6870
25127G2550J906j5853n2329n5828N3895K5248m5411K4447J2327L2951K4827O982L0519j15643o2203K9651p607K9689
25109i882O5740p2402j6186M2164P6094M6205m5881k4702L8239K0279o8552j1795K161R465k2778r3448j2304P929
25091f9654N2845r66O25O0892j9022K9691N234o7732o2376J8757P4326K1472k6795J1552K3023l293J18964p6941
25073I0602n5799k4588J7227O165k0352R1422K777m4999p2046K4368L7584O5506L5540p9795k2914N576Q717o683
25055E8308j3426Q108m1544O494m1085J209M8984j2780k941Q0940j0181n4386O1140K1651j01366J1793P2347m7434
25037D5831J0458O08l4445N4197L0331j4840j1108k8924p1295m263k7928J9610J04001J5443j2010m4642J04391n0858
25019H4557n4881j1273M1543m895l1331P04O7176j9470J4670j049J1402m8264j1769Q082m4311N70j5141K0808P5796
25000H2924p0110l8522J01347M0769l5314o0614n1928N7579O0094l1297k6147J3083n4577k1858J17892M7762L5429
24983A66512j08323M7907Q389j10697J0604L2755K5977N9733k0798N148l5104K1789l5080l8187p6645m8355R3448
24966i27j9797k2353N8673K3404j5484J03322J368k8509k7841p1219k4368J2758M6906R640k2010J0826p6K1009m828
24947E0494l0437m5027K0639N2941K369m4927k5064O7432J8327j8789m2880K6498K0287K1434l325L0536K1084m9587
24929G2005J4249m5368j3128K2333M2114k6437l3518R2753k4376j505k9496m8229K4849J8821J6922j9708N963l3622
24911C4622m3580K1709m4492j2269K2695J21369M8956m1034k5417q3439K5006L2335k0778J3992P4699n3281k7710
24894D3383r1136m175O3297Q2705o0493P0718J7283n4679j5303p808J4420j8550k5493Q972M2435j8242K6562M350
24876G8246n7368m2141O4832M3655l5692j5783K3837J8359L9651o4253l326m3851j5795J599l5546k9829K0919L9078
24858a3408O211N3441m8642n8731O8513l203o0916l1714K7242M6366M8847n786M858m0603K4212l5641K2397l0381
24840b6938J7426K313m374j8895J2473P2865o6216J4587K4525N0327n224n8261M9747l5085K8166m9892M8616k8009
24822B8151k9149n2560O7362L9576K2708l1432n8062j6354k1804L9362P3113N8698j0043j317k5238J8106o5688J263
24804C6692k3972j0573Q813K6139l926n2007k1160M547K61Q5503r90J4455Q719j2553K5677o1931l1491K9192J5444
24785C6839K7412k3743m7472O178n4920q187J1823k7330L3314L6345k965j2028J03003l445L6211O0735j3431o9353
24767H8986n7762K5778K6006q816n6147L0520o4950O664O3458J4332p6386M7448L47k7026l5472N7429l0092n199
24749h82L0303J5119Q2614q3336j6186M9055J3817p1993K4854M5609p290p089p187l3548L0807l4724L4901L2746
24731I7590o5148o3726N7436l6437p197M7991K2728l8086r297m6657q648j8048J13225J6869L2021k1582M953j863
24713G6124J8069K1840l645r6817m4810N8514L0741N7406J9438j9369o8068n5279j9620m7086L7721J13152R155l7081
24695E0385m1747K1773Q366R708j6773N0381l0988n4796L7282R688L8155l1018J5734k4913P1337l0576n012n2077
24677B4909J6031K0163Q3188o837r874j8750J3926l3071n1893r927L7043m5336J387N8761j6698j4616L5476L8424
24659A22306K9828r8539p4924K7446K4123M1376o7953k418N8307L3748j8490J8801m454J4262p67o1545M4733Q578
24641I4418k6355n955r262l8925L526j6059M9873j4890l9572Q7513K0362n7215j3144O0080O2958m7432J2711l6031
24623H6601k7923L1476m6540J8287J1888q744M810n4102q3807M2427R8598K9440k3871r550L4798k0281J3015n823
24605I0699m6244l7457k7057L6570J5398j6964O3269l9372o1120p0824O663N4931J6885n2333q0113N4271O56P2449
24587a9693O9479p874J3314K3041o7913L3170L4363k6286o8200J07639K6549K1681M675o7533l7106L4378o4834M8122
24569E6972j6154p03K109K392K2084n6232p9151k7771P8754K8802M073P4055K2507k6286r914m6005J9343K2002J9685
24550I0562j6508o455Q9037Q448o4676J6052j2704p986o0017n4078l3249J4464R382N0968M8967j4386n371M872j8500
24531C8822k780o0175M9141j159L9886R519o15l7733r824m5245P1484j7273k1943O31K5948M3932J3479l2654q1415
24512a7974L0135M5089L1683k739N9528p7290k7060l0880L4963L4729k0338l1123j2061k4970N704J584L7985N5442
24494I2407N88L513n0899M579K6903j5995L5177j0126L6025n2015o5508Q7303J6621p1242K0304k4995o06L280J20197
24475A55511N4987j54040o7132N259O231Q160Q81Q9411N6465o016l2593j04702n925J4556n5189N2500j722j2537
24457D105J8678L6059j8297M5936J3246j1304O15o1450k9505j6821K1544J342M5514N9564k6922K4841n893O759m2917
24438F5094K2564k1229K4350k1358k4302Q391P0136o3864k5796p276K1396K3187J9099j2842J1403K3067l081l9080
24420F9859n1404l845P7476o9153k3989Q088J9728K9123l0696P1916k2207K7667k7701m6089j4887l9106J4547K0037
24402I364L6431m2093K8590J7860L9059J506M9075n5865m3904k159j9791m9984O977K0005j4643L6883j6563M5296
24384D6044Q363N106P475j10087M3866K2612J6204K2056K4761j0394l3831n4969J9658K1036K6378k5347N5973q233
24366G6671q1949r2727M041R8940L5117j4949k8975J5293o3264K0118O7332l7800J2712J0610K174O157j5932j4983
24348a414m8954J42130K9502j6615k4275Q635J6168n860N901m9121l5866J6031J8434j6230r877M0828k8039L7730
24330G9108l0882m361K7016P0245k931p6436o8359M3234P568k5722N348J1238J2933n3815k7732J28909k0869n0395
24312B4097N1183J2406j7497m1456J9112p032M5430n381q616k8875l1158K226K9454j3257l9684L544K3935Q7443
24294A05874l7438l5665L363j7919q350P2006j2046p6928N4480M6483K2180j8742r9531n9279J07928j3766N4344
24277H6994q2384k0685j173M0421J3303k1871l407P1491p2551o0177Q4252N1628j3272l8555M0397K5912J0710p397
24259A03636P0155K8311q2979n6828o8885j5697J3018r741O2550M4679k1961L2556l6357o0560K5104j2253J7799
24242C2547L2219n9613K9541N968j9903k1394j8275L888O9810P406K4411j0357O673M6783m8384k0972j4403o6395
24224b0450M933N0156K4754O3632J1796m6175L0448K5643k9876l7630j1972q068k6176r575R298k0801P1308N2219
24206A33464o5390j8783M6456L6386q740k570N829p1975n943p5718J6817N2597m4549P1955L906j9259n523o057L7752
24187H0655J4022n9403M699J1122k7573j506K3351k7141N6497M0556j7890q698n2165L2273j6510J3226M7669l5596
24169G7588m4685j0757J3449L9490O475k0988L184m9413o266p0425q0345R7344P3363L0238n8135j2468J1095J6026
24151A4770L3591l6759m5308P2427K8326k7517N162p7647m1665L0087M6527K9814J7396P5653j03779m6102N2211
24134B7187M0244M3004P315m611j0036n9633m9415M221N5028L4490j6744n981O116J8347M1404j6924j14926M6075
24116D5161K8664j9513J3991M8538N877O33q953N0869n5580j36726L010J8274M4269J7582M145J3889n6521n2319
24098c4710J9674l7310M4734P6065L8255J95K9280M978j781j5590n5116k5822N12J1023N5744q937P647l4268o4700
24079I873P434M377P6335j908r43j1993o6899q617L0794l565m7479P9306J7455p0228j1221K8401J8951j9772n0874
24060b0573J1900Q3632j1664j0680M4265o6250l4344m488N9660k2654K1931K026L1168j01421M0488L1837O2952k1673
24042I6112n867L8146n613p852o1384o1462K5718m765N2659J373N1122n4798k4479K4637j230r091J322j8279k147
24023C4122N0848j3132M826J5848J109P1932L0434p1536l0526l0715p1322K4437J2706l7529L7519P1257R752Q567
24005A18597q736m7997L5471l4630k6527r905K985m822L8039L0523n0830O4192J4129j6586k4982l0335K8100Q384
23987H5070L783k1365k9390O9142j3205l5827k7128l1623M5836N6988k2527J2951p019m2171L3100L3005m6483k4009
23969C9128m007N1750k0445J655N178Q895j0913L2604j8227m8954l3841J8473j3095n1359m0194K6070O2855J5413
23951B0986J0058N8363q939n0744j9562M5225l1272J3038O1096M9783M5153p6367o4676J3075N5203p9778O9821K1854
23933A32317q0464O3396O908p3275m3383N7035J890m2747M1532k3021M77K8835K189N2422o697J6346n4016P3298
23915A53042o2189m4685J5123O1135K5928O384m3411L7427o3005n89j7282q965Q0252k5228j01461o4339K0690j3134
23897d4307J37712K0235K0232q263k6137j6048l825L3203N790l8643K7706K1785k2707r3814k3289R5375j933L228
23879H6300k4894J7759r225P134K5824o5561j5081M8983k0311k9500m3100j2379R128Q4571J2300n1609r68L1423n130
23860D5664l9869P5893K5431L4763k8089l0948j5592l8812j0557m8836N7423m344j1906k0336L851P5141j2726J1393
23842F7544J4833M1733L4106j3524o4184k0058K9064J4214K6633Q733j5335k1955J8391l9105J981J6256k1577M6051
23824A23801O7045J2071j25251j2364M0047o1228j2865k0306K7665P217n2345l179L8980K6555k867J7343O88l2519
23806C8488q583J4559m6573m791K1144J02197p331m1989l7047r010O8556K6036N0923K7410m7481m9191L3834o5627
23788F5524l1494M0632j6534J3j266N6257P396L176N5682l9556k2341N940m8185K4760p709m2661j3621k9188L0583
23769C7408K4737J8355r611n5472k0056N2604k8108P2611J6371j4219o704l9766J6947N0474n6602Q4816p3240o6832
23751C713j4299O3987J7207r2303L7300M9645l6588M3361j5749M2011m8625K1725P0444J8187k1440M8820O8093k6518
23733B28971m1O8136Q1170Q4004J0336M4893P5484j7657n5452m1848o5703l7944q5568m1755Q7224N755j02831P2684
23715C09858p495J6502j6629N5080N2063J3634L6581l6579K6057L9148k8090l0012o4079P298n0502L178r977p5151
23697B40885q2570o3187O5428o7282m5259P9164L3014j4119N1956k2430n4036n9775n86m2871k7051n4534N5886J7980
23679A0613P7744M0826l122k7283k7245K0132M9890L1765m4588j0859m1915R032N8364j8345n1336j4533j4630m5446
23661i36M3095L7314N268K8459Q769j03733L1190K3929l7697M5044k2120j2678R7131k6125j1212k3200K6788L7410
23643A46696K4550j6487q8405O9803J6183j8332m8090j5615n942l1021M4827r995o255j87R367k1129m7545L5422
23625C7845L1038p1083O2651Q3944M267k3182o6239N7833N697q640k68J9013k0833K2069k5816m5245N9355l4900k029
23606H5477j4643k2179K4325M0152K5585m0530l6233P148Q291k8239P3888n4672j4295N2490M2620K5119j0798N3083
23588B16589q1247o113P039L4627K656m5820J2009M4393j8931o178m7440O616j957J1513K1445q0531k4910Q58l1057
23569A3561R208K5819J5262k2020N5532K8253L2943l8459l2055l6004p5996k9487K5290M3937P1242N4380j182k7041
23551A13183N8433K4882k5168k9049o4311m0492L8341Q6675J3801l6545K2899L0969M761j06661J982N0554N7681
23534B01935j1604o6194j0158N1597j2036O5686l0573L9868J7527N1991Q7662P9193J75795J28964K33888P5043N4244
23517A132828N5843k9100j90895k38515j19980j22648r1732k3716j0836j01400M1853n6933o5887q192m4478j7436
23501A08776O7224j5n6012k4526j1604J2131L3429L2791l3898N8896k8296O656K6352k2202j033q6126k1634l1488
23483B9421K0264M0100L3528o9968m1012K9665j0181J8006L5056n2918O2902P1776p3654j361k1382Q3085N8445l9451
23465A72321m8037l1518K6251O3614m1614l2433n3318j8961R378j539K4010j2443l3791o1164M5813J15043q943n5805
23447E6864L0317J1734J2825P821L9397N211j07543m0510P3771O3338n1277l1805J11915k7641k0120p0108q5303
23430b1114O0538N5106M7280m0440k5018m9319N7304M758M4868l4900L1443L3518j8381l1970l3327m2783K8360K5434
23412I1357L5778O856o619O3595j7955q3338j0361O2339M2466n8807o866J2356q011n1779K5728J053K103K652k3103
23393G9444r092k0313J787m899K5796J1110l025k4112Q5553k8539k9824P477L0348K1489k9249N8806O3055q6005
23375A49807n1533m14l2996L5244Q797L0222M6904l8362J7010O143n0374L5021k291l7758Q374k1211L5848R21L0859
23356A70211l8292K1903M0492n8893l4923k6219M1002J0304P205K3509q743J473P2958L4778j09943l3071K3047M4971
23338A81769o6322K304j6204M1339K9378q2259l586O9485j0914O9087l7336j7476q7704K907J2094P140N8660k7868
23320A24494p1974j6393M7081j3920L0806R1642m142P38k0242k6233O2121m9833p3402K3049M5216L1725o4491M4835
23302A61077j9552J9155L6389j9954N0336m273N422L3347R026k8770l439K2859o1241l2030L4328M1158p628O2245
23284B98455j7065n0888J948M3099k0184L1493L0518L9884K8071L1649n2553k7284n5164Q0059N7760J8692j3378
23267D25112J9978p501L9112N6485j0150M6099l8569N0048N982l589J1902Q5033L2512Q0886O9250j8905N6658l4302
23249H66041Q8390N1677O9364J03137J44018J64099J29516K42777K52576M65206N19354O39892R41988J189672
23235E867707J563310J998015K368585K881023L217915K832712J770002l05452k240521l414999l502171k964080
23223A0072046k186939j574261j170127p71896o51096n33297n45171l95474k51118j86021k37045k27971k09376
23210A132254j76824o0763n6049j08015k440k9894j36930j4497q8534p0204k6032K7720L1033j5462n75n5113l0466
23193C19209l156o8508j970q5458l5236M7813o193J0958J5566n2011m5935O76j6640P3008O287k8678K5187j817p100
23174A46002k4507l3225L6427M6309k1109q89K0198n4448M3529K3139m1026k7859j162j5123L8204o2020L5003k2841
23156H4602n6245M5290K3224k2051J7673k8190j6212k6021O9799K6369j8185J514O2000q3544M3974P1006m7191j5812
23138A32000j0358l2046N411j7743K1869K284o825K5467K19o848n9055n8749o2541m2959P5877R6128n1921K2661
23120C2871J8676O7174J7464r650n6650n0901J2472Q941O0676N3197j3737M6741r281o4558k2309l1078L9895p9769
23102B0174l4364O6812P1337K1848k3640n3650R363J5928O5381L5740n2225o173K3402o7512m0094P7358M476m5705
23084H8456R800M928n716Q9737K0163r2613p0760n8473L6538K9072L3065l5454K6983O6354j3778n3459k0264L980
23066E8559O8027k5398k0893k9805n8865L6107P176K2714J12361m5619m1009k9560o3152Q118J548k6459J17849n319
23048H6380o782j5340j7552N4096k6647k0398n1800J0688J8185m274L4480k1685r000K6409J6022N0928K5685j7201
23030A32194j3811k8096j9778N1919P426m8766J85n9549k166N6150M3399Q775j2524n1864q4841J2943K9965K0141j53
23011D1549N8392l6595K8420j5338l4896l6356J4498K7820j0748J6032o1800J3349N3742N1882m8596p997N7116J9316
22993A29790K5058k5125r0349k2932O5233l0785k4236M9593L4319q9205l9858J9530j4843l5765l3335Q4513J16756
22976A18359q638p0811k5470J60730q4820p2032o347Q625p8950K3900K0304L9666K5810j2492J8177K1039j565j427
22958G4058k376j8573j1855N4740m0263N3280K4996m7534k1358m6M4696m1893J3373o5407o618J2300N1930M859N930
22939H4239J3929q065q405k6687j2826J55L1910l6309k8359l7899L0708O069P9565N8250k9836j1069n7302K1078L409
22920G2555N7920n7120n524r1158N482N1801M0826k2229R244j8316k5982K7985j6215J5981N8721M1787m2059p6381
22902B7318o64K264J8780l5766m6551Q932R4188j476l019P2104M713p0916n8648o232K0424m643R3M4009j2049m0643
22882A2218p6611O4169M6128J4482o981n5928J4897M2195m402K2439p0089k5759l4445N2814J1444K82J3067N2882
22864G2802r931K4503M2015o2646o4053o3046N9951j66K119K2416J245q789n7968J02297K565l2924O506L095o728
22845C3263O728j5919K7757j5004l4640k461M7455J5082Q1668j8401p7035m0491n6033L3996O4525K2005O099o679
22827G1915j9739k3400m8831Q892L0032O037J5155N6838P524L8516k1067j6074J4756m3438m4280l2925M1708j0456
22809C1163P398L7595P6765K1706j0162p7499L4870k2149q7083J963l419L63K4196k1879K7479l3051J1875J6916
22791C7047L4073O3077k7966L368j2432n7731O56j4574J3606Q230N2291j4554m5037M4331O5518M313o7843m6180J295
22772D1488O2994L5630J5490r0594J6663m5597J0707O1871j4993m6736o2184M3364q207O1483o1716q466K6596j5394
22754B2399K426O6593L7665k1228n6937O4569o1018j0595n129M1677M8547k2253k5576N093k2720l0501m3524L5595
22736B5083L4934K8800j4275j8743n0373P98L6327J4201n0482q655P0225n9485N0013J8232L2774j6470n6373j9412
22718A7119J34072n5024j6466Q153K2793o770j33251N12M5404n5924K76L7108K4522J2280k4042L2162K9381r251
22700F3054J8210n3566P6913K4751l5791r1818M4344k4563j412O8949n5492O2329o2479O7206K9894J8612o763o1547
22682H0831l6274M4772m4256K2215K8267j1789L908N063N5913j13779K5430k5466K4730k1486J8723M4628k5784m7918
22664B7728m804Q987J735L0269n4060J7727J473N710N969j5524J2097O1751l5163K254n9681N901N1142j3497J3525
22645F3539n3769M5371o4423J9315K3150K3669n8622L8625J8741R818m0399j3589k4111N915J2657r159O4160J139
22627F2027q3208l0244Q1164O4362J1670o1526J7599M4258j8563j7760L1178N638j1814K6129L6498N1371p4006n0504
22609H4269k8434n2010K8346k583J1448l8265O3375M0173p2423O4066l9578L2394J3415K821o0021k1033l2596M7516
22591D0880J10259p9540n7820J8270O3961J6710o7251O2641O2286o560l5924q4999p2797J9950K5609K7291L1655
22574G4621M1000o0660m7347L4124N2644n3581M6135J2105l4359j4643L1939L0622J191l1895j9743m5179P0872K3297
22556A11143j2845l8365o566J6133L1175q4900j3470P2924l1474R137l2897r848K133r772O9530l5548K7556m4503
22538A9543L8303L9874q2916M7606k2610m1462K2630J1918k3585O186J4752K096P5082l7482r97j0533m6724j9055
22520g374k8549L5132l6439m581q095P4877J1653P338M1347j2262m6897O9768q2375o4792R5521L8091j9834J0908
22502G3437k4344j7626K337J2673L7658L4782P18k5359m6964O634m8876P8982k3360k6470J7138L8361j0820O33K3819
22483A03353J424l0207J0503r144K4590q1535j7166J3642P8058n9756J5084J6308n0865l5487K3671K142O8239n2513
22465B0341k3212L5157K385j8434J4702N8466j18275j2652K8950L4297o1698Q3381o818k2314p095J8015K0245K4445
22447F9886j2257O036j3945k1610j8029K0979N176K483O0943m2121L550l4272N7443N2057N742m6028k8581p1220
22429c768L7133j7657M0115J5417p566J323k2809J7902p6740o809o3787L5650Q3367J9184L2268j0407o95l7534l7749
22410c162N9525m528L5971K0882j2508l1392k7933M1147K1036m2086m8585J5457k1712N717m1338Q7865K1413m3396
22392C2373K6422N9469p3851q3874K8675j6241O784L779j8758J5790K0602J4659K6637M5893j4928J1170r663k8482
22374D6456N997p567q140l8719N0266L0137o208p451k6661n8880l3130M0855O7267K3828j6988j6316k1834k572O2369
22355H2709L4224p3265K3832p2632K0398J08612k9520n3025K2937L7649m4997j2229J9480J8076J9246J1940j786
22338A11649n7184r016M8127K4047o589n9503L5803J7286P1815n4335J6870l9560J0345k5320M5979p0483m8836l6287
22320b5192J04439N3617p9067k9928m4981q225J8937J04537L0581M961m4590m991K9701j5346n3578q7545R2003P3320
22302A18653p7186p896M2117k6819n4020o794N9594L3981J600K0745m6088L129m826K6385m2643J1600Q911M46P184
22283F8073j1144q1203N0018N8253j7384J4629L0365o851n7757R466M7417J8878j4005o5115n348o9780O7194L2322
22265F8028n9075o188N2398L8024J5797J577L947l7115p093o943Q3634m5679k3220L1207k2436j2111n12o8354L0080
22246C5966L1904j1983K3693R950q6916l9220L9778J04904M9323k5335j1361K6808j2957J4481J1311k3913o3624
22229G2809p5533l2546P6318M670L5568n0630m5603K7708L8038L3642p598l4271P953K0259k7577k8691k3967M6714
22211C7263l6674O067Q608p2279L0191j0590j4410O3676K2627l6727K8310M147k2223K9416N2247k5699K4651k7514
22193F1087k5936K072R2515q5707n2689L1395O1285J4369J5947n8531j2150O8155K5612J3638k7714j6280n0059Q565
22175F5574M3551J8683k5397j8395K9951m9867j279m8216m356J3684L1747k2334J5108O8941m5568k1923q4930Q7211
22157E2185Q506r464L0772j1482p8056J15517Q282k7865l3770j0246m5197M6912L2559p1341M6346K9440l3469L1098
22139H0727P666M2l0778m6142L5154L8310K4157m6794J0780j3529L7221m6516L5170r810n6635K3180K630l0938L1430
22120D5325k4567M5923N61K226j4616k3864k8088j3767m711K7023O4860k3853K2191m6766j8110j3531J7367M5474
22102E9077L5629K9170j8116k0705M7256j0141j5919k1928K4212p3J01835k10m3834l5960r4869L3900K8612n3001
22084D4935m5192N3498k2971K7468p0487j473j5200j776K0296J2864l0736k278N1081J1522K4352K6587L0519k6754
22066H6255L0401l5741k9214m2102J5625k2972R9273M8668q634q249l4678o0597l3781k3053k220J3513M0097J0578
22048D3169r5337k834L2650M1642M5352N0189q1510k2503j626N1577m3468O7154n3361P5034o4113m7616N9331P0350
22030A24080O2833q6420j3610N6025k871m8803Q1739m2408j3551n7003O0306m8700l2364O8685j9835k564n6936m5118
22012a6515K3907M8014O7333q199l2139M1950M4024m3154j1529L0439K3062k6625P1793k5033k827o8153l8386L5374
21994A13336J0914k0745o038j6484J115J117K8261j8419l7118n3508j2957P0255M1022J4237k0k9228M835M2506K9211
21975A62292q7128K0746l583o9282j1989j4251J9356l1715m9431M8905J20723L2520p1965m4211O1079k174K0434o793
21957I3533j4993l2475p385R2381m0814J2235J2403p6788J9601O2005n9894j8242O094O0274L674o1080J290J6199
21939F8018n837k8270N1886P8749J1790l2901j6239m4754q343M658k6470M4021k1089p9551O1744J1526K8740m4654
21921E3024l681J2310K0856k0699R5739l4793l5913k6401N439k2726j8451L0100K4355k7404n2877j1691j4894J3677
21903a4030J8419J3747K5410J3663p011K0671j9794M4423J719m6500R856J3346L4270j3976l7832L6735m7785K530
21885D7861m4756K5318N4070k8001J9400m6523N2663o717r0113p132l6737J0689L7955N7447K541R411M706J6023
21867G8105j8992K8855O740K3420J5584m0183m4619m6238J2014m1646L3667j5542J3696L3544J5236M9838n6623m6891
21849c5N0775N9788p7409j0441j7899L2008l882O3723k5000j891P1883j8994m1445j7236m1206n235m5592l6895P3978
21830H995J1343Q6480k8985l2053l2136l3574O3103M45M6245j6037p4259J7214O8783J7767j3403p8401O6705j3909
21812F4323j8429N7939l2994K1105J1676J0772q158j4838o0016l4110O8484k0268n2812K9084L8219K9362j8162M2186
21794A13363K5465l8323j06357j3441O2466N0028k7803L043m5504k3740m8884M6912k73Q8903k38r452r226L783l058
21775F7664m3229O6805k4324O8261j1205L6578l6553m3904m001q9510q978L7436N1569M492N8466k2368k7471l8177
21757D1551K7243K8159n1278L4069m042M3586q7948m6993j0917J3388K6860N9020R379m3714k8772j646N5461J0580
21739G3986o6296k3803n6610P6918K3539L0357l9974J5079n2566j5625m5502J18384N3975K402K3416N4474q7565
21722H4589k6496n3429m216J4187m1644K9236R6944q142m3345M9569M710r200M279k4852J9893r760o1716k6627N3047
21703D7027l1966J7419m4295O5940M2693l5666m3835l8590P3127J0669K992L5313k593n7392O7452j57207Q5111q799
21685B7400K4920R7403j8134q4287j7830N9292l9687k8081O34j5003R402N0003k4357J5082n1792J827P0527j3536
21667F3783K4656L4225k2343O432n1464k4816R912J0564o367m2222m0086K2488P9734k4960k6217j1682L409P5349
21649H0395K399n6368n4646L0176O6065p9486N3916R396l6461J5149L2882K4293o8059l7894Q4558L5743M516n603
21631A00971p199r0154N5765M689J6070m1700k8965l3739L0652L7941k0432J7287l3155L0588n9985J9623Q9970M901
21613I3128k7152K4579N552K750k9750k6388n5293j0125M1130j3136N1794K3254m9695J9920K448j4265p04M5233P571
21594I0851L3579m7597k5142J6565J2700L4994j6963k1100L2466p7448p115O4385j1287j6707L8781l8377J0355k6801
21576D6139M3754N2570j3575J686J3381m4155M3613k7340j6824l472o6198Q07P8934J065P691j8451o709L7763p175
21557A23504r1976L16J9946l8268k6916K5753P523J7728l540k326j3630L0272J2256K5786j6461q34J5063l3615j077
21538D9504R205M429K4189N388p7712Q4811m124j660q2556m2899L7292N1540m4786L7731l4253L2500m6241N7135
21520E9493l4195l1421M0669K0055J4281m2293p2977pP7777N3371L1522M027j8173o111J1207l3746k7633p4589j9741
21501d8484Q6125r360J1601l6474m5982k0876j775P3438K5050M3041o5094Q0419O6823q7435p7233K9982K6663K2372
21483G2801K8066M7023j6348l833l9280M0194l2345j6357p7808j0545O5119M779P912j1702l1515k7137l2083l1386
21465f4445N3903N1927k0515J5688N3692J433q5417l2096M5961L5018J8672O571j9416n1723p56q4120K8956Q9514
21447D2847M170k2178l2353J1733j0998p4604N2222M7545q029M3790l2241P909K0359l1733K7321J1643k1142k4168
21429A2093L2308l6246p3089R611R026M8692M3406N6176O1640k8562q2238L6414j6403M683o8237K3683l46j7973
21411A4638o8262k8215J7556K3151K1753j2633O0703J1401m5714l5942j1811K7607P0633n4581L7632M030L698j3267
21393B2377L5259j9358J03916p6380k7917N9337q3449j9288P7995N8951m9901m1792J5463J04648o8390K7610n5667
21376F3414o3857O3641l6822J2637L286L4341K507q1502l1924K9984N1604J3272q4763j384M3972r0582P9043r888
21358c021l0506K9270M0665j7102l9275K1818M1444j0780J1263j7822J1198K9918l7150L6920l1672q734R401P369
21340D3204R063m7407L5268O2561o6011J430j031M6738p921K07K0713p7286k2666K0057l2751M9739R0634n1791M4633
21321A17383l7390o316L7685j7529j8322K3205J7164p5457J0157J7930k4239o8468O1527Q4483l5824l8461K1939
21304F9467k6602K280l646N7385l3879l7524K8897l4131m5065O9926L571n615m0993n8403J29827Q3137k6383p3301
21286E8948m250o6184J4119N7517k9686J1735P763J7365k8506j9277J0937l0405n218O7568L7619R956o1342K663K807
21267E4129k4582K0278p5139n3472R1128J3481l1303K8194J9164k7260P059m0052l5844N0203P5024Q3509k7384n0531
21249G6602n391k1254l8917l4475K0882O034M3231j76k487J0309n7552l007N4941K9338p4089R776j5977L95R5852
21230I4035j1761J3744k36l9606j7795K8320j6671j5793j4708M2512O6580k8062k8520o7270o8991J4694Q6723O5013
21212A02208N5674j0898j05367m4103J17101j593m494j6831p097l4828o3408L2175M9761k3717R462Q961m8025q975
21194F006K1071j4375O5869o801l6485J7166m7245N803k4427m4510P4905M0357l1630j4921k2637N937j6548j5648
21176c8113O8785O6104n1569k0115n2335m2163L9086N8442J6899L0247r960K474r6529k0800Q7954N6002p0043m1211
21158a6845O2111j7635M8979j3432k1816j5494K0075j3041N6471K6827l9054m3707p8380L1258P2422m465L156L163
21140F0593j7581J005j1740q826K5323l0683M3592J0044m0552j1626K1395J2218n4865N661P6477K8535L5232p0613
21122G3589j06077O5575l3203J5094K9498m1227m6068N9172P864J9991R9809o372n6869q2147R04N0494n8838O1156
21104E2345N9184l0552k2496N3979J7064o3420j8834q3408k6283M0282n583N1010O0537L0890j9355J4110j6488n1808
21086D1174n1849J7441O3631P1693L8467m9781r0584n134K1987l9225j716L5915j8199P1478o440k8059K5922q8271
21068H450K0163L2696N0519J8250p304k465j576j1182l5784l0559J5314m640L6792P6204n0767p3579K4654m2528n926
21049A6732L3134J25249m3273M7132r2027j5525K0041l0014n5236J8629J9974K7478j6581M4573j6180k8114R606
21032F5598p7474k6510K077Q560J602J2571N7056M8099K4097k7828r2885N3242m6376l3023Q823O2181J8354n8604
21014d40l7010J0486M8500L6034J4275k9944j6220o0734Q984Q739M7191j3839O3354j03847r525L8441L8345m4406
20996a616k9264P750o0787L7978L2027K1174J7431O1999n8970O1156k3321m7795M941o149m8128k1900j6074M993R079
20977e5476L0139J07274k1300l7530J1072q310L8085M7530n1427K1318m13o6882J13109n297m378K7192q6023M9041
20959A07724k8427l2914k6086p463N2346n224n0126j1289K9151P5192M646o0281m1041k2727J7245M1684k767L3969
20941G3612J2252N5278Q713Q210p1433k1430j6676l8768r285l4047M394r244K4814N7296j4426k2108o1503L4327
20923b0024N9370Q9513K7899m0813o8375R738P9337m8906l358o5993n277J0144J4379J2448m0503K5989n0420l7052
20905e1904P1269R2837q746j28537j0901M8781L6528J648j1540Q167m3312n7977j2814r653M6297j012j4408O6688
20887B1411k6721M1261k1036k066Q027k0398M2344O1503n2065m4721k3592N7466J7816k5705L0993k5793L4790J4331
20869H7845J0354L1187m2749o9890J2053p815o5826K1991Q848m6301J9923L7914N9598r117l8475K4850l8212j3160
20851a6982J2029K6833J2140J6554l7113q247L6138l447n783j4546l3836Q487P0310r290K0230m3555K9416l7742
20833B1596k6603O8852m5456M1718K1683m8212L6423j1551j2032k0800k7747M5717p683j1902l584N044l0934N0684
20815D5213k4415k6701O845O9027j9459k4527l1630k217L2533J13867l1020L565j0146k7153L002O3005m5889k113
20797I1787L8357l3106o4802q645l7359m908M0760o4647m8756K4622O9520M5643k6201Q94m5159n096L5308j6845
20779h633M8225M6097k3941Q673r982N5939r5211r2107J05373N4792m3391j8523q592k2682L7045R0799q5098j8251
20761B0532P8922K39L7500l6004n6830k7587j6689k9775O5587l6423K3340n0200K5176R8360P370j9799p8526k415
20743B778j8296k2064J8668N100Q086m9074L9945j8931O270M7816l2085K681N5756J4545k7181j5451Q7619m180k4677
20724G7325k4704L2191j7810M064k9858R793N1852J8233k7785M2420l5434p125l2911j7902j5343K9569K7180J3824
20706I7579K6677k8019j05180O6426J0022j8086N749J3893m7713k933N424K790m0886j1692k5610P9945K6851K9775
20688H5012Q088k253o1960l9205k1712m783n8253M7908K9101j0822n6994P651L3622O6324J1211J5446m2833k8583
20670b3035k6767K9579k098n499L8677k4158m7965O3739K5495k2217L1479k7510n3956l312K2306N9980k9288q6611
20652h1161N2288J7934o469l0755q39M7470l038q8723n1524O5320N9192O6246O9301j39143K7235L210k9440N838
20634a7058J7030J0054m0979n346N1632J1646K1013p2279m4966P8669J14623j3966k4054m0345J6959j6264L3581
20617G9950k0128l2453J2710Q0351l1056n3922j0269o105n4314M4230L9200m7395L4522K1098k3444P5333J5291p8739
20599D4860n2948P6001N7069q1790l4446J356j1527O2462l263k8531M5264l4448l8266M8748K3426l4117r008J4390
20581D5232L3450Q8495o1960j10737J1008P7690j6011j5631m5850J7143J759P523K2947k8339o986O7585m6345n6783
20563a5810J5847l099K2143O1243M0684k4841k4535k4713N2989k8842r2978m7419k0460L6422L3028J8252j3885R8166
20545H2192l7536k5514L2856K034O656m1716o419J7609j0425j0136L5952l0866M2434k3788O132m3493j5349N3167
20527C3790Q807l4262J2818N4948p0098m0613K7165K5729m5801q127M4431n422r787J5644K5330K9882j0697q8934
20509c5197J8053N3854n8713l3391K8855N0678K3596p439J7953k9404l8166Q6141j5280n8866O2898j8381k0646K6679
20491E3224m9260N0951q6050O1245K4962r341m0290O555n2061L4782n8318M3201P0548M7335k2302l0454Q6878n9687
20473G1918o2209k783R0908N965o8841J6540O882n3486L0605L5838k1403k5450l5404k8207r153N5138J6287M3807
20455F6952l6089J6071o6338j168o779Q601j1881P1062J858K8k9160p597L2468N5311N853l7719q0160r9718M0782
20436g7623Q7974J26886m8103q7141J11896p5865K2779j9838n0049M3831J1082Q80m316k7666J9803n1649Q3855O0037
20418A26773j04506n2638r253N0775r105K359J5156P0928M4193p2048n8719P530J9124J3326j7956l036L8004l4108
20400B6799o2399J3626J7434K471l2211o6703P8964N5500o0852k561L6703j3058j5677K4456J2385n1204K6723Q053
20382a551J0205k049l8409J762L4834j9167q260l0706L8426L7576j9551k0647M7551N3983O704L6122m0375m4943
20364D1505m4848K1552n9758O3210m7769P932j044N6966l2153o0422o594J06202l846m0513M5923q563p4347j230
20346c7797P4386K9448j9363n0493N3778J8165K6394m4049j5520j58n15q329p3835K0258k0677J5540j8513J1828K783
20327c6669J7492O8180j0192j9053k6411k4230P259P6264k9802J7573j8300p5533j0426J9303r511K1770j500K6178
20309g608k0082P7061o1323k4303J08992K4799n9564Q716P856n4j8337J4564J3980o334P4884N5981k9373n9335
20291A00520j08586o708L0631J4983K5093n772P6769R858l1406j08399L3026J6798n7552K399n41j358N0779k2775
20273A7759J214j2738K6387K2642m5297L0189K2940p3568J7789R4051L4846l5700k2988n141p0687j3907O0371J177
20255D9339p8549M8999o0862k146k4491Q1021l7504J3026k1664J0595K8959M4904k7139m4944N842n5817M0174J2728
20237a7529m274K6407Q0476K802l4166M5001j2239j6490Q278k5184R904k1049K4830J30467q0306r8137N1042R598
20219G9431j2584l5539Q319m5705m9917R2859N0818o3294l9709M7849K3042o0887p6049J6069j5643M1607o9705R1219
20201a7819n6001N4100n3285L8849M5110L4655r5909k3914K6430l131N6394J3328m6757M8848j398J6647q2629m7145
20183i3627J02694K4221m671j3228N093K2008m399N1862M0027k3680r3445p9858j2768Q1313K124m444J1576o9116
20165e8318J6742M2545l5811o1179O9371L737Q5285n8145m449O5216k4074o087L0285r294M234l2049m4133l8881
20147e5005k2470m832L7559J09409n5773Q7796k4729o7397p450J8087j615J5339O4039k6893j7863K5947J1672Q501
20129I4322r960o5486J2413j9700n7310P1473M9065N063o2913l2957J9566N607l7772N936O6594L9626j3115m8353
20111B2099p4555l0841J0001K3292O3365N7313o1936n1101N6559n2782j5968L4263P2817M2757n8102L9603L7138
20094A13922k1298m3287K755j3652r110p2540P940N0371k1284k995K7849J7672l1471l8178k655K3194j8963R556
20076b2174P3997K3619L287j5304K5285j14096L2663Q3302j1301r1553m5308R1264j969o0807K7315m8479m7208L5366
20058f2101M4904K372N4951o320p5033J6387N250p9681L0422M6679N9585k0635q0452O0022l6426N7085O774n5444
20040c1661P233L4913K3912p4471N3696Q0137j9230L9721r2069k3461O2441r099j8005j9165K4853J8057J4971n3096
20022A9677J6418J84m0725L0106L3861m2255k0034j5672l056J7008q269K2515q2847N9262P1784m8772r504M0208
20004C9889l6634K3725J6333k5247J6487Q0131l5875M4358l9047o4187R554k6933n7948N2658Q5779M0213j8202o2936
19986D2118k1501l3952N2795k7847m8433j6552j0566O4889K9668R737n5996P538l7205l284K4672L5761p693l9153
19968c5004M129j4037p102L0447j2040J9039K7747k2108k7257R6335J5709m8341P003j406l1766o33j2905L2654j7497
19949B967N5833L9655j3954j0062L1308n6162J883N7478Q173p2366n4695k7740J770m5694L3246N7201n8076J7835
19931c1400L0644l1456M5723O2294m7466l2593n250N3690M2451k6400m4105M1316J0205o728k03j4728m1495N3943
19913E8442N3928o1431k8590J9951l9755o1801K0205L4321K9757j1861o1025N7098J5442o5148o997L7290m5559L6713
19895a9020J5152j0016j0889O6223r796J6234J0187p4646L3356N5847j1938n3542L2339m9921Q0470n145K3335r56
19877H7274q3313R466m3988P148l6764Q0181k3597n2646J4423M9305K8968j0731j2400j28L2069m1156L2544J9469
19859E6124j7374m8029L3482N2461k8028j6962K1489L9858l4165l803m6581l3243M2968k3982O605J18413n7273m2797
19841A9163j4554j3732M2319M826n69J5393k4096Q6317n7652q0774N3899l7534n0426L9323N5373k6663J3415J7793
19823D1821Q330J9138k0870j1302q298q3755O062K8973N8867J2655l1369j1402K0275j9635J105k807P7720j2054
19805G3454r5624k4442P5451l4043j5523q672J8612m3119p7201M0729N2566j4071P7391k6862M5285M222k1610l1874
19787e331m3832N0802o657o71J4827k3950j1070k7900L5689R62L6864N4470j2880J2522l6347l1388O142j8619n104
19768a1471L3777M7683m7508K2961l6007o9320l2586P8472J377O673L0028l2442J5124l9676j3250P9781N858q239
19750C1235J9808O817o4818L4209N6493j6433O2714j06152m5038J5624N4389n0874J4922p040L3046r563n140l205
19732B0994K7728R846n0752j0430r9563j8716Q0536k4489J7310L0031m5398J8656R410J3866j6965P367l2781N6071
19714g279j7321k5029K8481J5611m5316L561N3662j2968m4183j8305M3544K0532M0279k6320J1372l4369K932L6247
19696B5131M9163K2302n8576j7030k9416k0527k0232J9876k881l6300K0924K3285R193k327M1139L707k2566L8691
19678D3556p670l0644k3834L308k8693L8256n5117Q6392j2601o88K5344R310m7822p877j1996J3933K9854l8489j625
19659a7103R8953k7343m6345K8153o3318K1872N229j5954O4852m135K6694L6243k4295j04586k4864l5243K5488L8881
19641a6821r432m7918J5090N9645m1092L435o0737L1287K3906N8912P1318j8616j8354L9095o882m1455m0864j829
19623a312P5496n59p1120K8976p1906N2622Q508K5979N519o6323r705M8794J113m9126n1453N3915n076j0205M1739
19604E876n2357L0419j2015J0522M1516K9315j2449m2046K0798M70n3571j7531N018M6081L3j8834M2179P246K9798
19585F0468j9435k5407m4597k2675j0967p4438J5198R0935j6669J6566P6106o8187j2026K2229P4690R0304o6063Q084
19567I4116j00049m3141N8412k0907n0464M6689J6071l8762K7894L7568k2271l9637R250r284J0846L2172l0812M6135
19549B3826K2544j6475N4159k6780n2002K3601j0464J6180q7808M865K1032N9772p401q2716N591Q5383o935j9244
19531G128k033j7492r519r484M5879m0043J0268N402K6660p1746M7120J03422l2211n3757r858J7062r2571j2644
19513h8417k6559J49034m6820N7502J1201K3183l7043L9094j1789k0958k7254j8559m2295K1695j2317k6141L9339
19496a7104K853L3694L0148m864n0752O1767J8663o1125k635K7292n519n508L7689L4653L3217J2773l0386p6804
19478C8052m1105l2974M7787l599J2370l0146O798J3303O8641l4752o1833Q6034K8114m8194p355j01916q624N7723
19460a1676P0029l6881j2592O015j9337M7693K0597L371k4695K8656M331J0101m228k4573K8334j1576p918m4636
19442B1015L4886k2457p902M0999j3759p7562p213K5254J6352j6539J5447j3556L7638N1600J0811m3600r2137K0590
19424b0133K6477j5545L6146K7236n5038m7140K8085R500M1858Q153l9184J07227j877j14513q7269j0314L8164p633
19406g5800Q8883j3973J6126M5751n3203o0369J9258N3791K8847p055J7597m1052O23n3909l1948N0779K2127K9617
19388C6090K498p0087j428L3797j7795j5715l2598M1814L739K7950n568L3178J6280j0593j8725J416l4027m9288
19370e9062J8744P8687M2827j25126J7226K1275L5730j9041J8739m8484O3934p5435m7247q856O3110L631j1018p031
19352c7397r986o81M5100N0060j9336p053m9771m3151J04905J5216K597m2721K0624n5066n889m9467Q4243K0280
19334B2507j2515q446M7793l1168k0154J4399M5820L28l6491n9517K4261l1928K1120k4948l2567m4915M0500j9218
19316a05139p796R9637K7384p0758N5085L1647o5016R968K9378J2472m6424J5380k6020l4Q267O0212K9664p667n6238
19297e998j3608K5618K6917n3158l3925k4862O4839J3052K7451L3311n2734k9565K1172n7386j0504l875O5065R8894
19279I0704L6190n0641p7343l6536k0399J514K9201k5295P1221L9900N4761k8151r30j484j08337k2286L920N1719
19261G728o438K7118p3373N7534k7381l3611j4434J3376L6810R1779o9858m6898j9506J5603J2864M147R158K6965
19243A1583m6046q206O4123k5426M973n2527q355N9915Q2802k6974k7783o2231p5262K8135Q7180o587o720j4188
19225b1594N8632K4685L9021p3970J9195m3418l0526p1342O9876k115l3232l8635M026O9715L9130l3306K1843r588
19207a1603m977K7102j3665j8729j2661K866l448J9831L0684O0742l854j08327m2988l4184m9975O9275M5173k864
19189e1602Q7797J3271Q750l3513q7551J187O9063O9111L615j2374r1584K9722k0909m064R314P80M236l2687K709
19170c4729k9235J4693k7438l3302Q1595N8410o3304K6809k6733K22o0588M3902M035k5939j5048l7189M1291P0569
19152a1979L6760O2358l4158r8291P179J7261L5177j3298p9056j3001L8939K334J6780K3860P496j5522N24k8516
19134d5153M4968L425n7538M0654L4318n1692n858O2070j6380k2551n3310J3411M0253J8737k5348n4404L8689O6853
19116C1144m867m5291r389j4908J7826m1421K3551m790L6877L2987M302k1776j11597L6504L1624J0190J2474J658
19098a4902L5927j6242q5859K9111k8918P2418L2620P934l3857N9636n512j16853q17P8047p065J2701N221M6337
19080F9927k8326L2046m4541l8561n4558K5653O3175N4613k8078j935o6611L8549K3439l1414M3412M059n3587M8082
19062E5344O9012n9544m4024p802j2803n3521M4767P771K1156k6790K3967K5778j4571K1596l5956O3975j0959m7138
19044B0258n7696p313l2417L2632j8746L0678N6971K8088J8373L4094J0765m3489J3679k1917m2051k8777m9787Q987
19026d7668O2754m62j8473j4559J4602n2627Q5278L1932q0149K3954J5540L53M4201k5234r0300L0934p2706M2958
19008d9672J13590r125o6948l5377L5831j4720J6353n9L8751j2616r564K7229k9275J7840j3667L390l7468N1427
18990B5920M1815j9211n1299k0535p251n4917k015M6380N8399j3678q996k2667M5284N415l9119k6716N7928k3097
18972h360o3972J5971J429o3305l6914O908M5964M9988k7861k5026P0035j0914j01792N3348K2070Q2453n1424K434
18954c8968j4171L1440N5007L4516L5199l0738l1424n6118k6558j8405K1309K8936k532k7342L7415L5111M377k1668
18936A5386l515R1975j4412n2455j747j1051l3978p6821K4021J2365N9191m4846O6840k8401M7916q2748r650j2826
18918e4756K5997M291O8519Q0244n6485o2718r5326l17L3994J02186p4576L5157J2100l0270L839j0530n0910L2320
18900c7241K8534J1219J1787K3064O38m586K2469m6914m441M9147K5876M145j6225j5061p0008L7690k0743k8785Q157
18881b1278J9716K4926J349m3658o8408N2801J6905K9003K5034k0345j1261K3802J6065l0652p3574K7216M8676m4125
18863b7808R3152q3947m8673P3270P6872m4168l686k3168q646r4347L1278Q7448l6551K9298k0921K097k9911k588
18845c0999j4571j6814L6078N8042K4402m2872L045j0119q505J0002N579o5889k3101K7781l6586J5053O6293J9362
18827A6181q2681M193L8255Q7572l7783p52L6619n6582K667n2147N9697l992l9741J4818J2692M1830k1226p4371
18809e4751J1940J7650j6261J1104N1592L2886K3527m0306o3351j8872N5815o755K2485j1428m6585O1678o6877k5957
18791f2466k3350L1676N3664o1771l765k5290L3896K6784K3941m2231M1855J960r4191J4971M6917l1461j1284O7206
18773a2939O982J7963m5570o3242k5219Q8296j3235K5206k8923K125N316m1669R4133m821o192L4889P61n715l7907
18754i761k3762J5750P9533o844k5749M835K6184j4095l0518J3115n2657k1913J5431P6859j5825k6547l570q487
18736h021n6548Q2706m5638K5252K7968j6112k4676P2920k1773m9442M6355K6248m2569J9376l628J9084q944j6064
18718B6494k1573P8397q1380n9086j2704O726L4289o533L7244L8599n4994l9440R805O7133L0028q7177K5912P9854
18700G1594j3007k2160K5787n7058j0181n3845P258L6421P15J4937l5645k3046O3084l5464j4378P769K6663O246
18682d310k3506o4202N2161N4634j5427J1436j4751L6638l5546M8074L0932k5098l8933j9732k7476q8610K2617N3406
18664d7693M39l2460L3201M1568M4622N4584j05459n2563k3268M6285O1334l6774m9524K2494L2124K2862M2043J7387
18646G1202j22510r997N349p703l4523J8115K7374N8015K5438J4106n9276m9592J7023k8610K8270K0329m1015L551
18628f4454M549Q4903m4799m6851K8564j2894M1777L4088J0343k4682L145J0631o1414L1182n7094m910k381K6156
18610d4141J089M8797j2573l0943M560l5162O3379l2947l616N3608k4993P544m7216N9752N2582j2677m5783n1873
18592e0613J4079M1358j781l6276k8562l5410J5421Q472L6130N5243k1627J3868M2096q5951k1746K8860L9990j3250
18574C01j5195N952K0230l3659j7745N505l3115N0708P2865l0461j7402r619J1178k4867L057P8142K43l2440K7257
18555F0935j9753n2771P7157K620K7261o5629O6989q7406j0867k9688M6282k5393l5666k4125J2226J7149N5732L2678
18537D7731k1577o6986n8586r584M1260L5455o6106K2275J9752k1924K4915L3299N581n2188j0863M7784M6800m1376
18519b4338n3495L734l1435N7228K2375m4999k9499M3293P4025q3888N475J05326m9495o417o2586L1295l877j23231
18501a70509O5497O1519N361N7896j8278m3135j328P8488P02l6728l5050J2387L9211J03218r912m9984J806k9919
18483C1242j2139m9342m6761K8049M870J1079N1084o553M0672J4740j9167k0099J1518m7383k694O460p670J6925k790
18464B041o6464P9526N9313o1972J8303j7879J5586O0316m4160l7151L1573R178N511k5525k4788M3462P3206l0651
18446H9425M3076o4646q0331O3889L5325l6719l7181j962R3762m2978n0501l783J8761O5052m4491l0900O7970k5206
18428E8562l9349N9070j0771r7425q316O3192k2027M7838k2713m2589o3921k9539O4747k7942K0835K1910L6400j7275
18410i313j8367M4205o8160P623l2753m613j9967j8536M6612j376k3477k4800K8708M5276m9679J2256P5100n4163
18392f5424k5480j819N4289o5456l456R3639J5708P72L3307Q451n5514J798j7907J0663n6285N5105K0150K428r1500
18373h6531M9267o87N3623j067l5103J01255k2547o9107m4525J05633O9084n3361k9033k0465N0785n2461o4058j8730
18355f8028J5221K1677J7259L2476j08792o3126Q0798o442K271J8940L3363N7515l7449k1648o1608L9717P584l7617
18337g7889L096J7334M898P6334l5337k1015k9757M0513J250k6748r394N151q3993Q2288j7357r000j4414M9677O5422
18318B1059l8572O565l6569l8817L8654Q8461k1040L9731k360N77p8426o149M3512L523J311l4161j9775M1431M6855
18299E5810n0604j6207j9725k1114J2316O5176N9550o0058J3561j3070j2490P4714K8520q5853q7141r715Q9157P856
18281C0683n0756J498N2007j2551l8524k6815J0280k0126m2293m5861M651O3704R4083p629m6094O9974L3798q8433
18263a8404m2340J8409N0026j5237M406j8590N1764j5326j2787l9403O4765O1532n667r2606q031l186O0942P279
18245D7546o1321l8655m634J2904J8963R0159N4090m7361j8673q7502k6282J4486N1811k5953j5548p58R679O8051
18227D1002K1709r312k4743r7512L0403m3536K8228K563l157P073R0529k6369n6702K5833r183n6335K0343M7651
18209a1515L2234m8819k9177o5720O2651J39490M9508j08228J5929k5376j422r0213j2472L5222q291N9022J6213
18192I036J3125j1758m3267n6193L5389J3773k9099J3586K5981k7434j5957L5542j4334P5197L5812n0503o4019j7030
18174g2153M8019o6764k9505J5006N2069P114j1761l2715R2596M9506n4574j5895N1868O33l7420R256O3373N2587
18156A21240r0998j6167P667k9030L0207j4395o611K8643k1917K2731L298p8099j711J1656l169l612l3271K9582M230
18137c9726k7758N6220k6650m7601N375j2927K4612P7201k0270m4357J5353j7485K3959J7428M2123k9617M3138r059
18119B9959q293j7664K7916J7148p604j1425n8004k0789j607K578l1076M6012J4407N782L7110l5211j4073n8691
18101h3525j9607K6439N4350k5516K6414J6461p241P705J1738l1643j7591k5465m1906P3851n4617j6291J4670K9688
18083f2086M9386k5483l521o0094p7470O4921R0909j269J1776K5459m6507m859J0481k5754j9645P1282M0287l2880
18065D933n5916J1939Q653l7667n645Q4292j0415k9329K3376l6732m8645j5749M3528K3816r771K7505L5976p5420
18047f1271l3625O3568J8183M2659l4851j6268o9163j0980r468K7353Q3824K2091n2927Q1095n490r3669J6646M0688
18029H395K1783o6587o3079M9210j6368M9965J6295J9700r081K1703J1647o8526o3085K2179L7423M0183R056k6739
18011e926n0678j2820l4421O8937P5999o5711K7160P7221m9712L4054m3217p945l4958o34M9234k9748l1462l6384O36
17992g0375P286m0646J26274M9748l6442k6746j466N7573o028m8662j04076n5400Q945M4116N8800L6096L4179o6650
17974c3474l6591k856k6761n7371P0668J59403m6430o437k3654p376J9464n2088p7250K1592Q470M8293k8113J9637
17956e0874j1256O4605m498J2025m5581m799P1837l7738m2250J0056j8587L3076K3804J6568L8314q0862o759k4346
17938e7265K5375n026N7045k6556O966J7161k4036o0368J5797k1724J1175j1445N8026P252k4615j7430n689K9567
17920b5790m1875l9401L5481K3234P7697P851k2517K3208l8057r841j5169Q2795n6649J0557L4373j6290q7580j2016
17902f9989N2058K4769l7496J0316l7312o0564l5103R282L1698J17569L5349m2670j6001K2980j3129r960l7947L0895
17884b5255j17972k6032J09729K4700o0887J1104M4079j5017l9533j6318K1840j0323K0114K8244N0255q2971M9211
17867c5032K9012M1117l3392n2579K2950K2551p2942K3496m5897j2273J24546N988m8649p1410J3696L4259m6477K195
17849i8841O6170L4795j9548K1970k3603o8054n259J2103K0221J04174L698o759J4731m3128K6167L1086o9882q0086
17831h0045K0467l5739M0630l9175J7950K8561O5817m8745j2013j0076O840k2490O743kR881J7604j0310M5990L7532
17812C9420j8855o6649n0577o5929K6186Q1727O0939o0688o7240O3061M9382l0604o1502N1198L6187J0R963N1005
17794D7034K1207m7062l299n3546O682O1649q2070J6479N7910m5917l8454j6530K4875L9376O866n7453r1082M1067
17776a12268Q5248L1033k2294j1244k7019K4577n791L0382K6907o7035M0267n1007n499M3939q280m7151K5886Q5474
17758C6125m049l0276M555K3341l3934K8842k8805l1291L3740R444r366L6590r1741P2312k9450r5483L0557L1457
17740d7432J5242l6630L564J8059j8803j01705N2620R3961K1538o9373J9939j2014L3109k8994J6358k6453O6100m500
17722e414L0135l0689L8263o9772m5589N4191P0364J3626j946l2031q0123q18P0617K108o162n9264M2542M591l8322
17703d3693O279O7260q12m3185p817k1216J997J0410p597n1003O9646j3358k9995O1580J8138k8121L5683l1910M0681
17684C2967n4101r706k0264M9029k30l6653L2181l6294K0865O9645L3492p2554K0172R5450k7262o8327j6606L3077
17666D4881K2366r513M266n4327p6780j682L1834K0990N2964j9164M575O713N902m3703K5640l1734m4617Q7183N5279
17647H1073N18m3057o6237j3985j9295Q076l9919n459M6756O2165o0131j5132p653n2632N0489J2931j6534M0290l203
17628d0939m8668q4647L4996R7381Q5840q785n1914q7870N666j398P044L2366P2153p5184n6438J3951M4982L5067
17610b6397n7653P3280O855L1235n8653k4211K2985L2095r984J99M6388j2889n5240N439j2895K1586l9447J4403l742
17591d6646J9287K9263m277L4683n969m2000k2927L7025o0263J5473J11599J9600o1429L2995p4647k7180L6831p579
17573a6161j1814k5276o7366J2249J21102J4647k270m1510n5144l2283k2150k654M3904J18445J8593q3536K159P2339
17555D3274R6196r9262k4221L0731n3894k716J0820l8592k0345p3462N8894P3182J1208m3320j8194j7722r892j4533
17537i1848K3751P1470j6523L514K0565K0567k9147m87j9936o5506N4088k8764l0319O0742N2784L844j987k9549
17519b741K1568k0955l624k4010N1971o6619o3606K5454K8834M8561L914m2124L3799k3351Q886l0270L3586l488L637
17500b0578M0962k2639k6398N0714m0628l2559J317M6739k4127k4881J6540j802K2933K0981m0529m3751o378l2127
17482a16211q153Q6492L675j8711J0367O8076L2389m2436J685m0172L1919J8803m0328p658L5527R866K6478k0541
17464C1067o1836J3628L3605K540K4582M965M0703k7935p5961l9608n5436M7532O0199m749N048J2627R573M3520l903
17445F0161j4351j3780m8982p8526L1374L2961J5906l4990j0310l813m6654j7520P5976k2785L1804J8683l2175O2603
17427E582N3283M099k6246m0223j0383l2958O502r314K9865K5316O619l626j4339l0786l917k5014o6n530k7344m631
17407a03111P5533M0909o5948J0047Q226J6763L4883K3146m6752j2222n1116M0767J29409p9566o9910l8543M748
17390h2737J7150j9209o0645Q8087M6268j0485n165l4760l4630k964o310K3778O6249O0302o4637p3651K9761K6754
17372c6844J8650L8352L5951l0085l0850l8856k5569q4581R043P8978P7416J9635L0088p3775k2174R6026k8007j4169
17354A9229o8192J1782j172p675j8638j8901l628L4067P3704M5136j2354n3003m1993K1496L0735N858j1691n8752
17336e3992j0924j433Q6551J7778M2807P366o3381o3650P4893J8661l4404j7067M136j4191J8856m333J1430R575k667
17317B6011K8298m3028m6642k7605k5526m2205J5985O3568n5490q597l5347J7685O8429N4339l8151n5958N8713k4770
17299g0291J0969J13406J4459K2227m9485m4111o779r8235M9125J4178k5447K4001K1405j1277K4571l383l1715M457
17281d1925k2962J4320J426J0594J9264P9875m3481m3020l0793K3559P6314n0967l0262j1844k6370L0279K2729J1264
17263a2000o755p693K1797M4303j35978q498K4024J535J02916k0475j1674n5520M927j2548o2572O432J06389k5853
17245d7243P104j8752M8816l4667J5699l5923M5099l8117J9013k631K5097L2710r021k247m8361l5839J1387l4308
17227a02184j739K4758O507N3681m1542J6434k8874k5209K5604M6822j5033O9210j6374K700j2910J9369j4396k7731
17209b0907k6112J3040l8937o156L0713N8549r486m6638N3127l6485j10693M8804K3482j568n6827P7404J3406n096
17191d0380k3275J7975M6651P1077n1000j4449j6911m8618j3956m5439M7256J3934P8603Q361j3235J3822K2995o3281
17173i870K3208K8618m3968m6577k1673r944J8695O4079L9896j7430k3472m0911k470M5228l840l7544J3144M5173
17155B0342k0781n5365J6016M4060k2358P7267n6108M2436k6429l7747n5556O6146M8931l5584j4337N737k7349M2152
17137A1473n1157J7020Q571n9563L6716Q7151k7901N0868L9590o3108P903m8196J9622J0611N88q0087n0551O8063
17119b2387O2377j0891m009o1576r899l3004M7300L1822m1898l8828M4034j8819j8016n801L5785o891N0014L7391
17101C6704p2320l3828j992J8293l6855K2307K6172j0007P523L3520K4326j2875m188o5990O9484K429N1285O1254
17083A15242m7608j13016l3817N5969L9011n6429K0788L5944O690k2472L5939p1457L329K9574N055j05237Q494K9058
17065f4943L8916P1286q8173j05501J7186M2791J4281M3656M3659p6388K7806p206M0939m6658p0623J9200r076L4141
17047g4707k2119k9839P366o844J2666N4523k1503N7567j2539o4760J7721J5310k6356j06731J4095R7063J9343L7475
17029c2269l2655O5945k7971m3825L3027n5553j5319m8763J09699M3775q4804L8478R020R234l6170k0214N1798J5772
17011b0795L6883m2528M057N0039Q10J6448l876n8305n1678J9863k3705Q0188O0439L2626l3472o5763M7801j7264
16993C1768n0012K8948J171j0975m6613j1149M3688Q487q614L678p1134M554N3382o5129J10Q5410O436j01736k1942
16974a19672k5451P8173R5631m0016l038n6980O9267M8208l6887j6653J6658J4159n2426M9084l6630k0196L5938
16957h31L3084k1578j2632N968l7575J9150l1024J730M3486k1073J0030l8989r113r9417M4079J4496l9938P6297
16939f3850N8656k4443J4255P0935L4951n2920l1463o7135L7321P0310J6520m8445o667J2297m131j6332k0108J3956
16921f293k7101K3607l8373M351R067n101L3301K4823m2793R127j1863K8990M5827J8927k0584p5633R358J9509k8168
16902b9022q4790N6440M4885P194l2658O4155L2028l8900o4094k6302j2992n388N2326N251K097j7898O2924l8759
16884b3503K5458L8603q3401m4080K1881K0933k7609p5392L0615J14982K3743J0554j9304o3718O485K7650J7613
16867A510l9624q5250N3125n8515K0364J28527K4190q2546J0850J4484n2556L6102l7489O5512M342P5440m7590m652
16849B6224m0471k6510J0895K4524J7343J3527K5876m5215k0740n8529L0923K5852L520l3204J3407K1551O3228K9242
16831H1443q3193k5540J2093n532L1688l500m4070j9895K0361M5337n644l1528J7453p117k9806P3930J4955j9775
16813B1660P2709l6776m5612o0025q143J5830n145M0905P417J8636m2496J6850n871M0534r4849k6866m4824J5384
16795a20682J3321Q0736M7233J4535J7399k0148q5645l9501r431K5164L389J4124N8530j2175j0806j1448J1598J2577
16777a1230m1463k0897m0488Q584M0462M8012J5532q878m706m5642j0762M4830l870K2565m9190K1814r495k5376J355
16758f8843j1689K7818M6075J3648J006j7182N664O457o0995k8002o12l8710M6862N2140Q7536m2237n6119l3030
16740g0213N1342l9022m0779l4970N0952M2383J7707K0793j6262m9121N3191O5050k8378k24k6853j1565m2820O1592
16722B803M6277m8109j1480N8863k7395N941q685j958m6806l5456K9823j3861j9196P052N0273K8105j5251m3424
16704d2484N0571j8032L17J6753o0165L6151K0353j3632L5884p2574K988K5275O0641l5249K4887k0023N4434m1441
16686B4654l7528J420n8069j4706K7992Q773k5648j9997r091K5436K7022O1943k4896K5047m1781n529m680k9402
16668f9040N8374k2089q4735J1180J9720R406o15M8711N25K607o6998K2548R437j3711Q8572k477j5438j2632j4536
16649c1191Q009m3373L8067j1241m289l7414P9888j0615o9823P6833j7963p0069R9189j7836k5661M9648m5384N7691
16631B4466J7345K295m361J0164q169K4014p0348j4086N0020m7062k0042j003m052J211P0261J255P515L3014O795
16612G9232o4430J1425j1487m9419Q124m990j6419m0180k4347j3237J5824O8004N8603p5703j1440O1586j1745j3245
16594c3844J1854o650j6580K602N0959M2626j3838j7842k818p1865J33646o9829n26K4798r0762k0311P172N4087m3
16575a7164m3731P101L1184l2281P887L3550n5715P3006N0860j512o8394J6914K3320J8p9208K8737M7840k8886o8094
16556g4568m1814J2269j736L326N2650O9298k4060J2166K1289n8328O4661l3828p583l1741N5806k3824M88J2836
16538G307j9429m3314n745j5176L7932P1790K9876j7271p251k607J3259P245o2542n0144j1731N9924R719L0075K551
16519C4468k2404l0139j4884n4345J14681L0227J3630k6520l8518q107J3575P6688J1289p471p9394m3283j3198j3327
16501e7032j0793Q671J8875L2078M896L9263L997p804m9637L6592k8004M8491j20338k3062J2748Q3685M2015q646
16483B5995n5964m9891M6594M2871n3148M8620J5769p0923L3380O346m8365n6630j904J0626M2887J9712K4751l8461
16465e7735L4123P7405r4612J0792l6597L42L5529J3318l9867L6820N0457k8464j1517J00358o3226j03180j1180N166
16447h2068j5161M1523N2512M3244k0950q4906L0966L673L1326m306L5245N202J9458k1553p5722P536k0638m9083n88
16428a04290l5542O857P9683K7448l1401n6929J5686K8400O3494l105Q5081j939j2012q1964K0989K8450j04798j0376
16410h6268L6241J6525Q0507k9160p4500J1104J6417q343M3607K4373m8005m7560K4439N2187p5023L1345L2181m3281
16392d3214o525m7924K2759L8648q545O8924q549o9536k648J7563M7349p9824j3150L2700m2225J6101J1923O8492
16374B319M6467J7106m0388p4339J6600J0936J61O4882m1077q0328L0610l3050L8618J6105k7804M05K0620m2931K295
16355g2793k5766K6177N6143p786l7312J7922N8473r143k0710o2835j3513O3786j3278J4650O4218j764o3764J2009
16337a5286k9617K5285J2096k0550J1947L3229K7019j5638p7134J8853p748L7883M2117N964j664m1660o6600j5296
16319g6800L2594l4197Q767O7641J7615l5716k4081N375m1816p244k0402M5676M9473j0467k1406N9165k1348k8959
16301c6130O131L3026l9979j0250l7276K485Q901m8931Q6267K6362J204Q3673l6687l9141j7428l5359O9235k4549
16283h446j7137L2077n47Q075M9021o8419j3275j014l049L0759M398n404L4203j9330l3323j3415q9095J5827j7927
16264a16021N4191M3396J420J4988n9985N4043n6046O527K8120K1653j7868j1107M583K6485K4457K1984L473p7985
16246c3692N0618J1083j6262j15041K4746Q1066K7976K4022l2771m0331J667K0579l7994M2361m1138p1803P5245
16229b9669l6818L166K3467L3084k6423Q823M7503m3238k7682M1128p3405K473K4393K5159M7815m4391J1432K3059
16211I876n5102l292o6422L3327K7637L0367j8697l9773L9808k6982l24l2696j7129L4615M5145l4518O431M0554
16193b7175n8825k7908M7323l4330N3187m5581k7408N6044J23768J0699m8725l0057o218l3356J1887K9881n2120M431
16175e4483K5232J0665N027j5474L710K9134j3471L272M0252o850k8566j0246k2894M2302N605j1404r6324j8377
16157a12890J05500K6759p1491o656M4547l0530l1617N2430j7230K5291N3739Q783k1469j1993k0077k3094J6567
16140a3431K4148K7852j3855O113q231k1106J8289j8114Q642o587l1921L1596J6157j9593j075j4821p92o462l254
16121b6445J8323J4997L6713o1832j8009l6178n1223L6682O1054r4019K4071J8412J4524N14L1849L1703m9430m3228
16103i1522N452M3848N7042j1282j05858l3855m6945P3870R2010j120q908j5044J460l33J6578P733m8777J976J9492
16084d4183q6986L3892L5209j3772J5427J763j4985k2603j1324R295K0374Q0603j2316L6501Q927j4949J3736n4722
16066b0113j05448L2697L8577N420M9325l5290M293R446K0782m2653o8157q9297j4661P7968P2948k5886L7313K3535
16048b9201o2333o8264N7089M6765k0634J23420O1472Q143q6063m6558n679J204L4143k3900m1648l6200M7353Q818
16030c2073p4640k214J7520J0119L6959N2152P413l4229m5515L1316K2740r834j6847q0693K3056O1423P3785j846
16012C8592K4419l9977j10444Q0198l172J0500k9499Q2022J0513n4833M203l4388m3655M5989N9052j13447J3694
15995f0233Q3433m8941m4999k4620O6628l3822N153m714K2942M632k3000N7473j4865l9327l2927K5628J44702K0662
15977A03805j13444k2179Q862K2016o3362L5413J382j3845j0434J8791N2084N3273n7320j7438j8569R34m5637n2944
15959a18612O6145O7274n4026k3477m2974M3969L1163j3378L4077q045k6054N8958p9109J9173L0982j8928j30702
15942a63564n796O4951N9401N5828p798N6400Q4790q6488l3700l7778J6016j4753k4018k0311j0186N3587r93l2083
15924d6495L0145P6401m7042j7874n873m026j008k798m9854R975k709l2216j541M9888O4933M2685l1686N297k4576
15905A1626m5126k7963n2987N2238K4356N8389m8393O0123L560k0186J4704M5951l0716l2702Qn1826j0567J6181
15887c3330o7333O4641j2732o921P3047j798l3051p2745n1307L5628R3936J1016m3118l3717k0260O1171L7316o3441
15869f2998k8898M9486K8471k4145m838N0363M2059M3535j2464l9274q1546p862Q0065p3402o7961P2274J11409k4584
15851D9690o8282j5118m3840P0010K2842J1553j4635j8324l5311K1690J3598J0654l5274N8408k9765n4449k0052
15834g6605K4186m0619Q07O4342q8713q602l6982R7797Q0354l8381n6789l701R081m1409P6246N6674o8420J5016
15816c5718K6447J1277j4291R708k9797K1208J4484j4910m2860M9252j3968P4664J0836p6722K1706O1294p2476l9739
15798c9605M542l549K9460K0996m2025L7401J6659J0825K2825l9827p2060J9187K9086m1473K2669M0527o4952l9183
15780h8497j6288O0534k227j8687j6302j7653M366M9100L0270M756j0849m0830r9527J25899N0838l6493o1485j0464
15762i3539J9945j1663L8967P6049N1286n8929m6369Q785L578J8490M324K8456o2148L4282p302M8264m1502k2207
15744a1233p9913M3125l9881Q0133j4681N5287m1790K541L7307K1227K1512o7437r4899L04k0031M0238K8746M5753
15726F308n9381k4319M8832n1163j4300Q4710j549j5888K5269p683J5354m5382l7316M7213m569J02242K5987q1880
15708A2485r2021K0295N4276O800k2767L4039j4450J2974J6325m3933l0233l0494O8L2060J7437K9176o8924L531
15690f3356J9167K3939k04K770K4180m1614q1144q114N2573M8354j2436J4454j0670Q077n5463M3164P6162K6122
15672F5961k0156j8101o358k4067J1931J8852j0942j9582L5221p3149K5766K745p040j6264p299m481k8416J6278
15654e9101R8471j6151p0469N1250K1679K2290l6407M822K0060j8142r2129k2163j0018j676N3760M9371j7370l1787
15636e3710j8996O976J3843J4951l9957K0675j9662K8123J3038L9430j7017L9437K6406j5299o5404n1717L4318M9399
15618D834N236j6687j3453k5784k3807j2327J03769r599n7670M1598o138q9938J4594R0156m6222m13o159m188n0862
15599a03060m2089N4409K173P791M4634M593j8908J8818P483K4906k253o029k965L112l5893m0772N023j8834M1373
15580e6488j023l7683r488l6993j489O6521K2544l5038j8459L547M0225O0456j1989m031m820J4743K6302n6271l0071
15561f9505p4706k7739k7137J08344N6366M6914J0144l6504o3056P5544q4600k0141m8044k3134M642L2206K3517o263
15543a23152N5409J08543l1514o1917K4461J0522m0346L5800J2044m425r470J2197l3838M8254K6770N323k8588l0382
15525b4309O450j8491L1218L1210K3032L0024n4497q4250l2082k8710k2420P8570R4824M68k0172M4258o3542j2650
15507b1069l5772L5925M6963j5621L3020j5572j8010J0762J1635M6639p7614o8820L638J1787j9193N791M2161O737
15489a6613m0164l0705K6771K4279n46j5966l448J2843k078Q280L2530m2454K0169l4930n825l1147O9076J8016k9030
15470d0942O7499R578K085n9058J7922k9572K3794K0949L0638n0292o2528R670r658L7502O7187J5272o779J2072M211
15451E9550P848n4313n0376l0744j2253N7920l3125n6275N2465N9788n3953p150J0104L3557k934L8097O2245j6722
15433F3729n1890r9585K7699L9481p025K9593J2078j0457L9049o5632O533l4316L1045N402J441J5184L0503n3282
15415b0450k0271k6866M8285o284n4441j6653j307k7417l3278J28036K6893n127L7695k6532o05j8390M0618o5768
15397d1862k633l091j7244J658J1065j6842J0776l392P3589j1147j0614P613q9519M4316J22832m3374r359J6565o193
15378C3144j1765q195k2238M0152m6068N1607J0471k9788k4717j7391N916R2284n9126r0670j9067K9600Q9849j0433
15360A3565N3565l1095l8286k1607K131l4209M094j5751L2320J1792M6901J9145l0375l90j0792O1823L6451k8557
15342G0725l0691m923p0218L1373o957K9952k7485n4930K6005n8482l2084N4676N0020J5369n6758N0053j9469J2902
15324b0922L0826n3708j3610O1431k2508o2J3400j2801M2106Q239r0440o2279M6751L0041J8786r8266J5189L9587q61
15305f9101L1525Q220l2866L5166q09N1692R401m6982K052k1469k3728P6231k5664k236M5356M78n5906n9613J0440
15286f7813M5923M995L213m2261P2464k475r030m2911K0601q35m5739M8425r577j5588J6116N234k8040O754o977
15267d7521j7174M3436J879l0099N5439J3908o1057M4533M8154m1992l7081R276k3199l9985L0454Q5625l1759j13879
15249a11042k1741P2138o635M44M173J11096j13970O8188K1141p034j2558L3995k6373k5936j9812L6169j5170J101
15231a1826q1846J10245o6317l4294N7591p388l7582o4611O2276M0316J8866O789O535j5537j2073J4454k6703j9730
15213f0835J7732M59N0983K3376k0140r4619J00561o4662l2718O8467P9600n942k9720k7387j5812j0084n946m6140
15195g2827P1154q5644m9350L4751N7446n165l2731L3425N8834K7389q1115q575J1867n3444L1744R947L4431K8432
15177A0569n7473k0879J5964L3789J4783n2007n8020M4708N0960n668j3233r350L4323m5618n4418j0610P1102P5938
15159B4860k8350j5451J4840m4136M3395p3612O8045R739j8122j699r117j911J9436J7700O0667j05521k8405l1453
15141i9095J1975M4993L3651j3101k2546M6275k8521k6899l2085R1561J5308j2047j1188q4450N5837L3393J2448
15124A5509p7512m3394K5030O0223n5717M9266j4388j0938q3705L3310M0227N4326j927J4429p94j3130r8687J5405
15106i2467J2618L4253n1545M1869K1390L5816M18n3138K21k2268L8675N1096J482K62j9620k67l2662J8237k8788
15087d4418J0432k5683l2266K7961O7662l5290l5368k3080q128M6172L1040L146P366L4931k6541k1605r98j9582
15069d4249M6245N276o844l4531k6203O212o4014R345N291l7947J62561r847j4714k604j5384N1214K3792k3600p3490
15050d3491k9724L3612k0635K8319o926l6921j6894q318M544O106M9736N1333k4618k8184N5127K6838o0960k3644
15032d4700k6527L8164n5932K7478K3324n3334j0276k541l625L4041j9507K9710k5327R8781M5607o4293m6647Q4721
15014B9117k3387l1669k7840r021j2325M6717K5468m301n1821j2698J1186m8287L64O3534L7500k8197P662M0989
14996A2991p9161l531o5541K7930O6577L3877L311o3662O069p825O627J3506N8509L5389l9393k019K5767m5932K040
14977a4471K9235m0699l9706O9781q3349l7725L3595L6431R657L607L1969M2239J9261j06879J7154K0455Q51J6557
14959G963j2731j0342L9591l19K5816j5134r8515j6029P6847j4700p4593k7381L56J10576k3668l3735L325J7247
14941d5426k4037m493Q8642m0426j0295M8220k5651J0039r187k7550K3069K9484m3816m2814k1479M6535M7671K3087
14923B1573J4058k2333L0100o393n9924j6130m4892J4757l2900M5569o5278O0984K1478m471R8952M6148j26993j1508
14905c7203n1270J9759O0289l4289k3385L8623N9823m0139m2231N0896K2599j1141M6512o8946m9530P6126M186k2236
14887a557K3262q1206m9875N1742Q4054o0283k0235q997O0657l8873n636o6199m921K5793O4095k014L970K5492K4623
14868B3892l5341o414o311P5464k5870M229j2530o7199k1364j3853N4223p532o5435J7048R0159l35n07n1121Q551
14849d0246m6762j6029O558K0750J18031n1778n3522M0308O7546l3816j9244m999J2012l5845k7480J1785m155j8437
14831g5323J8585L8281L3828N009n9454J2914L8036K9510L6198l1564m4657j812j2685j2176J3559m6154j4206L7208
14813c4903J2901l5958O5577l1454l0126k0629O0570M3609L8728o0314r682K3237m8925R079M377p4949k479N534
14795h5807P0639l121j4284L0585J1340r063p6968J9908R317n0896q17N9921l0538J8931p2258m416M8492K5108n4366
14776a08293N3829K5813k3315n985O34K453l8094K922K0987j9541L1512Q920M6188Q944k4869l8398N7576N3095k4174
14757C0204k9414P3134j3410k0464J1675r4718k0578K9034N2586j8184m7732L4636N3238o5609j3263O3861L9995
14740F4991l5712n4473n7418j0505M9644K5756P754j4466L381L5962o3243J0361n4520L1127K4981K0894M9353j4254
14722A9613m4972K1004O5342p9506k6263m3631K5868J0409J6105l3175K3437L4451m2860R1411j2351p2438L6889
14705a0667N8037m8198n9992l0675n05N478L0739L6206K3253j8593J0957n3593n1044p742K3825K8100M9120R066
14687f228J0104l1772J529k3874J4140m4843O519J13431j5453k8984K3807j7864k9130l6754O8396J0582L8828l1955
14669B0479P336j5683L8390N808j5434n5640k3658M4734N9402p5635l4042l9645K5000L5622m3242J5879Q38l9335
14651h8826J4962N7368M5896m997m868m9947O884n1674M053k3312K0176J1938N5294l515m9152M7382k0151q6120j834
14632a20443L7783O6718L3652n4579p5026O3431k0674M819N0696q621L7616N447J5749l1189o327K6780J0845m1160
14614d483k9948L6397L0915L1244p3978l1532J4772O257k1689l3488L752N1777N4856j5304k6068j5925L5514n7669M3
14595d4557Q9979j6306o8435o5916Q700O3314J0792q594k2067M2764m6210N5508L3515l2018R52j0989n1239P368
14577e3439K9014j0782k6421j0458P2008J7181L4474k5012n0307o5053M2438n37M0081j2757L7849m006m7249n9846
14559i2822M6025N271j6556j8571n958M7618L4564P4724q1454K0197N5495o0424l5708M3893j6280k0691N9326j2846
14541B5803j8067N9318m8888K466L4056r3386J5793O234J8708p6041Q3744J9313r356j5984l0396J4640K9182k6353
14523i214j8068k7734o8463j7024P4049k4242O4869N0651j12288J7865J6401j967L123j9235J00610J8195j7001M7640
14505G8167j2542j3497m8532n672J2240J9568j2192l7807P740k1208K4222j1806k7797n7327J7037O0038l8344L7336
14487c0376j2809l99K0230j2874M0303j09106M1351M0448Q064k0414j5160J7764J6549L2090O6029k6677n7208J8120
14469A5925j3183M298P94K5969l1616l7902l6880K6584J6795N961J8201K6759p1124l704J6965J0085M255L530K2671
14450D383m0658o0315J3808k2697m6687M2919J30553m4272p2704j4107J0708J25206K9531p2986N4184n6796k4521
14433d4451J13325K093q1816m6733N599J518j3942l3047l6311M7719K1436K1331M7723J8179n3108k0065L2513p2483
14415i0520L009M2459k0520l4092k1380l084R8118J4343j5282k3473O116l428j727o166P111Q8967K6743R044o3003
14396A3235j15324K7383L3732N9541o5494k8584m3832Q966l503N6557K9743q0720n1458J5577N874M2571P1412L163
14378b1161n0598M4577J0934J123p4349L7473Q921l4043j7422N692n3514J5753J4834O537Q4054N893l7505K0430q239
14359d0610K1994L8182l2122K6534K874K0401j5972m3094j1229J2262j2861K2626k2572l4290J281k8614l8625J04632
14341b9203j3919L1210j2315N2544l8040q398P984n1535P601O3840K7360n8016N2976k9391p4619n993O6685K1632
14323A0403m9225J1609L4666l6011n881l7815R8583P5604n5778Q183J3244o9812O1750j3450m6499m8861R553k6916
14305f6653K2593P389m7510P7881N5027m0934N2744l7443J037l6374l49J6705j9327K2494k4983j6606O5609p0668
14287c9368l7208J2395K1549R3773K2817L920q1090R497k9074K040M9372j0514O33K1727O432j7318k7046R926O527
14268A8990o6495l806O4304L6937q6552K5574M7814m638m0030q5648M566N231l000K6519J7773N0891k9484j5270
14250c6324J8642P5890K4885k8631l6429o369n4962j19658L7890o881N0675j8089K7902L4324J1167n4647M4315P7013
14232D0713k4040q7310n6395R8246Q0822l5597L9384j6536p0561m8267N137o2097K8509L6911J3617k8327M622J2648
14214f8521J4680k4347m026j7242N2347J2523L3612L1244j8740k8181l0335m6106J4935L9975J4342k5808K1992n1254
14196g8910M3658j4033j00649M6453J2135M3694J3271m762R4290k3888o6700P578Q3375j6294l4155o777J6165l085
14178A1366o2847L2564p545j2462n6680K8258N1153n9282N2774O756n6019M8223L9015P7662Q904k6621m7222p1478
14160d3481j0494M2697J2516P0869k9487l0415K3378K876l2321n8110l1066m209J8144P0557R158m4478L396j516
14142c1986k7286k1235k3992O1486l7164N1800J4289j717k9599l9038l2187R695M7804P4179m1409m7602r5238K6641
14124a42559J8355L1501k0985N5031R8168L4048n7625k7053m5021L4826N3389J1553o4779J4022l6967N7421r532
14107C793J9962M6800m3550k8821m9989K1234N9407k6918P4588m2819m8937o073N899J4222k3290j1297n8625J0040
14089h4374O6453J214n381q8925J2320O3356k7746o6691J6376J12808j9008j4291K823q736K3360m3529L3855j4174
14071d0290k630m2337M0318p244N9708J5666q0208J4698n83R611K9870k4504o0833L2512Q3728l262n6831k223J9642
14052a5192n5826J8647P809N3159o7409M6067j6884K9154K4639J1392p3197m6066L7175P2222o600L245k1638K3717
14034B4414k0928m9713k7542p730J5389j0401K5861M0637m2622o3055K3220J8666j0347J08417J7033J4517J557o6610
14016i237k6762O0190m953n8200N3271j4602j00175l6752m9538R1623O4922m9403O2678M1112l7912j1963m8763l930
13998g8394M0002K8223p888J9761K8045k4293O2743j5373L468k9459p1520j2318J5801r048N7161l5279m2429N7413
13980a3384K1325k1636j4112p1661O321O6244R7944l3654j8384J7699r609l5793J5328J1315Q465j5474O4824r3446
13962a7688m6384M5758o7391L43M3753M9093k3723n6976n3295L6816J09327m6398k9266k7921k006L5997k3085j3173
13944h6219k2981k4694J03283M720l4777n7638L2782k9279J3360M7339O029L1240n1137P5512P331n5208L2211j324
13926i450J8884P944J5147n452q5884p7329L8442P9371j8677k9618J4501j7372m605J1054J2419O3194j7197j1122
13908a5750n2691k4635M3676M786K2157J5964o7539L3818J1961J2222J9812k9416n6218M5429j9356o3099N067N5208
13890e8604M6643m4725m421P983m8226R3194j3281K4909Q0347m2426k5031j9388k4621k3150L1154j1154n3614N1099
13872c3312m6331l86L1713J7163R1385l9874j2310J9476n4604p4049J8499J3M9370k2206m33Q5706Q8038j411l5769
13853H0678l9176m0572M4770q988J361j2153l9281o8684J8986J9864l4011K4267R5620l6819l9128k4454M7244j8931
13835b9407J4670n309j2973K0674q907l2353j1085K6251j4513o254M8163J086J4258r389n1993N156N5200j1294j1177
13816a9196K1982R166m1457j2978P9454J9409k8688J1393K6518l4400n5046j1353R454j1741L649J6047m1434k6123
13798h5344M8624j2614o7424Q5648P951p1729J8939k5098J7407N564O1950j1304M9985l8174O8199P7265o8931n4885
13780F029O5275p5699k4855L0812l1839M267p8485J4467m702P137K0468p314m8067O4023N5702j1163K2773k8257
13762a9428m2979Q8959j202j43594Q4143o7576N9458M0747J3043j10143M1612J9132n5456N8357L5197K9145K5856
13745E5271r233j35656l0583l74l5107j7877O2995O6189j6068p19k9182J7545K4091n4214k3904M6223R496j1376
13727h2483N0637q883N4690l2185k1806K3476k2472O512m4481j1803k5778J7312P212l8968m3204N2050M7988L5766
13709c6420n019l8383K5225N1046R5245o3084Q972o1795j1475N0116J7558r8245P5066N1767k5626k9435l3239M139
13691b3587Q0626p1689o3633K4349R3986k7333n732m7279J0435q332L7645O8964n211o2533K5075n9394j1882j7788
13673f3313N3496k2016K468m1317j2941O4494k464K9844m40J236M0417j0032j5490n4723P8966j1228j7583l6720
13655a7346K2498m1097q824L95K85m7133M1687n9038M2178L6048l1964K4876k1308m190N1174l1007L6539j9564l0929
13636e6720J6591K2210j2661J760M5755o1072J0880m4679j994K4708N20j8873R173K0893l400R8361J1333p3719k3884
13617c4818k8723L9492J4077J46m0979m4314p814J6554M1996J1375O2717j1890o7081J0866m9892R023L0222k0072
13599f9115n1284J8452N0789N302K6708J0220n6405N680K1014j7114m2300M3187N626n6278K9799k41J2838K0988
13581d2134J8002P2985n0925m0736O5973k937l9529k447J4569l7661R928N2098O57k9882k0726j1622L6630l4502
13563d2259m7134J4481J3613R0504l3527Q2831q6643k3486j5102k0657K2812K2777J6531k0410j3351j4286N8930
13546E624k3390l6834J0415O6699K39o2591K6879K092j128k3396Q387J313N3922j2057l9732j2772K3316r456q329
13527c0799O0857j7054q5737L4548M4311J9776K3269k7231J3885M3315m1387k5640o4498l8096l3257n7629P5680
13510a05687O1802M989j8425L2787m7373J6968O5350L3856m5634k5036L6020K696o2366j7558J1732K2416J2566J0271
13492a0626m9471m7751O5008l652l0852L5596M7681o572j7153m9116o1765j8054N2385K2451M1272p260M1517j0702
13474g064j4767k3368K7708q218J894n8914J3596J4703K6261L9934n7826K8922k1173L380K081O6472J7819m7332
13456D108n7559P7664K8344J6624o4910r6045L8965N9710k9812j2781J198L1615m9552M2555M2966l8355p3530j026
13438g9821R74l573P3255L5256m6469L1563m7769k637K1449m0882Q190j649N1359j7826n7032l8098K9579j1835k5442
13419a21408n639k7660J18066l512q4657M6131J6455M944k6531O4517M3943J5510j0094m7926k1044n012J7643K6469
13401A95P679j1067l3908K4181j9747J59M6009J0592k1678m593k0832k8883J7836o2632L7936k8455L8970J2366Q6516
13382E0644m1640l5902P9407L6021k8450p4816J7297l7866K0858l1239K1322k1863k1555N9067j5129o5634p664N2173
13364d4969L5862Q286M3o7332K3724L907o4477M5417p01L6458J8085L779L3645j9206n8227l7223O4025M9273l5276
13345d907m853j4303N7303m9778N3955k4916K4885M0000q715m7388m390o5549k6557N0380k4053n3262K8543K2324
13327e1281O480l5023n4302j9818M2882N146N1078O0972n7342J6928L7668Q0690j2260l5408m5734m3919r7983K9772
13309a21454P9868m8283M9568N3390n6867L1189j6439j78k1746J1410o0038P8265J56j837k7450L8218N1032j9349
13291A9455k1168k9949J4001n1661K8378L5613P7260m7710o6649m3165N778J3202R5194n4486Q100m6686K659k9977
13273i1811K9389Q8777k2847M9379J8561o5106q1724j8060j0864M7437j7833M9113K3419l5790q9114P2905N4948
13256G79L7877j2803O938k5647j2791m2666k9341N3759m2658P3889j5156J8137j8137M755j4904m2251l2789P2857
13238b0152P5977l2079o6188n7625J03602o856p8595q875L4291M9684o5822j1913K8271K8697K5585m5561o524j3839
13220f7922p7014M1580O0677j0193n0360K0171J2037m9825M7808K6180J7698j7691k9967l6967K8811M2679J4537
13203b7761N4548J5788M0035l2001o8415N0645o650K1479n9634m764Q4855m4491p3377N6259O8659o6893j07176Q324
13185i0570M1427N7303r066n3157O245o9926P0372m3687O2519n8078L6034L0563k4621J8813J2796n888J6862O1348
13167E9289j9217o8853p3910L9369J5326m7630l6150J785P6204K2571j8569K6071N4172l9343K2798l5726j5507j6486
13149e3806K7478k4349n1173p8119J19175L0321k487R036k3250k3205L38Q3023o4221n8696j4052R5095O7202K5503
13131F3813o4192L5698o3159J1757n2232J4866Q68K2598K1358R2840L166P127o968l0315o1678M576R702n9098N143
13112d4130j3396l7394O3419M5928k1436O1963m9302L3073k7872m9599q975l7406O0684K3921j1845n2813k5223P7674
13094a2729R5830p7874Q768K7374p7507o0737k7386N46k0132J14931N8983r826L0770k4653p4805j0427N7068M1991
13076D0185O265m1015K7172j4706j9675j4710O2352q2233k3119K019L6149k2406N616K0931k4568L0806m4978O0381
13058D466K1604j0307P1168K9332n6679l3267j1449l8811J8687J2005j10767L7306N2865K5426k2484M8247L1883
13041F9225j0758L7451j1352n3190n1840j1106P766l2602m2352K3209J273K4511l2760M349K2693R383l3126n4610
13023a33836M2586J2573M6170l0800L5236K1871l8428k507N6189K425j4840K4797n1629m0773K9706J1101J3529K539
13005a4091M7629M263o929k127n9301J7264K6976q7356J3147L4483N931K508l6984j1227L7126J9493o653O2749o849
12986D0052k0425k6310Q052l4100P945Q5367l6193j8759N174j3293m1037n4981p805R4960j7260M9961m3706m1366
12968f3724J8434N3373L2453k0525m9126q34R408O148L7232L968r8847J7818J2784n507L4723n8358J3846j1452K7804
12949d0382K3636J6380m5564n4285L8024N5072m4192M2614j0062L46J8979L4002L2946k5171n691J8969L4037p1736
12931A7922l1787J1034K2242n091k3398m3633k1346J5998m511M1450K8569k1124K5412L6933Q460l8538k3225M5127
12913D0494j8525o4630Q7207P8461p5372r490l6725j9101M4163n5432N0748k2998J8004l6928l2932N7864n1750j2357
12895e9299J2540J5475q762q9366Q078k6761P5488N4259p268q0352J9553L0165M5281K1531l1931p009l5330p9157
12877a42865K206O4371J0111j6774n036J19844m8571n5107j6407M6236J7457k8304n806L095O805n80R7256r78q5565
12858c8612K3231J1729j1544l3907J286L184P432P773R537Q0353n8664J2982K0695n4136m3191O7661J3179q753o0223
12839d9988j0409k1560L8961P242P407j6595m2826J8670P4450K2750P066r3689L7451M6706L2192j7563M4087l4744
12821D9608K9164m8107o8897J9652j5350J1359k831q961p8207p652j0943L2119R0684N4763M769j4762J2445l4940
12803A3913j598l9825j4548L5140j3910q956o1191N0656m4105n316j6662L5387J8346N1382J4451P636L2983j0707
12785D3076n3317l1394m6685m9886M9136k1791M897M1300n0058M4734q931P9934N3373O893K0722n7706m9080N640
12767a9143k019r1656P3303O251N0942m6634o1586Q754Q2492L2015K0344q2345j1767K1928J3244j0801L2394l9047
12749b3331l9549K055j6450r427O134q796P0041K4011m6113n83M0110J2176o1894K5425L8370j5099j8852n892n6688
12730h4352L1104R5286j0661n2436K4589m1331k8671k9282N4453J8562P9305j2317l9998o0474J6501k2713k951M7843
12712a7543k4329K1812L7542k8628K3490O700o3224j6529J293k7567J6782N8853N3590l8658K4595M2016m7901k659
12694A9635K534n9078K7313K3885m5591n851K1205j8947L139J5683l6966O9617K9398k4563o454j7783k4511n3889
12676h1224m2768K0039K7249l1582M9016J3230M0375n3677M3962j1936N3265K9262q0057o7554M559J3199N5577M2481
12658B3416m0101K9110j1225n3062o9111O5403o353K3660m576O4323j3265N167J3389J4490L820l1424k8814j9126
12640c4279m7527L5506l6452J827R902j9413N3120P0393k5839o315J8247j8218k1432K0062N4091q6194n6665j9908
12622a09094J5199O2544J7869J906k588j2321n683j12k1778O0854M4510j6379J7886k7186Q199K6710o990o7787p0832
12603h5073K5294P0137j125K1731j5026K9629J1485O1012l9591k9842k5838m7206j6647l2908J1907R3914j3380L2690
12585E1163m3536L633j94j8312K5976L0070o636n3998k3572j0249n298m7405R687L4665M3880l545k6484m816N3462
12566H491k3066k2506O7462j0299j1038m316J3982k1257K0050k932n6368n8729M8820J024o8564N6496P4809j8060
12548f001j0917L6763J7932k5783l5902K6349P3269l4231l9015l3880o7607l7769k709J30784P4725l4063j03219P331
12530f3943K7770m7170K0490O24O292L7662l0782J2037O5098M3168m9813m0639P8937l0803K0509n5256j1838j8025
12512c5682Q5214K126p153k4132k3945j8971k9401m3693j9602L5717N313K3242k7539N8992M8520P4097m9559p0282
12494a6738j577K2209N9861k0205k7511M4834q9134q700o429K8286r06j8817o817l6221L4428J0801M3709k8997q4451
12475a02375m098O5475J4095L9771K2909J2806n6790l528k9914k0450L131P1466L0250k3241j4131p181o4280j7547
12457h3632J28590j2833l8478K7470n407K7073p2118M1440O4604M3485j06064o3380j3208Q749L318N6433R743L5950
12439E1735n7385p261M7796m5626q1437K9281j94L9771J2647L6648j905j4303m8209m962R0701m7246O146o5690N0304
12420i189J1163o788k8972N85L7218N4072n7337L1308M3907j6357o3094K5387K0496k3613n8446M7420m567o8584
12402f5391K5831J6229M360n8329R256R3156k4425J0863J519J5735N9864k1454M961l1285l4280K8097k1528l8689l49
12383b5859J5541N50K1847L0123L277j1631J2448j3144k4220J668o1574O1223k4909m2246j2238l6238j5169M6160
12365g4391J7118L1588M082k8473L5116M741j3308K2229J7764K3182L6007M6699L8823k6001l8231o8962j2839M267
12347A9411p4172P3236K6744K4800k4919l2894K5242O1899o9179j5844k7046M0051O1836J552o3210j8591N24j9802
12329a0362P630p7227K0066o1321L3050N3309n4440l5137K7100k7159j3888P6598l2305J77l1866K0088N8351L1260
12311a6076J1691k0285p616N4017o1713J9384M6017n8134j8489M363l4748N2354L6264L9840L9866j1977m1312j2596
12293B0850k3939p2837K8677J7582J160o031O4j5963J2115N3173P2032m4733n5430k4504o3090J6339N7202p810K8283
12274f860M3519J5236m0890m0457l1241j4399p820J3822m4800j2942R896j0461M4381N2001k2880j4547L1976r237
12256d5703J3614O6290n6688j6653N9052l0169k6676J08882L0490o8093n1201p3637L3119O7380K0221n2229q9550
12239a11551O829R5349m3437R485N8158o7234k5961N1564O1523K6996o964l8012k0322K6202j6821L7627j9643J9581
12221D3369L0415m6230O591l5780r8426J4330j979j69M937R661k5609L9184P4646J707p0245k6912p407k3546m7191
12202a58654K2124P0025P2601j6208q468j3678l8331k4723R207K2616N2546m1324J3507M7619n234p4819l6963J4392
12184i3765P850R7351J4390n2378l3653O9978j0015K3263k0706n2034M755L7950k6800l2997M5981K2411q2624P5849
12166e194K6320k5906J3888m7935p9896M6947L049M3689k921J8599L9968l8213O5946j396m0240j0576k2807k8287
12148d4965K9244J7518L143J8034l9322l2552K5991J3036M6963L8886M1168j8277r1462m1689L9531m5838L2439J9390
12130A1238j6447n9411L3059k0140O4419k5244l5193j958M2111N92j6271M2812K482J7301k0984J6973m6375J1530
12112D94m0073q3235N5692k5068l9479Q1415Q1974j4878p3488L2813o476m976M815L226m5112L2280N2352J5498j3394
12093A4380L55l140L6551j8071l9911O652L1587j9923m8573K7171Q9307m1935r0393l9492N2071m5345R0275N6267
12075E7833l1858k4003o889J27794Q843m6485k0447J2338M00o5937m2173k2964o3943Q5669Q6483J5695r80J0095
12057G9471n7879O230K3241n3879m1219Q2487M325j852o7992n0362R423J01450l6284k931n488m747m325o227k1767
12038d8325n999Q9796K5926J1239K899m6638q968o6154K3556N7905j551r352q375o4912k4934N5460Q26n8090M7519
12019b8172o2467N49k0646J20826j9676Q583j1406q23K7537M856R745j2651q774j198L2399J2293l7727N486j6842
12000A892J2615L2280j5115l079J5706l1935r031k1491n0771K1462O1063j1322m088j8115l2830L2004O6456l5413
11982A0288n7550K6370m3861k7120J1742l179K126j549k1308L1167q081p416m1337R2929K8904L2091N7954k9245
11964E2925k2833M2292n448o1254o4595J9534o36l3553O5147q6785K4108J1607l4606J7488M2496Q0228l8133m5989
11946c8007K3705m217O7084K06k3908n2233K9424J4994J293K5713m936k2059N862J9421l8311M6399l9441m2596O4902
11927C3295L8156l2957n630k7871L771P798Q6005q5970k0678R1051j05544n4695m5131J7747P31K7802J8066k1881
11909g5935J01028j2877j4189o4024O522n6256K5198N9583K9956J7211O2199m0751p2418j8682k591K7314O6245m8324
11891a0791j5094O0279l405J1224o543q0995N6577n6867J5762q713P0750l3890M2629l8985j3277M1390j453K4010
11873E2608l914j12510K3062O8013q686j2514l016J0987m5127j506M3387M5956n1815k011j0594k877j7955J2757
11855a5755l5279N1276M2081L7736k4270j707k4110j312j5136j4549l4855j5709m0413J9438o081n3286J06296k1819
11837d7454k4333q677N2395J7175J0721L7555K3649K6273r7342k5480n784J2426Q755N969K3523j275j9773N5298
11819D3621n9061K9339p85J367N514Q102l2281o037M558K6341L646j6648m9922L2404J1818J4459P4175r2623k4688
11800b6701J5520J322k498J1497j917l3568M7940j9788j0802J7658L221o156k2693l6845N1387N699j3012n3373K7715
11781d5394q233M1678k473k6810M6832J0951J2801N673l2464o1069O6715M920m4731M9117m0978n8688M8680j7141
11763e0614p7976O5996L4058L0336K2087m6699N043l9086n3975J01330M3130m9076m6736P4337j4797m3688L2162
11746a4168L9014j5696m6874N1572q867L474N479n8233J5697j2667M0386K6702O3352m9075M1473q3728q3189N6320
11728b9028Q2721k527n4737n7499K9906J8874k9911M5126R8708k5811p4374m504K9073J8786J4849k8045O209m7030
11710i214n2375J9767N1696p3870M5722O5223m6776K7357j3393L6307n490p0788n3139N2855K6091M6382L6662l0732
11692E2285J8039q9240r3598J21364R518j2953K7129N570p0363K158O6188m7579l3643L4238l4104N851N1319j6670
11674d491j9762M9693O8015K819q8049p5356L5264L9319L595l9206P6689K6605p4871p9455M0787n9942k4097Q1579
11656d0864N6947m874j7954Q645k5016l3424K619M067O2054k8051j503K793j0955q025o95j6541J9724L7941p0076
11637f3188m009r921O6835M2042k0845M2558N165j491n7672r10R8591o6741r6591Q6729n664k2796j5638Q023L6730
11618B1207m8476N6969J4096O5921o2437k3897k8242j5072j8403R6746K171K5100j1803m6769K5172m5456k358m4838
11600d0369N1995K4465o2201l9856k130P9665K7977Q114k5438k1841P0257p5102R094j4242n7082L8809R948N1990
11582C4053j9226m2648L158O0644L3259M8707m127n3949m9639J1757N8596j6475p819m7295k6258j3899M0072r917
11564a006N6297p3502k4579O602K1737K7759j02384O2807N4439N463k0920k5594m4123J5840R589K5178j6395K7727
11546D935M2817k9880J5179L9774j1647q4213n8318O1819j7663J4596K1633J3630k7024K8850K361K4127n4630m475
11528a8129N733O3816l9626l1211J07309p5344j8333j6834j1439K0528L3138j6624l8982r8692L6247K0289l480
11511h1634J21517m7186n95J2033p2372P0618N5885m6950p6288M733K8006L0407j0003K1496n9400r186M7724O3389
11493E2194K0675L2764r734o7969k8914K51j00179K7245L4794k9130K0622j1296M6351r0246L6920m5691J06038N735
11475D30j2923N5522p049o2776l2631M9776l4276J960L2622N503k4341J6048J7480M0757r2871p2266m992m287O5421
11456f2893O4283n8023J8382j7671Q694l0030N775J2133r792O9270n1803K3309O5032K4760p5488j1260K4260m6461
11438d7523k7889Q6485K2718M68R184p5770p0477L5794k345J971P5766m7629l1576K9462N0247q820J4526J6094j0840
11419A9846n5404n8305N9023O215j9002l0595O8302j3361l6959Q9225J0765M518p2677n6999K1604M1914O6774k2597
11401B2287k3749l0635P941j5256m3642m7019J9637J5560L7610P4271j5595l613k0304K1366n3934J0982k3015L256
11383f3852L7245P2611l4072q4526J5382J1778n4321m483M9607O936J2364k491j932j8665n409j9650K3719n200P134
11364e7825J0630K6299k3209k7301J9658K6031K3617j12072M6712O170j9145K6587j03289O6857L8386J5439M9935
11347A3480j5344m1384o1316M9439J4711M8177N1593k603n4119K7473k2963p4495k1587j1337O6558Q369l4473j7198
11329g7019J1372j926j2050k7838J4233J8392j1401Q2649J4287k0802j1506m2963M4909k5875Q535L3231M0667n9575
11311b2680R595L0079J6954K0022m6159L351k4512n2574O0496k9654o1870N2134K0172o4302K2513K8681j9576k816
11293f0146l6947k1116K4218L6574M8911R01m5625K5569j0747J0968K3745l2344j5255L3518m4655K0001P1421L3533
11275F2524M840p3400o0038k408P756Q251q774l8832L4418l2207k276M2468L6150L2016Q467p248o8600j6863L6201
11256c7555q429L6885O2091q836n0305k6499k5087l3140J1997N6636J7016j2412J3582j7297k410j1073K6694K8970
11238B0828k4760p0190L2037K8271J4743N3081J1654k4777j2871l1871n3972J6119o957o16J8015m2641k7917N3254
11220d8570K8898m5124p8385j7L5210P3663M7328N7462j5199l1875k0725N2690j9707k7492k8567k5760M5014k1449
11202b2605p313L4255j3714J8728K0557p9916L3599P7251q1014K0787N7004m3067o7758j295k8134K1173o8210J30289
11184F17P3597k8807p1732M1172L963J0363q303N170K45K9341p1815L8123j893j8185N3698p9776k3332O2194K0520
11165C5160k2718Q266j9602k3560N2796k2693O565k0876J3233j2990J395K23K7267n3204j4945R57p9222J3024M6547
11146f4377J1674l6243L5390j5337N6513L2946M0946J3356o275q1771l6092k59J4732M4584O598n4951M0452l015
11128a129q3793o030M3175l5725J0862j7734O2177j1800l2764J533J5387k237O5919M6059M024o7503j04033Q262
11110a05350K6389O5499j2952k96L8569m4800j5717j1510k7499O4718J7137n3851L8619J9994j5890l3729J814O4841
11092A5986O1636n0771l6072k7981k1261L1983r259l4164k5183O9352M9795L3887n066K0461M6295L3650j66629q3025
11074i6366J8373N7133K3537k005m3667m3272L2752M1036J620M9736n0204j040J0898m0589p0870M9279O4678j5280
11056a4251k4194M6669M1403n9718R835k5189j8496J22763J7230o0440n481K0000n209l9816m4095R8045N1719J052
11038A11827P445r6670l8425K1463K4933n9249j6303J0316N8166q7172n4057N1826Q0579m6530k493L603m9448J8226
11020f1963l7884P4717n99l4017M2033P8444R7335l5971n1291l8180K255L9034k1055J5654k6534o3515J9102O0054
11002E7619l4556K5061j1436L820k072L3627l3954o475J145j6680K2665K0456L3738k2652L007O501J3993m0097k6549
10983B7161R824j8411l591j5581K4723J8989j6953o5175L251L0125K099l3423M6177Q954K7553K6080k6085j3993
10965C1724p7459N8393j9681P544L9932p0876k9804l9144j823N1342P886N9750j5054j724M7076J6131K0421j6037
10947F8597j5419K2684k6948J514m246l0115k7842k4521L0201L1495O032n1198O5900P170n1253J9567j6757m3929
10929c9068l9027N0374k1775J02255k8252l5647o544L2208o0003K2536j6925M0051O0629j18341P4296N2849m8136
10912B1480R377m0226m58k1234R944m5347Q548L6803k6738J7749K2093M578K477l645L6108L1281k262k1682p4159
10893c5313M4700N7884j20684l6265j5199M3883j7234m3060O2033J775J6030j5803K2497M6872J8312j8859J7160
10876B8729K7644k1971p906j2902n2530n236L9888K1967J744M7309l4829M0493k874K2075l1545K692N9119o7622
10858E4245o0772R509k3637j14O2647m4090m9300n4812J6660j037N6003J9667j6800j993J4964M9042j574p0973J9098
10839b3267o1841l6846J45560J7892l3729k0569n6290J5247Q3905p3106N953n8891o880L0342k626M3386K258o500
10821c6002J27381l9542o9543J8568K3386J1003J958l1084l4408J5490j797o2326j7947M1332O4766J3632n128M148
10803B3887r335l0736o1867N0468L6149m6920N4724q3884J4836M9165R174r866N027M457m1311L1842k4338k5294
10785e3822J0942R4738L3008k8151N0221k844k9965N4649m3362q301J98k5425Q046O3703m0213K4471n8470l0626
10767A8797n8537N1350K2813o517m1270n5387P9732r785j9523N6286N8687n0080J7771n4616M9390o9679j3571N5809
10749C1670k6422k9426l9598O1146M7904q9922L0645J2997n4059K0231l7907k0533L6338Q5652m1374j6679K8403R60
10731B6J1106M7075p0158P4407j1053l3965O505l3524R61J7435k4100l7624K9251P133N623M6485l9214n0941k8193
10712h2765K2724M6609J9297L3131m7659l5530l237O8932n112J1309q3803r033K0220l004j725N2613K3108j0013
10694A6062j7679l903J2592L6075m4422p990j7611l9396j7189J1393N4572R744r100L2167o5612j3177p340L3869
10676c6945M7545o3951Q2168m2787M6792j2973j3400m0528Q3499j5683M481L615n4435o882r53K771m2503O0764q1109
10657h0514J7600J7868p0419J5041Q5368K5389L066m48L9464l1766o2015p344J7265L2067L1745k5347M4015j5558
10639C5477O0488p1656m8351J7512l6036L8344N1036K0055o1123o9825j4614L3324L6444k9864j5419J8491p0227
10622a05944k4952M4901L7164m4815J4943L0842Q7818r6359o6188R2084K9303O5477m9561o5293O2851P29O54J9367
10604C3021l7675L825J4464o7120P5644M1418K704j07926L9279M2527l4625N4688j5541p6378M2762n2623M8708O7299
10586G4451L8931m0725p435O438K3012k3240n6252j5374L0514o2805P605L9328k194M495o7258j6337M3386N661L5484
10567A7685M9256l5537o2914L884k708p8487M48K8262M2202j4746R646M8423P5298L5962j14553m6479O0920k3229
10549f667k219O9007k6078n7075m5221k2604J7083J9724P342k3703P1236k7433m381K4144L0112O821m213l9338m1839
10530e5302O557L5278M0043o3716L6310J9255j2225q4794l1693Q7639K3163L1003m1267n6589O1551K222K2672j7753
10512B354j9590k6351M2969p595L1018j9652l5641m2077K0795R7269J0886k4582j3305J2715r954O345J7754J5503
10494E8861l5672l1278J3104p865J5635K46L1813J6875n7096k9509J3667k5025M4731J5173k4650k4887J0210o984
10476b2651J2384j2728L8941N3946n6785k7418m1549M7356R306j1042j0613M5858m1055l0009M2111k3732n837k6178
10458e9695J5535l1917K0288N183L756J712J2975J6035M5830n3250J5930P7598K7535k6754N4105j6850q7757k6238
10440e979r331l6773N5532P2544n9381k3856J54k9727l0393K9695J2431J1583n7851M0889J10122k6187q8061j7604
10422e2193j0563L6130L996O4981m7716o457j3853m813j5489M0493L6846r0421q769O8900Q7255n526p0158K1306M639
10403C8588J3939o4302p179J3194n2084L7367L5404L1003m4727j4949j7185K8407L7092M5448o1971l5364p7882K
10385i5199L0047P089J5744O8949n738j1174M6956j3063p5320m4346L4778L7269m4268j431k3404P5270O6013k6878
10367D1294m7543j9670J2657L408n3452l6278P7852M1613l5395J9263j3418l1236J04883R679M918o9700Q595L3771
10349E1241p5547o9938P6331L6029j7731P966J8966o8740J3411N0098j917N5416j763R401m8122l7982k0082m133
10331b7096Q9240L4517n0924J7736m3575j33426J5684Q5040J8136m4568Q523K4223N1938j8144m3378n8356J5778
10314e8652N2145K3008m6546K679m1373K3997k8397P7240j692J1248k5598l5591J0417M5017J0505J577l5093K3939
10296H830p664n4733P3750N2019m7251o0354O3820M7967m1072k0251M941J4475o1251l4145M6583K2686k3895R285
10278f260k9504J4996O4012o161m8945k4994Q0444J1313j1356r565l0884J1481K8451j3606k9201m4850L0300O7488
10260E3159o1015N391K2009k1240N3761k1215m4943L7344L9731k2879j5900O136K6833N6315p460q6905P75q431k1002
10241i536l1635J6914Q149k9064J5106m9030j23894Q7079P5968k9727l3734L4678L4603K5378J5612n9070l1302M3971
10223c9534K7311J952O2907j8350j7381m2596K7674k8002j4284N6891o3790n969j1283N9636J26168p1044M4742K906
10205I7954n135K6195l8739K925j46917L2102m0824o6048P7620P6298o232n4812P698J392n038N3363k3130M2204P990
10186C8866o7486n0465k3635N6337N7452M4337l6195m0160o756j2291m5429K2136M5770N1122N5279n9581m0169M3757
10168C2889J2613J9929j5500q4963o851Q6652n0232o4720j2289N1787M4959j674l4153q7116o646M8636L2042K003
10150c2634J7540l0508K7364M8967O6320j2663o2385J729k6724m4313O1178P0431j0127o7678j7970j8354j449j5016
10132d6292K9881M7930K2081j001J4090l8814n1996M0971J9496R812m142r981p0990j5620k4807N8092j2173P7861
10114D4398o9762o5490N7692n1294K8087n22J2540n722O9131p2734k0959L1249M0869O284K1714r7217M5771N7685
10096C1720O2505j5426j9387k8404p94M7540o1839o3254q0034J05543K4038l927j7686Q2448k0228n2093J0608j6592
10078a5262j3290Q1744j8099o0164M6548K0647L979k2918L4929j4146k32n507j4209j119m95j6340j3964j3813L9145
10059A7434J1282m18K1248r312N9161n0357j2617M0191r391m9885L0368K1093j0981o0312p827l7363M2490L2077
10041B6881m7580Q516J6996L8795m7872r2208Q7615J5707k5701l0100M0488M9626J4046M0408j9563J1491j34064
10024d6519k6097M7052o483K9960J7908M8805k9804L0241L7168O433r802n6557l3932M5360m697p964l0013j2680
10006a621l5840k5156l2656Q6498M2098k1600P782J8648l1062J0487J9685J0678m8671R601M5185o1639J8398k5199
9988a4384o082r339J5002k5899J298O0172N2999m3506m8332m7783K6798k0807J7450k8894O4887n61J870J7093k1105
9969i123L6832N7862q7937J3947j9377j2902P5740O766m9220N4146M1001q1029N8723j5631j1908m8074p1394M524
9951e7054o023J7020P6567N0480L3146p4597m3432n0970J5133Q0853O05J7325L2356m8758l4461P13N3594l3599p1444
9932d2546l8780N882L3771J05390J9183j3846o2342M3667m5879o656K1169j1490j2167k3875J7589N307L7014o2629
9914c1238K3994m0807K8368O7483p460O716o7435J1751M8697K7317J32n5279p6189J6197m933P202M3434o0494N8956
9895c588P9833m3532r430j12988M4718L8108j0599K1958L7818k6767m598K3390K1484k5622o170o3459L8921O3926
9877F3403l2911l444l6875J6340k3242m1383J10440N4367k7066K7787j11559n6658M3330K5543L7192M1953n9645
9860B7572K7302Q259l4087j00855K3268L0610N8848k1275P2502j0906j06895m3461P615o696j3179J8348J6318o1690
9842a08402L8244L4946k5903J6640J9054Q5712J2238r2249j2846L7348L9778O86n0567m732J3672N406N209P3329q750
9823G8813p0047q783N4593l9522q815J6569j170k4376K4106j2233n0635k6276L0188N5977K6921K2376J8591m3170
9805D3107p3119L0103M6031K7072k1712J1106N426o2465j4526O004J1070L5066m2306J3792L7115o8048n12M9919
9787C3123j4256O5386J8888l3046N3828m7318r8362J6356M0964L9669M345m5668K4276k8955l2685k6487N0375M806
9769B5239l4820P7893J659o7507j0734K1860J4495K438l2298k4483j2900k6559j8540L9881J3959n8184M2213j5239
9751f1627n177l1155L3412R08P2564k3380j3044k6430M7617q660n4437k0263L472N4414O8373m0475K6316K4184l7383
9732I229N5742j3433l7163l0247k9518L6421N8076r0L8859n0040K8525l0221m4075N7711K4494j6128J4223o10p6514
9713d759M6454J9356p454k0828j7929j0572M4210J6700m4306n3727q666J1928m3605J2394M5046o4204K4329L829
9695e1804M5759O6866j9074n5046K8342P343L4883p8518j857K5939J8977J4833o9776O1958k3338j3406K0207J06029
9677A18317O901m2869n6328r902n0520K7627o0692m9394J22185K825J7201M68l5718K0367m7113J1926j7813J36827
9659I4295k514k1304J8894Q326p0170k9844M5222j0269p210r1628k650K6859L3256L0349j5988m9416K9054n218q1026
9640a00982J9372P6427J03217J9620o7616j06854N8694J54R3729j8127O2602m2511l6186l1199j5402n455N7531j7790
9622D9224j11486k2455J00074J0147j6862k5089J805J2626P687M6112p107o9759J3178L3450q6216J1775J2401P5346
9604C4851O628k0897P311j53L5556o136o2380m5056L2669J4618j7980K6782j7944l3968n1194j0900R328L4186Q594
9585e6085P2606L1892K2364l626j6084l3058p6146K5562L4835L6619j143J9074J0303j377m2736o8018k9360M0636
9567c3742K1231R193J3768M4132n7971J298K5567n2505L6805L863J189J8097j4312m3270o6243N7089l2017L6431
9549c1397L4550l017L558k5970l4228L0908j1305K1715l1300L1350R02P8654j2130L4641o3179K5956l2597k8932
9531a1821m8500N307P2743j0256j0148l0116j9268l6545N1063N458l9257M625m27K369M2233J01734p0414K2040p6627
9512d5807O737O6342k8006P0328O737k1948m4747J5648k0735o676r682J4341m3736O843k2779M6284m6090N739N6625
9493E418K1664n3510M6592K7510K4058L8182o3059l783M5633m6164p6629n2872J38645j3383j22045O2931j9647k8680
9475f9139J01565l0748r7830P773L3929K6544m4397j9872N020j8563K1515L4893M2864O8270K4091l4819m1670j403
9457H023l1943K9394L0099Q926O1063m8045o8600K8964m4579m3878Q0391L1731l9238n9199k9530K1502l4179N030
9439i4068R7361m5072M796M0536K2050L4240j5102m7332j9954q4444J6276K1479M317j6586N8902N6577j595L9805
9421G2186p3387k7105k3055J6726M0454K4786m8830q004j3459O6559K2487o3563j5991j2185k5584K0002K0680j4438
9403d1721O905R7001l9974j6636L9180r1107O031O575L7720K0452k6725L828k974r541n0390p408K5125p7623J0051
9384a11231K4731q128N4344J7836j4116r94M9174M2696l6866j4813p6964L6289J3452J6596m1400j6563K1030O13
9366d4314k2425L3936k8815J2385N4478j9110n3758M9771L2952L0710j2777r0075j5090N750N2408N1157k8726o3163
9348e4706M296L7567o8724J3232J9186O1892k4160l4530M1964P944k6643Q439P198N6433L0821q1342l1370L7842L214
9329H553M3850Q934m2468q492K0516l4588k8298k7929J8829K1655O05n0494O2731M781K8635j0071M0847Q315n9313
9310F598k9554j7366K0623K8365L2692j8933q63J3477M8605j6556m3326r73l5281N5459N1854m8220p3453K2451L5696
9291C1295l6083k6754K3796N2788j230N112p137m5871O891l3848J739l2483Q3784j4416J0526L0419k018L972L7434
9272H7916o8319o6424l161L8744J9061R922k277m0862K697O0328q967m5622j0387j5120K5601P9517m3778J1913j0068
9253B0714k662J9392K1715J6011r2200l0180P3359n05R60K3091j5594L9336J6986l703K1374l2930M9386o9602p9969
9234b5021j377L58K1207n1033N1431J2653P251L5035l6885k7517K9977m2742q300L2052J5955k9701k7898j6695L4700
9215b6550R4848M95M87k9500M1577k2621K1981j2589L1169Q61k0901k9003K3896q8304J098O5601n8108n1122k4275
9196h0960M7775L3070M4491k0376m4746M6424J6629j8894L9122L4586k1087R485j2861K7184K6166l0823l9269l686
9178E2230l4221l2646K4158k525j2795p855M6725L0148K1577o980o3964k9191K2624k9436Q4752j7123j4268m2657
9160a1447m4654j9640O9369M500j2238L2268O459L066m2424k9337j2786K1237M4923k8448n1268q992O6121q5422
9142i8713N7232P478K7622J7379k8010o951K9512L0916n1805l1257j4886o453m9595J3804m0500R2254L9893L5978
9124B3898O5812j8446n0877j9581j4666l5378K9588O2099m5685P044k3339j1652p941N5901k0416J264k4978O748P25
9105a9880k3050m406K744N8855k913m1073Q1760N1492o4358j0747P2063L96k1772l1016J8377N254k9508l6192n483
9086E43K6737n3659K5259J1893n6473m0378M195K0691m6168k771N6707J6917K7463P9906M9009k5759r7411k6936Q869
9067b1366L4467J1797N027n674R0350m3813m3499j4048K6621K4827l9122l5601L4129m5668p0485O010O0250J12114
9049H6316R002q0008j2654m8935P607J4934Q7563L5741q0192o7860J8348J7097r499L785M326L9372m581p899j9643
9030g180P1762K3274n862q3000K3687M0098L9283m0548l6003J1054N0270m0088l2141M1518k3882m8129O6573J3190
9012F3876l2041r389k2001j1275K6886l5560M6155n1931l4610l8443M6701R36M5162O7063K0866n9557o55k0693N8779
8993F0269k5237K9244m0292k5394k4292N7350l8629m6142K4871j2677M2681o2567L4606K438n1903P9141P7765k1634
8975E9598j9241m4317j8641N7562L0264K181n08K1056n9257L7686K4529o0432n235J3786L070M295k5915R4997p2315
8956D3163j0214q0570j0101O0372K5658q3691J3K2271l516M2084L5288k5637n9895j7221O2396J2678J8057J0702
8938D1837m4451o6381k9210Q2187k0283j0067O4232J462J8629L5316m2984k4767m779o164L2766M3222r0146K8745L94
8919I558m612K5094O946n0820l2865K1306L5890p250j6113l9322J2765Q178L2899n04M3812L6953j13767k2345J063
8900e3134J6132j5457O7627L156J8858o9679K7774M7023J146l440j1322J4035M230L661J4786p541m0534m7674O5134
8881C4781o5296l0807M3180M2150k2914k3774M078L9685j6685j3635K9351n9539O298K3339O0498l0777K9518j03509
8863e4058j5078L2828K6329o006p644M3985N977j306M0100K2026m6741n8606l4034J10286q3268Q276o1836j9768
8845i8538L8954L5304N352J3851m1703M3103M398m1394J760J04670m2205k6599m9199k719n761L399L8721L0757Q3134
8826I5285n4119L218o048o7349P9887j59j9229J4054l1405m2060j5407L0690J5247n3596K6366M0360Q1712l2168
8808F5279o0523l2358J8417J9971K4233m3502J152K220l045j3586L8752m1817P7873P762J5640l547j9127N2779M048
8789A10621m5450k8424m28J5971j4116j9168o974l4364k4964J5552L4793j2540n382j671O2258p8366M2489Q7260l315
8770I3782p398m8833N9877m38p6746L2552N9481n1062m3616k2330K3027L4561K2552m0278p5532l7148P1454K9952
8752B3857K7040J7350O0324L459n8321K6875m9939p0473K2900m758l5701k6306K9958Q374J228M5733j7217K8439
8734C2822m8163J7267K2350L586p635k885K6021n91J5543l5595l6447m337o260l1828J2284P807K2428j8677k183
8715c4493M7216K8688o9912m7045L5672N3096N7493r2153K8881P6592J6696o1557N2392j8487n3499j6990O1182n582
8697E8190l7986m4133r486k0748K7979l9680N1136N7131j7123l2041j4815K7253l645K5325r7995k1099O3453M4829
8679A6545m0362K7899m6144Q766J3360k512L9041k8014L4581M5684L6297m8375m9062K2435J1039n428n546L2123
8661F2327L0971j3258l2221k1459n8159L9308k9160q5600J25291Q202m0125m7915O1418M9722l7371K2728r9138L8379
8643b6060L6393k6082P5884K9934K170n372n9414r093j4329J1764L2492J1320j7678n5148M738P2940n360k5737k7642
8624E720m2543Q8198j1896k5853q879m8276p028Q8739J305P97m3461J2533l030N251N466p632k8736o6461O4196O3842
8604D2252K3291q240M3687m0732O966J0855p54l9725k7850J11088k8074n0041l6136m6743J2379L7772R19p16j1697
8585a499N9612J481R637L626K4693k5123m8900l9286M1294p807K1558J3489L0776J9859n4263Q672k2075J6052K1073
8566G2869n2263m406k8904j2431J716M5483L0171N0307j004o0808n7562j0678J8364Q336l2693J3229N6889o9602n454
8547c8441L6628K9250m4667M0121N904K102P4372p5470n6938k9658N7968j2923N919M8735q6005L1789O6091M7444
8529A02221p8544p654l9374j1136K2446L5945M6526M6573m2058m0444M0418n3058l784n6036M9385L0805k7155n557
8511I519m9765j1893O4081J9224j4426l9521l441L1244j5386J0289L8210P677l1259P884j8576K6867k4679l3802
8493b7753M2414j6194J1818o2390M9571N3516n7664n6000O3720N4710L7817n6280n4034j1673n7217o877Q0489n489
8475a7516M3127j8037J0650K7157J941r973j8033j109J5978K4485j0955n849j0086l3327N1190m0983l1527K3042
8457A75K5870K3210j0667k9554J5095R141j1436l9884J7335L524M2331K0140j8946j0583m8628J4848K3836m2907
8439a7100L3780R1795n709o6305M4955j2818k0351J8554p4984L2439N8058k877j04877k1865L3021k1688K1013K1638
8421F679l6549M1255J8215J5824m7404L2241m8222M7386m4058K6476L5894k8790o3654M1915m8681j3021r463p420
8403h1377K909J39058l7141k8682o8308M7634K6142m3674j3384Q7956J2270L9746m51l6409k2357l8797J4045O58
8385a62P7139O18K5770L5J0718m9358r8365l2388N9196j7784j6703j1131j5659P7203L0355K1209K6584o543p9855
8366H79R294J934k053j5189k8619L0026K125j0447L0362n2272J947N4726j2163p842k531J0660K5178O568m5004k43
8346b664J3599P801m5626K240M1859J0198J652K3540n092l3340j6953J4149L6052n2583k2768M4745m9640J5900Q9623
8327G2692m4762K8018j0098k0557j7702r6212L8122k1897J2011Q9310K2441k5518k0962k3484J6442K7475M0227M443
8309F9989J6117r5987O5077p0908k4693o2564J8984K468L3137J1002J76K5499P2822P3123o2822j883m5899L5665
8291E9303K8323N0012o6443k270j2523l7025P347O9402o5976n395k7477n414M0866k3001l40K7419O461L4942n8212
8272A9999m4845P444O4904j5929n7539P795M8653J8288J9726j6334n9932j1844R0679n7199L1644l7226J74J1331
8254A9789M1352k450K0559Q536l9127p5158J4860L1036K1550q1893m6725L7544J9919j8683L8854l6275m5881J24102
8236C1909j2293J775j5599M1217N413l4156k2080l3513j917O2569j697K2508P9429k8449m1237p3538p31l3850M9699
8217d541M3400m2278K6197J4147J057J8678q0617j4130q595M4235J0246Q011j9754n62J4836j6321M3491j0555n2788
8198b5843K5686k7184p690K4002n0922O0640l4905O909k3896K7248N2701J4096J1910n9972k7705O6631l602O9927
8180I8031M712o9084o8411P691J3510J15761n9226p1182j6836M64M6087J2290l2773o788P5991N2006m8267p6718
8162b2742M6959L8572n634M2356n4741j4559k6393p6697L1815p368k5306j2337J0687P4128M7709o4604L2447O0315
8144G4607l7579L733R7155k8949p1825k3620J3297k7535J543j2468m699k436j5019k0646L3673j40K8946K8666P065
8125D3769o2286L1109L4054j4367o4245n0918N4157l6406L4710J5190k1815J3291L4433J7858J3550N442L7400q2163
8107B763P0737j3171n3480l6285K3531r471K533O9523l8361K3169k1380o2513p624M3590n60K5757J9508k6099O3734
8088G5901m7339k974j7432M8306n9109r0500L5433Q0308j6266P0101J52q8155K9036j2100n6620J8023J12180k1144
8070E7801m2311K7447l6701j2388J587N4842M7095p4103j240n5306l8906P3161J0911n3591L2698K9852L9661l554
8052E6955J3323p0500k2402k2035R7101L9527j399m2145K8753l6957K516n0932j7185L8423M9171n1568K4039L6701
8034G1386m4197J2049l8812p5853J1435K9001K9671N1946J571l6360L422K9760k4780k6940n5092M0493O2343j594
8016C9449m2627j479L6334q917L5897p089k2901M8842J9714r6045Q24L9836j9483n3423K7960P26L193l9592J0590
7997b8191P2129q1383k0166Q7525m2597m9098J1324M2633l4825r537L8034Q2006m802p1927m0123K2933K8271k5515
7979b3309n796K1450j7545L6014L0343j171R718m0769n4510j8519l0354o942M1083P0417L4315K3405K8639m4361
7961E2108k7450m217L3120q619o5731K549N1064q0172P1064O3877l3905J6773j086k752k2551j7092J46r937J9909
7942C7098R1228M4248q3615m6420L344J894l8565n0912L2927n0358O1971k6221J5128l1531M7408J10876K5697j21130
7924B3067l9807L9919j2898p2249Q7099n279k1629N5428J1056k0677L1912J185m9956j3477L2016k4211n8305m6902
7906h3708K9261N1325N1201J0619j5828j3391n2802k0456r240L5769K9394j6505P252l2661n2641L3252P8324j2333
7888A6832m5480J0j1171K1180P1987j7652m1679l2402J1331k5115Q8314k8170k5549j619k5043m107K0108O036J7088
7869e101N697j5709K7677p0722L9327k2870j6453J05238L438q382r000J1965l2468j0051k7666k982l8280k2997L6908
7850e2431K316N6758L5162k330N50l4898K3545O208k2631j8983j6999j3328Q8859J1153k2008l6200p127n4133L4378
7831b2139O0397j5541n9703j6365K3671O8903Q461k2107J812Q3337o8002l9324n8577L3703L7793k28N5541m4410
7813B7222R7784o9600r6482K2766K0116k8385J5953m2504K784M4586J3052k4638J7808J1845k4411O1016m5932M445
7795G425j7704k9228M0783Q325n1372J2413J8971K677K0999j3875q053M1518j056m8040n2795K6312N2919J7297o984
7776B0532j5165J0623k2973l7281J6963K4731N1362r1533J2627O0411r060N2679j3927K5033n1111K1059R4098l9401
7758A09667p6797l2564O9827n128j1933p6236l3012M7596O8159n853r0970n5065M0253j0626L7988M5656k3842l0434
7740c3314L8022k6769n3965N4993P5431l9987o5255k4021L6879N2952K5387m979L0211q499n2279P988j2634q1406
7722h1245K4086L4438L90L6803L3327l6430r144o1952K9308L0128j7242L8468M8058k3486o012k1618P4012R1861j743
7703A82007q5452q7278m2695K3939M5343j5525L1086n1796P83n1551O1204N7811O8523k8354j3298k9325l4213l6127
7685d918O5103K2499m5977O207L9386k858j27889j5214M7840j9047m499P0764R9481o6868n8512p1750L863R8447
7667C6058M0850n2541J0446j5783L3855r1939J933J5388j8911r263L2694n409J2422L9517L3747l1754k5547L529
7649I292o0702O4072P8458J0769J747Q072J978o6934r3148L1470J0854o43L7048l2599N1086m7208k6123K63r017P915
7629b3350L8578O5583K809q1696J7667k9019k2727P3399M3815o5193L6259q05k3894k5176M9473K4520j9750m4742
7611A5751j9853k9788O385p8368P0833N5925L2136L2574m2504l6305o2040J1620N6439M5416j2251n682R147o7892
7593a8457j3489Q4647o5546L6151L7872l619k7105k8627P8415k3783l2541q2730j5731k461L1627L6081N2759p8570
7575c5107p6469N0673J06393K1727n7629Q502J1699L6216J0229n7866j34784Q0192n3405o944K417J11815J05163
7558A22822k5228q3105K6777j1306o5110J4395M6396j1234P174j3477j8353k2629J4714K3655k4603L4934J1384O3509
7540I0715j5022k2960k26r9146J11594k9802J1530J797j6497K1943k9987l220j3879o9819P191q864P4741Q4425K8503
7521A23017o6313l0167j6389j8811J2090j4475p749M3557k8724j3945L9388J4012n1137R031K6275J279J6683m7409
7503i787J2393O0780K5718r1022n8608K226M9155n405K286L6057K2287p2794L0841K2163j9868O9107n6998k8693
7485a0162J7693N7183j1959K5166j6597k186o5774O489L1351R26j2726p549m8235J5918L672j9577k0120O1334j5924
7466a1077m9556l3488K1101Q2490J2503j146J9475j3354n936m9803k4307O3791J9076m0544m665J26085k5339l7671
7448D7635M2234o1308o433R155m2005m6536M0467O1807K7701j7502p020p783N08k2402J9415m4402L2381j2709J1345
7429B4548M751k7170l4435N649l5753L5498k1917J2385O0179R48L3193K893Q042n506p534J6371O291m951L1970o5641
7409C9811J9740k7464k5790m6297J9683J5090k6745J4853N5949l9418m102N6113M1698L0580l0440J1863p5705R673
7391C9092K0403j0138q5018o0822P7195L7677K3800n367k6565K3135M8402K385j8169r0058l3105J8103J4756l1972
7373e6266K0682K5491K8017n3329k1581N8696P4150k2306m2921n492O1729m5741N106O6689K3442K4914J1078P936
7355A60294j20799r1641K1539Q8098K1579n0067N965J120L500m7371n446l0251j329M6139m6583R735P6786j1077
7337C0191k5904k8370J6030l1919J6600M6300n6711N0057p6060L0484M9888l3455O989K4257K0052r2381K4156L2505
7319B709j7439P6722j4657M255J8671j00173J851N7412Q172L2653k1438k9753n8554J8524J9363p4415m7294N4952
7301f8439l369K2059L8506k7949J8882L3778l1838O151l0488R1999M7672n5712o3140L0888P238n0594O765M175J4148
7282i268K2291m4589P874K8312M1320L7225J6848l134m6544j3133k5123L4809O4307j8869j7641j8470M6706m1148
7264F1773j2174K8591j0653k9056M595l0879j1326j1544L8340K8047J8431K932J7275K8372k7160l9396j8875J0528
7246D7821k3775Q424l473K219K7937n2342j5463O0003p427O80m985R851o0993o569l0744K5111M9556K0272m2004
7227D099L7529j1591r0899R3422P7222p5172l1172L5121p2955n5803Q4471M3275k2166r0200j5867L2733J8090r192
7209d9055P2722j9915M6460j797k8447n5965M7903o8978J6697O2977m033O0029m8032k2878l866J074L3068j2025
7191B5939q2231o473K7116L6656K9286l0140j08954O0372L548N233M3059o292k3917L9461J5731J5273p781Q217l392
7172D0711o512n207j9945n3127n3337p638O8682K0616n0472P279P3388N7640L9112k6026r0058q4049K8566n1300
7154a11677N1653Q1098m6874l4590N0369L5890O88k1942L3384p563l6145j9400o1179L1940P5625L8830k6858k8636
7136D613j5940l9605M7354M2039k1302q2457k4863N4141J0834N2883m3705O6984P656K3793r903k6120m4802J7032
7118A8632K3623M7530k0035K3544l4289m1409m0587K6396N1296k1605l4702m007K5314J6120m7646k3904L3609J3300
7100A1180j0300n1814P7964K3746l1793m8110p956O650k870N6775L692k472o4766j0903L1349M5852m188r8176P9712
7081C572M4670m9339K9875o3075o063L6281O0417R300k8818N6836q9706p6921N8265N0498K9283j3477Q719J3947
7063G4264n7180L9410j4661q52l2670q7247K5985J00350K2285o1738k0903Q171Q435k15k6857J6839K3230j2963M0090
7044D3773L0679k1439n1953p6367L4724O9317P1105L0097J2371l2199k409P170J1919n5703n8950O6154j8615R076
7026F8750m6269M1189k672l7273j3049L9993R0380j7004l2259L359j9032n9953K3650P823m7860L8608k4172J8649
7008C2858J24091j9606j02316N973K401m28R799o4714J9698J3922L319N0389J3573L5650j01425m9491P650N878J4807
6989B028J4300m1231j8254l7525N0681M6774K407k9678J1586O2933k8321K8226L3029m2545j25972O3511L0747O170
6971B8866n8188l9220J06532l1124L5801L827N3717P052r6130J3586J645p850j1351k466N9999j8066k2199j6043
6953H388m2092N8820N4305l4968n6598R56j1998k8491j554K3027J05674j2858r477K3869n4981K1608P55m630J3451
6934E3206m7906j3062L117k830K5581l1335m3525k6201j946r832p514K6097P5885L8663J8872J7247k6869k3906o8335
6915d4593Q602O4355o0158n1901N4517N0917l4284O0071o5190K5580l7697K8195M0702m8259O6193q3325j6148r146
6897e1569n633J1683L0528K5907j5432J6089J9549q0187j8651K8113Q4956n930l7560m9290J03115l0918m8443m4707
6879f8380P5441M1599l7722k4069m2371P2834M075p7347Q158m233j40L3331Q5367n104p811l9993m0639J6567J940
6860h497L8722q4875k0368O4049L4469j2126J1796J0776m5841J8875Q394l6384o894k8022Q8963J3837l6738l5245
6842b5109l7757Q434K8491P7659L2241M0667l8980l9511k467L0975n4692K0586j4503K6280m9125k6750N2413q650
6824B0202K1657m378l0039n1946l5208K6016K2936M921j8999p4714l6139N6517R1035O5526m4307K3585p6706n927
6806d5968K1413K3322l2998P1967l7239n2015M2849J6409M6757p5732l4457P952O0808l6624K6404R391m4421K6815
6788e367J1869o907l6103M457K1182r277l4721l3611M5154O0722m5463m1548k7528j3154L2359P989N5922q813M1907
6769A9069L0942J1459j4463N5272p3729r8814J1793Q3281O2775l7101p5250K4292l9808L7693K3694J7108l3088M0540
6751D5665K394o7823m8602j5146K8063L8063l7214j0125N391j3029L2317q976K8944K0520j9349j4778j94K4145J1170
6732A436Q4311k4427j18387M3282k3534j4826N2065j0372q59L6180K8224k2701Q341o8340M9162M2294l261K8595
6714H7183k2770m197K7870r8613J7807N6101j6901L5712o3343r7747K2959N0519M1979j4080O0970J7790j1846K8872
6696A18265j1771M174o1221K7168m6898p6530R931M8926l3566l8874o503o329P36M5824K0155K4391R2030k003l6382
6677G1523k5826m5459k1025n0914j7060k1253N0532Q6838j05809M5801L7612R02K7418K4876o9140L9346N4540J7661
6659A00563j0498k0821n3617j1158p1939k6606K2243L1548Q8609k161r5959R10N9303k6641o734O2773L4985M9865
6641A24665j1235n9033m7796L213O8537J7940q3792l0286L5062K922n3943p8478M0476J05316l2992m2762P8801O5762
6623A02377p5110J4990N1093o1680j3953M303N223N8460k1428L8205l1020J8484n9590K3595J5445o2435K7420j2980
6605B1399m7614N404L848o1544O6736p124r549n1579N2352N5674J27442J7293j02265L824k7044l5368n2188L411
6587c6892O6434J4483j1107k4305N7295n5548K0753j19598o218N9077K2880N2042N8163l9094m5963K819J4467l8871
6569i183L4000N714k9527j0681O091M7979J787J0437L746j5488j4946l5338M8891M5381J5493P9634o2702q4348l1244
6550E696K1800k7772L9967M6415J1085m285q4939l3964k842J2486l3149k8678M8897Q7933n3823l6477N159J5287
6532a1204J9345j5691n7537n6817J7996j6249k5574L4547K0153M3643L2584P1081J5755l6867n5222K1946K326Q3731
6514H7946o5524J3365k7084m2121L2750m8053k0627J7947P9383J9366j0592K8713m866k851K6557l1592k509M9419
6496I9627m3960q1241J9790j3831N1622J6701Q637o474k6367k5870J0986L2686P064p1652J5863M6825j42457N0456
6478e1595Q4393k1898N0654L910l2112j6416n0337k3511N4616m2043P612L336p8282J5033N5403P8044m3197N1058
6460D4668j0338l193O410L750K5295K6003k0575k2904R5Q251J1796k4488L5299l2862o1587L2413M3393q7126M4412
6441A8712J37474J1298k1211J9259j20693j06229K2989n1662O1263j2890L352K0416O8577J7409k4838m4261K4984
6424B3949r131K6426j0302L9134l1829M2518r088l5587M8953P0761p4063q324M402r937n8779o964L6789M3169o8785
6405A3312k7298M8053j150k0285j0152K0678M6643O4540J7374j51188l8690R0955N6185l6776l6792l8775m065m185
6387a1616J5912K8022J9087k8497q266K0320m5210K7819p237L1333k8322K7871J6260o1621l943N7633R0686J3135
6369A53366m2047j3000q244J0706m2643j6399k2993m1055M9656j4572n0124j2455L9476J07416k0544n3627J1632
6352C4549j2821M4294M8211k0785o7381q9375L2332K2279L6905l7310L421j9727N0004K9516l6752l8593R4959k014
6334G1712o2703j30223R041N3157R5552O573j3825m0107M0096J040o133N4833K1939n373j03045m6764J18996O746
6316G1512n1267J9668n549N929j3633K2971L0868k7184l6654j4517K5440k7787M3469l8785M6801r5244K035n0639
6298i2566P6721K953P0320J1094k9652k3461k3343J5657O7493M3100q1296m6034M6245J0887K6740P93L369K7499
6280A06519j2241p0971K725k6994K5442K8846K7269l2280K7141O8297k5091m3490m3687m4710J7664L8011P7944J7058
6262A37452q7991l4991K982K3547j4746P6733l9243l8071l9593l5406M9238L4372m5938J8457k8283M0874q541J7178
6244B8030m0583j892J2317O2265l808j0863k9906n9801L6766P9808p3926n7461l6963m926O1921J8626L7400m5710
6226b8706j5993K6299N722L5274R471j0578m167n7545j6786M2570O9459M0047k9402J1303K8671l0423m1323l3016
6208H77O7067p1546Q6498P5496p4782n7052m4657J7523M061M6832N1283k8657J9671p6147l7835L0066M5576j6120
6190C8154n3863J9744n3256K6946P3729J6293m8784L5965l9743k4771n122j9074j3108M9645p9963k3623J02457O5606
6172F7232J2106r5793n9812j3967j8898J8707O5368P3771o5566P789M2160P421L6347o011K7908m2089q3825Q342Q026
6153a0784k0365L0205P0057o3166k6106J1982J7826o6491L4506M4148J7073j395r1915M7859J25m946J5317L4939
6135C8869J1083K1789k2561K4246m5920J5274k8109j043k1982L2183j0246J6269N9656k1507o8541j9262N9127J0805
6117E0130j35830m3193J11234N4241l8239m5609O1743p270L9451k4054m1441L7577L9053K6776n8787m2810L0499
6100A3471M7424L3170n2034o0118K7416J9683k9821n7875R7319j0881j1644K1727k1036L444R700J64j3088k0949
6082c928J5478N4985M80j6807j04860k3764J00291R433j1134k6275J5342o950k6959j9173J9515J4915j5809M5J5670
6063i505K3434j2609L9701J5702m4179J9263m8884j9390k5130O4471k5218k4841k2705K9104J7966J2249L3021J5845
6045C8295J0420m0008q0763n2554N0919r42Q0384M0436m1283l4200L5688P5023l7509o3624J117K3921L3682l6447
6027B555K1375r9177q25P5017Q2250m276j4889m1832j3279l1005O9741Q9436l8181j01103n4921j9527L4629M28R2042
6008D8458l238K4850r337m0010l821J0816Q9804l1396o7744k5654l734K689M617K9872K0724n3034l1909N0807L7855
5989E0615o7432M9284Q4653o2613l5781N710L7633n2176k3677P2912j72m0612n322J2573o8400N1065j4970L118j458
5970e050J5199L2149k8136o9744k9275l1276M0186P5795m7011M3011O0530L948l6891K2991K1225m1624j1011K7958
5952D2974L1440j1813j8801Q015j1370m7955J5361K6739K4799j3930M1738O804j2602p6975m6879K7100O1483K7918
5934G4046Q2856l2796j10571n96m0380O893p4733j306P8707N7817m8670l0609K1563M9305q380O2106J4252q8790
5916A0714O2771M4864L3702L1458r8340q876J6855q895K5186n7125j0352k5737J1559j6851n954J5355N3784N567
5898G9685J4765j0270J1864p6293j2007K7701l0308L4995l8074L4022O871m304L1417Q9766o6347k3625m2670k6146
5880A042M9801J6309q1376K7285R0981P80l2960R073l5602p2288K0926O1488j2718o9418k102L7702J1082m7457Q718
5861a8734K1610q3286k1529K7940p84J2995O7249J46513J1643j04428l5431l0010J5540M8308n4091l883j2290K6040
5843A3372k1033k5725k9217L6870M4408K9475o595J6551M077o7940N4225K1220o29O3463n0080q0437k5487L4046
5825A0564L1520j8785o0282L6594K5228Q4815N8758o9639n0908k9552Q923n8649K8803M5852k6759l9878k7671L1728
5807a9338k2386L0041M3572k2953l4095N5243n2017j5322M7250m7978M275N2001J02631n9577J0536m8702l520k653
5789A7008j939n5944L7395j0817O0800K2792j5320o7086o8152L8681Q4769K8598m3257o8511K6944P906K1749R957
5771B5573j7318P462j7721P9651M243m7498l3297P203q6370N2822L7029J6571M8896K4184J2226n1858l6191J6560
5753D2167p0929K215M4821q876k7956L1643L1910n5404Q383N8162J9895n7564n4050O7268m2955m6307K8988j3662
5735d2251r188n4299j8397L8286R9450O6901Q350p0272q919N1546L5351j6696q461J46o1037m891M2797l1321l7772
5716b0677O4246K6431M9851q4836K8336o4951l1812m8363L9202N0346K4584J916M6381J1308n8061j5369J162j4319
5698E375L3220J3039L3374k7725m4399K0469r065K9417J4235p4771r226m329P896l5147N953m0709Q0485n313k1963
5679b9184j524K4254P538J0419R2616n9772m6913N436M7046M2948l9103q1337q470N832L5147J1416P313L8828K0284
5660H2774j3078M1462o8929j8258M0914K4933M109j8289n1708o333m8264R047J590R3012O583j2259j3258N2014k2310
5641H3752q9208j016M8933K7152o7381L2019L7607j5871k0227L2721k5142o7120K4561P4978j2541O39P269l4236
5623C6889n9366j3584J2059l9265M5127q403L465L3171n4407K9118N085O8149J5991p2237J1817j2252O5234l2057
5605C4534n5290L6917l1500O9117M5881o3661l0663L327j3130M4045l2537J4386L5147k9827n0690N9664M7655J8885
5587A02260l5210K737k919O994j3273N5957J8307j47409m0083N2162J8162M0579n8931O0863M1129m2287R531l9902
5569B8667j5038l1283K2717n8285N2624N2538l5341j7620n7387O8824O7502J7144j17048p2562L70M2804Q1007N4333
5551H3966k4790o3581J6158J9249L6462N97k3595K8462N8171p6502n3066P2729j6509p1884L8044M8965m1026l6790
5533d940J4426m8843M304k8706m3936k7917o591Q182L696N5884M0490N8426R887j3217L969m6752L8529j6468J3995
5514A4418n3303J5280P3183O903k0928n3745k9062M3411J8394r1J6353l7877M3768M410j7839l0644Q0047l2934k0629
5495A9115j451J04552j4237q3515k8921J8235q2104l582J43581o0269K6737K8051J1494J1374L293m519k9246k4860
5477C3728j2313o4867J5160Q7436l9336K2858J7496o6192J0152m8993J25358p2604N9338L3155m0752J0263l5646
5460C4241l3860K8220k538k4435P6273m2764K3393M0297n5255J2653k4643l2612J1616m0303j1227K8004K8531j9165
5442c574l0844M7850R0834J4044r1152K829N0202J0295k2711n4211l9520n485J8486n3652O1306P637j6801K1405
5424F938J8298p1032M7305L0212l5345O3519j9536p5971K0124K6531O6430r522K2035J7065r6872N8609M232J2901
5406H5921j1811q603q1185K7852Q578m788Q423N702K4707K471P980l3038o3114P0908O0243o3591n9607K1455M5882
5387D4385P9099n2937o0214K6936k9882K2769N6256l0246J6797m4534M9276n5113n2667L4424M0312p081p9902O125
5369c6197L9015K5636r48R596M1401k2054K2176o086n11k8322n5662q952l2633M4236O2341J274o6821L552J9003
5350A0044l3481K2877N2686n0029L2624M0283n0390m2673j1253l827J1751J8210k907q619j0953j0579L9524M740
5332H028o0260N000n3987J041J07536n2644M3974m950O7945m1181j9785N2591p255J8534Q4222m4917j8240J843L3713
5313A21208n2923L9407J2909o767l7185o8191k9218m3795L2578k9459k310L469n2646N8348N1198R0713l6128j6131
5295C5077K9915n3258p7997l3174Q4498P2101j9405K506J8253j8425K5703J2693j1825n0004k5037j0600N2011n731
5277B7301m2583J7386M6832m5468J1295j7240J2020J1484n8643K9260l7879N8489K5860K1156m4927m9337L8800l5660
5259c1854l6894M7534N0220N9698n1722j5177o519j9591O5464K4396P455k2798j77p6391j8236N8586J4061m4772Q710
5240A1993K5366k7808j3906L8357K4493l883j2331L1262K5639p5316m0655l660J7581m5243K8129j9669j3693L4941
5222a8403j4025J7237k9501j0554k3464J8630M8478N2085m6250l3084M0103j2714L5805N992K9294q3581L1253J5446
5204B2747J8613k3653N4902o9625L0786N839K1125K5070o9755q8772N3191j6434O2914j4103q0435r6751O3263Q3986
5186a7092K3169M1801j7933J6484L2552l3458o9354K9307r320N333j4395P4060K2659m6976m699R990N3500m2529
5168E3099J3512M4756j4898J5582r5145k0565N6192k8066m2688q6l982J8932M8062L8007o780L584o4214M0982n0023
5149F261r73J0813r889j7404l047P918P9638o4130K3323N4332j555J5260l2372P6820n0573J4789Q533m8384j27280
5130e7920k6380J193J22197L3417L0469K5590o5161n0735r0881l7595P5982j948K2800p394k0241Q2305m2290K0447
5112A3855j7327j8004L6043k514j4576K0371K5339m9973L2781j1664n17O452L78K3150L0171Q774N73q594l3751N654
5092D6621M5472L1792q166l5895n5975k6572j3022j2095j9278K3019J4745j7093O9097O0756j8177M714j488o261
5074H2194n8830k2732j0501l6935O242P4992j9641j3798l6560l1683K4762K2294L5793o9361P2237K5925r610L6438
5056G1226M3280K096l907l4996l2532O715R517K0999k4609k6355j5269k6855M969O8670k3103L2348K0191j7848n8531
5037A6006l0332j0826L5307L9451n3880j3986L3274k8469N8582m6148n1392J985L3762l2998k4551M8816L0775m878
5019D98o876l389r001j9614L8643J6297m0580K1333M5480j2070k3450L2783O208p7278J4399M8822K2835m5299P4082
5000H3823l7997j2328P577k0750P756k7800k7702N2422k8921L7898K8574l7980m2298J469O0983j5282J8394N6770
4982A04608l8618l1545l635p7561M8744Q183l1492l4453K5332M7262p09k5062m0452K5934J7385K861k593m1884L7333
4963a0362P3874j4915K2901o4303l9121R6697k6208j4778p288L7290M170j1819r697p6902j6516K7434j5449Q6903
4945D1911J3478o3058j197O6519n1069k3445J584l1919O8770L7217k2475l9062L1015K6037o9803m1713J3807L5097
4927h306J8791K0532o5997J3358N9658J7037l7124n5794R4188n36l364n6094J0854Q3739o4720k5489N026N483K7666
4908C8908L3891k3886N601M1085K1123m1113j01939k3236J23736O2602j0768o0304n5452N1355k7356K1876o431k6461
4890B3231M8291m3862P7914k7176p1322j5343M3683O7614J4725o0585N7729L9481p9109J1849L2634m5816O874Q80
4872H1692o4858o273m1462J0091l758o0299N9243j6664l7434K4423k3311L2095q5J2727N6989j3177J379K7044o2797
4853b4435N0954K7166m2666m4948P19N6414L4501n6311r845L9717L1953J6122J8530n2823j6654m0137r868k0980
4835d2591N4237K2913L6486M362n9010K0553K0721j6768k9249l8330J1988k379o4157J9592O9671k3651l2233k3904
4817g1749j2698M7857P4815M5407j9615n7870m3529L1465J3292K5118k747m575N5940l4613l7187M7411j1765N882
4799E0839K6040l5398k5008J7523J8003k3369n2573q0419M0105O2301Q886L4631J3432Q4684j06773l1664J2702J5322
4781B9264K3326J5336K4002J1140m3025j4272j605l7870J9262j9323o7924N7085N8772j8934j5147n5404J5651J116
4763a8550L1670L3201O14l2300m5794Q920J541r993J9499J1793K28k536N8947M6748n2274m9627l565l98R2405K7506
4743A18035j00322O4209j3691m4100j1807R415o9164j0984L9806Q3791k8946n9841m8358M0401N5345k0348l9116
4726c5675J7826J06020J438J4058l9060k8663n0408Q394k1597M3114j1771J2192m6156l619k0846O8073M7253l4820
4708B5753N175j1714K4202q566K8554q4762n5570O2630j2264r671n2211M506M2316J1097j226R6206K9946k9720j272
4689F3409k6340p2241N3225K5038l2076k2610O8269L280o0992J6910L0423n1272m1533K7361L2300R485J2798K3428
4671E8862m3443M1884j1401L406j2947l5124j2535n0307n1599M1647L6524J6075L6852j6162j0503L6299J9314n3843
4653g001K4916J3674O1904r9147r487J9235J5993n0252m9259m403N9285p30k6846M8017L0755M0239j578m5955j1745
4634G615j8130K295L3309k5676j4159k3497K7728N3749k4808J0466K5289L146q7415k4720P6575l0749K582O8135
4616F1735p3283q5197L418L7575M7714P4045K2310j03538p778O6899k6853p695l0936P809L8862l5258r72M5239l2279
4597A817o1778j3257Q2161r932R499J0851j04790J5840J27775K1824p6759k1324L8393M7446p806n2030q471N905K967
4578H331K240l9J8881L8747m6322M3631P5231j5978q1965l514K2173k9529J326k6070N350r859p794J5157k9368M6554
4558B7183k8535n3133P599O1208j3986J1548p269N7110k2781k4591R1614m5251l6535K8138L3147j0732q5884L3804
4540B2654L1987Q023o174k8176j6202J0158K3949L2823n5409o8328J3952M6515j4480p0123M3125L1861J9313k120
4522B3348K0374j667m980l38P0429o231j9836r4439M4362M9463k0701k6155l386k9161P2578J824q1114M2878m3222
4503e974r2187K404J7407K5552k8420M0048O2979M5670m1468k0635q304j3807j250k113Q0418J1537L885l3286o233
4484C6223L5991l7385k9925K6019J0887L9958k3304J7224k756O0500k1717o9398l943J6824L2003o5643k1075P1459
4466G1942N4522j00112q1939J3358O313K7581M2890m0816k6297K1994k3856J4413l5616M7174K2528K0035R7059m5206
4448H5967p6058J9761O8535l162n2023n1839N1114M5237q142K0372p1399O5642m2546q1673K4737J4744M0219J1630
4430F1116L0604o0881q5842Q5949J7087N5197o9242r315l3712J3431K2502m3616K1996n9976R3246J1146j3536K6382
4412F2536l7509K3624l8566k089O4056k2031J0937P4533j7536j3015n0573J8811o7600m0508J0535P4499k2883K3129
4394E0350k7110l4120P4295l8005n4405J4788j4830L3697O3071n754k9741K3955l1289L1743r029N6499n1160m9952
4376C003K9473P2795l9693q1326k4921N3303P327k8695M3061m9261m6947K8724L1336Q842p8474O0510L2784j3150
4358H691n399o619j538K0888j2361Q693m1665N5361L9269r751J7989j7278j3948n129L3824Q270K8373n1647p2640
4339a6617j3306N5282N5726q670K287L435n401m3011k6097L8187L9780l5212j5607k4910N5878K0464p5830J395J4046
4320B1819L7714l9982q283m3089j0320P5497M6146j1500q6847m218J5129l6985N3907k5599k5300J7406K4467M467
4302D429K6259p2401p5372M8282L6429K3824K9104L3357K83k5696j2553K021k8446l7460k230Q0798q509M735j2488
4283A4366j3500L0680k7030J3432P6K9327J4175P990J1070J1926J0031o0058L804j6168q7285O9909L5485M0104l4641
4264E3693r4934J9748K6445k3846K5972N5721j443j7042j9420r6105j6845Q4442L5837J5712J6340j4958p9514o550
4246c6747j5815l2478P8234k3299N0994m6569K5649r882n6111J4742R7197m0621o3123n3238P6326K4030J2149m3083
4228d1645K5528P9379k2351M3321m5238m3376K6482J3338m9211Q708J8808p1015P7672l1534l0713R6495o1482q591
4210a5425J9819l4835J1408R6177l0377p227R466m670J6388N5428j1713n2041l6856P6707Q250q2744J2979L6681
4192F7415J3992M4616r1421O382K1357j1218J9838q4389L9750M3492K8384o098p500p0448k3133P2347m9813J089q789
4173E853n1231K6670m9637O2321J6126J0632j3955o4472N1107K199R789k5735M5641l5989J1063R244m3185L8471
4155D912m8741O0130j1180M6052q4365J6364L4680j5735m9775j7065N7073N103o89j1771k6716l4871J977r5923P8860
4136i1680J23115Q668p035r833o3386J1273j7032M1296n095K0791J0543j8346p1483K0152L2079j2185N0166J824M546
4117B8378L8999o3175J0197O909P6958n3306m983m809n0743o0332J1993N2483J4330j1576o22K8367k7589K0444M7103
4098E9026m4776m0735J6927M6478n3960N2735j8186l3995R099P879l3845k2089K6798N9732j0049M8284l176Q468
4080G4615n5938J9301J8496m1964m0868N1912P149p4887p900m688J6819J2856j6723q2157l9438N9089Q1725l2431
4062e5032j0123J8090J6628M2639N6196j0750k0264L1296p911m1514L2730K8899j02277j457K1171r010J18643k876
4044A05078p6849n3629J0680K8233K0531m7396k8472K3520N3303k672J4334k1506K0490k8233N4188j17453O9700
4027B3847Q0363k3710n4800K1062J4305J721L5693r2583l7132J1835J7950L3928n493j4229j875M0334n1593k0401
4009b0778j4944q258K3278K9887j4204M0945l7475k9062N9769N9235l1205j02814R931P5653j3551q676n713l9049
3991b7031Q3744L9275p9199r7171M9133L9055j8020J1114J3825p3290l6056R500L1548K7056k9021K1104Q5367M6197
3973I7130m9579k4039P0017r9777r281P1503J05738o8985n2541j2117q838m4456K7174N9209N4778m2190q9783L3023
3955A6986K3024N0492n876q9531k7786L3215o4086J2406N7936J01529k7357q121r070o5495L3610k8508J7988j443
3937A9913J1488n804j8674K2856p1786l2684L3859P8499m8162r997R4494n5303l6078j3537Q663N3014K1872m9412
3919C221j0722O3496n0153K9350k8638k1775n8862K8965L4950k426J202K6958M2705l707L0300m1749o6979P1034j261
3900D5909l0529K3366N9561L2993k5012j8584m973p2123l1249l6233n5531Q4544L5598K9094l5636K0559k0342J4433
3882A5845p694L479L4444l7656M009n8448K5061k7755M7001j7782k3007O7718J0807L787l5575n9503K2919M4447
3864A2097O5345J464q3754l4077P1830j0344L605K5486k2447j9919M8667l8373n5534M5963j2314p649L3710l6341
3846a2585J3204K7893R5622o9012r0828J708Q6187j6680R587m4115N145J698J629M8790k2250m7125q218j5269N099
3827b9520M0446L7534j9731m3190K3880Q699m9934k3844Q5478o520L3628j9617j1056j1515P0112p4151K2474K7995
3809F1168k0616m15k0780m2542O6027L8803k2459j2918p1513m54l5675j9500l4992R3417L3378n301J6003n0445K1508
3790g306M5633j897O889L6232Q299q0593k8016k7369Q5166K2888n9868m9166N0076o0512M4717M7111k7862n8351
3772e3929M5790P031j9262n4022O6441Q3751N81l7624o165q7124o3008J03864K5987k7199J2572R680m1685m3757
3754g8078R6344j8968N997R6055k3928m3677j1282l1741m2984L9527P6992m5043o4180k5939L7120J00301n7630J9686
3736B8572M0608n3272k0410n9163J2237K0977l3842Q3595l6427J9183k6288l487k2503J2586J8738J8932K955K533j97
3717E327J6131M7851n0912l5946k7140M0839L5201r652L0751m8896L9482n0488k6302m7145N5201O0630q063P869
3699C4738j5571K319n0616j6628Q5134j7638M574q010m1929N5117O7258q655k6456L4910l4464m3586p2187k0597
3681g2287L4207K3779M429J0496L7873J9921p4801L3821O6480k2642J6867o087j1902n5324j5199j9132K6528N7660
3663E4687l1713R702m5511n2525Q2662k3998O7547P410m7140j1280P1897o657p1797P1552L0315k9976p3051l57k4680
3644b2913m6862Q2705P0038n5691P140k2831r473q491O1074l7060q5575O5419P4510M635P0636m0148j5864o035o2597
3625B2617l9286M8635R7597j1830j01743j3844o3364L8365J7555J2036K4642m3511K3201l4227J3329m242n639M3466
3607B3757N2283k0467P147k4463O98m6970L7332k2721J1362M5380o3643J4598k4334K5160K0558m63N8007n3588p2423
3588c2790K5522o0875M2681K9436O1115j8533K8519j1734p6498r100m5150m101O8940J2093m466j3949P0436K4185
3570H5731j15452J4002n0659K0081k8514K3371l3433n06q881L2908j171M5776L0406M6775M1993j0981O400p1544
3552B6302o8626l832L3778M7734L0408N5203q9234K2266k7747J9030j5085l4720n8655R0818L9525k4455k2442l5510
3534a5242M4990j1267J5733p1409j07M3878l6402M3412M2016p762k6556j9416P296J5543o4827R5555K3171p0459
3516H147K7523j6337q353J9681M6998J9636j7285q4170m7912Q2930J9506l65k5587l143L6781L3787l0682k8754j2495
3497A9906O0134n0448j2509J8405l5283n7204L5100M1216n6602N726K1883O4116l0684J940K6502n142l0077p0731
3479e3752J2833l813M3690K1825L8904R346J851l9126n4594M91P5110O9543q871r1520r1110q591L6577N501P5863
3460D0157k997l6726k1392K0706k425O1810k9497N181M0368j4519j2571K879j21366k1469L9611N5987q893l8853
3442d4009J7188J0847J7551P579o6181k124J9032p387l85r104O6417P887p852l4249K566k487N153Q464k5805N1970
3422A5071o0992j4336j6164Q2182N1824k2731k4215M282l2746m8109Q259O6948j2380l5355O0890k5330k0481M2050
3404A8667M6142r960K237o3751J6160R282P643J4532O0636p351j06259l6920Q4095N741m2550p043m5982L4253q005
3385b8433K4938Q4019j0151n3269l3184L5135R063k3527P3897K8983j11234o9422r46N4476p686J69K5147K1446r714
3366I707L5032l5219K3340M2347L5222j3693O904r1828Q757L3597l33p7576p9618L2216R3657K2764p0459o475M8422
3347A6764M8400p7757n634O014J5207n4405M4385N9582K0501j0574p6641l0495k6567o417J00665n2546j0141J8122
3329b1537j3486j0011Q870L2668M053l1772J3821O0434n3890K8028q66m8918J980K5193L8034k0467l3767M1357L2361
3310E2085k9174p429o9351J1904R5048J3407k3834K7238p629O689m1470R72k0972L8912j3688r057q3424M2445J03674
3291H6346o4004j09774P417J00704N333J8794l3856L5927n2371n2652M858N3813M8018k0645K5026k5799O8227j2211
3273H3151p5529P801l4426L6098K4186K0114k9203k1565K3158O77m5835p604K7405M7635L3133l7988j7142K8024
3255F2090q1934j1315L7444k5497p106L7740L40k0484j3132J0771n5645N994P3797j4943n6781k699j2876P4005M7568
3236D7337M1309o7997q0953O6692O1989n984m2367R578N766n126m6043M0838J3740k7503l4535N2399n6114P834k3126
3217d2266L5829J7902k1088M4229o7477l519N2431M3078J3989j22121K1131O9547J823O99L269n5514L666j1112o31
3198a6135r62p5750j2353q893K5145P8050M0042L6729J9077K1591N6574m6584k6890p5062k1938m5087J231L3898
3180a7317o7370o2518L5260l1902O8002J08787M6491r2113j6941l1325j2216M233Q9692l8228j8945L1224L3654J8068
3162D6536L4658m9900r3868o7562L173P6368O1411n653J1844N5701j2082r8671k3481l791K1747K2188k1936m2525
3144h5843Q412N4764L3070n0210j0379L8914k8902m925J03496K4759k8638l6270L929l5163O382J3289k9866J468j054
3125b2767L4477j2080k011N516K8381L0670q0739p4855M4363L1164O7200L8260o4736n2040l6291l1644O3157K3391
3107a0584r072l9824L1622K0587l924Q5212M0714o1489J9737n6700k0556M2374M0487M2760M380j9760l0232Q875
3089H4607k7664m1168J5018l9292k7588Q6195K0937n1990n8111n400M4281n0206j3432j4206O1161p7591q4685l373
3071a82507J3887O8827n170L9687N8230J7165n4793R6946r4087p427j9073N1555K9447j5651M1152O566K2229q9329
3053b2346j8656L2074N3082J7370J9517n5091o1503N3474P5276o0380K4094p479o209M8027M8037K989r4078k7922
3035B0276N0600M4416q0067L7825K1671q1872k8279m7708M4108O8138M5554K4658k3251n7728r146L2259j8588L4105
3017G6971k302p1510L7755l4505n6468M7749K2441m6628j6106J4897o897M3287L0421j3104K3059n7310j4464J1115
2999a1599j9338q102K3096O6902J924q6544J29102M5813j5258j4004q3509j6368p8271n978M6580l8236L9952K4342
2981E04L7005o6990m3705n663k8258L9818N540p460r200K8858N6806p231J5368J11053r6918J4360j3391q1036k3560
2962g4100l550m3109L3861P2690J10585M0100n7214n3441O9159l8569l4094J4230j8115K6071m3890L1873L2970k2428
2944D3029L7374j4795j3944l0376O019m730J3416m7093m459j9367K4592o988L3733J8159l7748L2093k3561k9744
2926b4390J8652j8779N31M897j0127p6799M7728O449J6947L2666L0489j2049M5886j5847K022n1643J6502n5621M0621
2907a865K1609l3624m8045L5024o696M3160L0758l9444O1571Q2984P635J2232j34769j5803j2331N0771l7350j9802
2889c985j504N569n207Q3226j4606p0493j4122j466K8547j0658m072k4401j2428K8954p574j0868M0141l5649K5248
2870e348K5193M4306l6817K3342m9669m83O5863o9235m979j2578k3208P65m883m8023l321M2560j9578j1355O3877
2851b3571m216k7989L1131P575O9419p6518m9011M7411m692l6612L966K1562J5542j5027k2407P7300K3482m3762
2833f417m6146m8191N1988J8008N1304j0983k3218K0083M1114N600m7149q540L6974r209Q988R52L8540m5708M7194
2814G5184j716k9818k5110k016n8259K1051Q567J1223J3649L7556l3155j0095n832n9120j5676L0896j643n278N0473
2795H81j695M4612K3205J6017J1022l9574n1917n151K9005R3931n1188m3857p83M3150l3086L0582j4050M7861p8626
2776B0339L2420M19l5813K938j6066P5875l243l5692l5907j0218J4621L7054K7737k6620O1712o095k9115K1050m5999
2757D9397k4177L8677Q450R650j7541J5682o2867l5207m0081o1834N7075M55k8692K9507K7514L9337k4798M812j4723
2738b9364K4487R1422K3129j09945k2320j590R205j0973L0922J13m51K6452j7177l732o906m908J0634j3690K6498
2719B1806l8458M5537M7733k3942k9952j6627j3594K5148j789R5353l9437q2216m925L7973m6415L6451O9569o5703
2701A6512k5077K1157m9310Q2213L1855o0746n2319K3625m1766n824K9057O9981l0338p3269N7367Q7476n1501k0157
2683H936m602P7999j9442q3630n4532M6139M2769l361J9628K6158K5946j41781m9946J5553o0131K3865J1782R6895
2665b1755M0234l3392M6918l04k1550m0219k8495R3136j4978L8935n9274M0718L2903k8675r074M7810o1143k3050
2647a255n4055n6110P5143L5577n4045l7623M3367j8788O0711l2299r3642P5919J8323J3626j0909O1360O710K6882
2629E8892k7159k2451l6409L3077K7742L9061k756k1235o9915L6492J1838m9973k2788k5503l253L7880M676j8396
2611e0180O9707J0805n1471M2066j8597m8592O3281J1915j2168m1825p0993J06999M9117o5706n5352j2658M2230
2594c1422J5824k903L888k0922J1205J0658K130L9273p0744N3702J3695L4867o6647J2752m6252o5279M2336P302l205
2575e9742m7068K9151N7962R6974K0334m4640q8502m6749J29405O0303p621o6029l5206J9055o794J5013r961L165
2557A9050q3760j7454N724J2064K2J2540J3880L7738O380l2607M4498l7504n2680K7565K9135k6156O1197l3253K4025
2538A0404L9623m0089n138Q6634l3840l667j2058m5836L4117O825m2420n2708O7013j189l4459r611L6130q4584K5671
2519e9182Q4029K1595r7678j6176l57K4473q234J5721J2194r423N0467l2162J5951M1281p752p5272K4132q826R803
2500a5416k2118N3956q484j5987L4150K1966j2509m989k7359j0923o1943J3543l8565J1388J18675N4356l3104k6788
2482B9849l9958m0661O8338k3497K2623L6275P8313j6943o4191m852K799p4416o1021l2602P9626L4038k0121r339
2464c5740L2684K1626q6904P1130K9793k4515m2314K9768N7544o3922N3644m2282l9335l7922l8606Q7503k7447o494
2446f1789M4230M3328J4428p172m2776m8589J5777k0439m174P650m9006O2042Q5643O01J2523r272o5006m359K4936
2427a424k343M896K0768m6936m7067J394J3908L2754Q159M6389j9114K6729m8042k5380N8584r221p4758m3624K8770
2408g5558N3046N4968l334k2745K8390m9750M3753K0835K5418o5049k0390j5906J4468n9479K3607j4667J6786P4295
2390B8688k72k0947J6744R237m9870k1517M526Q407k2966M2990O3173o3850n406N0027k8393l1268j4922L2367M8953
2371D5701K4832j7298J9481o9433M5763r239r207p083m0498J2399l3392L7326N9667n5160K8414k4383M3278q3220
2353c2052K5177O0728p8917J5271M0049m6169J8441q85k7760q0590O8367l5119O0491P539L2789K1076Q524Q26n2836
2334D950j6801J9316M2240N9941j2717m0371L0931k5537K2326M9200k6025K6697m4914k7671p8257M478k4699j5195
2316e2108M7109j1811J5404P5631j5723n6435o0564P557J03817l0100J5346K4062M362N5099o884j6435L1362l6500
2298I3189o2603j0533q125K0009n5428P7765n5407j4515L385K5438j4656M4824q968n6695j8314J2053M5999N5337
2280G2755j2185j1028k2454P3963o407k7047k3722K9166k829j8514M9496j9567k5853o3567N8820J2985p5109j2571
2262b3668L3749M238K734K9408J483l3900l0095L1767k7104k5054N124P1904L5754l0045l4407n3738R3585p051p6329
2243c1645N0983k4152p327q0039K3856O4849J4649p6558n7752L1061O6179j128p4373L7283K4196L0127K6460P785
2225B4454p6037J5405j2708k0529N3784K611K5710M0354K2782O5921j0726o8317p0548L3959K2674M5726p5888L856
2207B2483k9822J4592j7489K3455j06788j8027M5555R3777M726k6614p529o9909R575K4551L0658k0257L638j5159
2189c8584Q258n0056o3254N2161j1866R1169k9214K0983J3278N4960n7108L8123k6328o3283P3828l0403k5861J7469
2171b5728R9945l8320l414l6455l976r2506j7672O5945j684J9477N0043l8652M0113M5456m6139M3955o9911O4479
2153E4956k5851o3505K486j2384p90j0033N588J493J1142K676N1059L2455l9258O550o8645n615R1705Q4361p1232
2134D7158n5732O571N5958n7859J2761m4478k2008j6585L1099M3174m2011M3083Q78k5760R1158k4933k7785J3103
2116B7792n5117n3426J8668J7158K7707J6648l1358M0727M7045o2856l3504R141l1980Q4555K3414Q353k836k9998
2098B0133J8411J905p1925l3949M235Q663P3965l1665k8476K2787L4448j4252J9886n2581m9789N1256N0271P1638
2080I4961l6602J7600m9128M5971J8031m7930j0545l9885R7025l5724j5969l2397l742M4090k201J5575l31m7285k582
2061H932o0141Q122K6910M699N8431N2463n4712l5082K4751l5385m1998o715Q307J6017L9133J334n58j1239J2852
2042A6121K2909N8743M494j5219n1461p9720m9679k4916n71R4433M4454J513j0758k9230m5790O601O3698l690j4067
2023a2135j7400M98K3461L9625l3806K3743k3904j0O7217k533K3483k6164l8198j03365R7003L3308k7843L3319o4096
2004g797o2005n4885k2427N7132J44479O627m247l9332m83K5619L9337n2942n9841K1239j7992j1637J9577Q821R332
1985a425P688p203k0283l4977l495n5950L2793L15L510K3870O6008l1050M69L4768j1124l5639n3530O8229o470m8584
1965g2080L4644L1529n553K4281L1269l5719r8156M2116R4203m859r0893Q2025l6018m7506M1711M973q024O6167
1947E4110J9935p6764m0988M716l630l2589K0199K262L2535j2757l9004j7100K6829L1023N5279j6383j1687N9545
1929E5531M3778q4501p7875L3612N3111n6571j2996N1843n1758J5602J8226J7105l9031N1716J4524q9273J9709J1939
1911b5309r9285M1713N7647q290J2652J3j132J9666N562O1421m1260M5155q1196j4417J3946J8086M4979J5018n8840
1892F129l3959M2407n9517K8876M4504k874k200l6780O1964k5482m737l6457j5203q334O5883L4786p9389m8093J558
1873f6918Q572M9847K9995p3387K8080M0363M1314m5074J5866P731l8388j301k6592n7052P8662L3060l6198M6701
1855C5281J1915k7432m8893n0551K5812P5662L3440j5054k9482O977J0649j2691L0737O703K3135j17200n1247K5003
1837f7236O9083O2764K9408k2937l7576M1155l0318n5522L3378J02336n6848m1019n5960j9940j8324M9644M4577
1820B6665N4309J6826k7807K1309k0894n5400P877M2318j5681k2162j1909k1922N1366M3396m2120l6949k404m8314
1802d1496M5872J1702p401N4342k4065q7288m5940J5111N0819L2768M619m5187n0712K4036J06536j943r685n2967
1784b0879p592J349n8014O0447O3716q012O8912k2770p5655J257n5227J6388K8538p365m5349m6801N5699J179o5666
1765a15845R1107M0470J6190l2111p8285N3435j3611k6698L0648L3697J8433L3414L9447k0033l4162M187m014n0921
1747a4652k7513l8442K307L8558P5841o0232j7320k8792j1066K9200K9297N6282P26k776m5224J8393J5435L28j4741
1728E609N1993m5743N86K830p7407j0249J7431n2138J489L0920J6323L8519J5086K7201J3704m6739L6966L442l7851
1709h028P2937j7983J1534k879L2290K0085j10101J7929O81L2020q578K2697L2010k6722l0815M7263l1481L0136
1691H2995k3833n1689o4590K8031J4656k8317N2752J2343j0386L1038K9958m5434j8494L7507k2098l3934j4810
1674b4305J06507L063o5320k6446J7368L6881k9515k3860K1306Q99l191k0343k4149N3935Q693O0819j8779m0549
1656C3014J7497M0173k8571p6942J558M0228L3539J982r819l8849k6625m8648L6795L8935J2447M591q12O789o5675
1637b8393O3516q7211m7524L7121J9621L0712p88j4400J4687K1869N3629m5800o5723j1309j4251r405j7747L1090
1619g0306J09928k0442j8341m0704j3436J0184k6280r320R68k2786P165L5558N1249k2174J1395J3077J7738O7716
1601H1189p0149Q71O422M1946m0319k797p78l5833K4795k1740M444n971J5505k0314k6773m0809r851M7847J01586
1582D9271m8436k6681k1897m8197K1525J741J1454q946p443M5550M5373K044k8648p0863N4586j0026K5956J91n6432
1563f9878Q3008l2481m4428M2114P400l1272k9318L7364P086O7071n5902L6220N4964L9688p9040p8870J2698K8762
1545d814M6916j8879%j8715K3300Q0340n0762m3930p9441J0373L685K8739k5822P395L0010L1860m7105n873j0430
1526d3153q481K4999N3666n3244M5254J3386J4162P016k5549P954j7684m3211O5350P58n5690n8859M1832N588J5920
1507i986K4364K0996K0128n4789p6888L2631M3358k9952l5177K4691K0845p229K3777j2997R064J6804M7832k0529
1489C6943J0660p4140l9969O2159L058J8468N5361p4312J440M4234j1820j117m1929p0046l6122P5252M7940q858
1471b798k6590K7943m1225q454m4856J0330l8563L2545m892J10061N324l2109O927l2467n9820L4302j3539J1566O276
1452f0039M1438q447j0850N2983P3490n9232l867L3811m0296q555J7015R758K2568L5809j02735q178L3594n5683
1434c7416l2467L5265Q1873n7635L660l2834P2507N5112k4830l4687Q4158o9538k9744k0228O6478J3759p6291O0764
1416E7906L6053K5939j18298q8117k3957P6653L6696K6944j5733L5862p7096k9880L4146N0246O020n1951p927K2325
1398d169l2398o4298J3285R0588q229j6225l3660j2829Q4358j0564o9376N5323m0531J9269K3950J3968j8664K4943
1380A4741k022k4901J9352k0920J3073K4486m1877K670L8465o8344K8621L1850M2301k0094L7529p4716N491k5436
1362a9731N337L4479J7619M456K851J5787k8452j3065j6604L05o8008N7530J134p5972J32266o759q578j4001l9317
1343a8723l0664N8413L1401l7755j2260j9684M6803k6184n9594j9860K3605R6389K2285m1530o60m7519q625J4731
1325b9431k8952r918J08397O3676p0550m9688K3696J50l250m1204P3334K4614m1227O399j7119l0424O946K595J5930
1306C974l1390L7038L1783j00150M5510N1081J4730k0142m2140J499M0765J1364N3588n06j3106o0576j92J1452L744
1287C8326l8427K4433p8793N564q3140M7203L1031K7363K5372M080M0060J4328o9483k562R474N641O8704k6978r6515
1268e4319Q2359J4477p7111k8262J3747j617N7968M7052o6214n1745P2007n938n9454m6133P3465L2298o283k6855
1250c0558j0361M3754m0471K5631K2996M463q487p7032M1600L9625o352q1885P3063O8599r221J837j5798n7379o3898
1231g9874k2147K8079N9163q496q590j945K6821p5582o199M9905L7057m307N1459m4801j1471l8338M3601q963k4803
1212c9431J3096K7203m5461J3079Q794q589n0916O142L0966M3092k679q472O2881K424l9838L9692J6342p6872n1948
1193f0495J7273N071N6715j228Q264j25327J8249M6805L1364j1950J9022J6927N397m3659K1703N912q072N6871K1334
1174H0176J4427k5792l6496l670k3171p291M3975j9674n69k2398m5367j2296p3355M3368J01401J5306m4009m6572
1156f2007J1252j58K9680L1812O8241R074q5734q5360R852k7767K2772R378j3135O318O7399l4387N5608J7628K9116
1137E9582p8217J3636k9631K3771P669m9499M9514M7100n2624K5396l0485l9643N6878n8O4011R359l9337m644K3740
1118E6518n1972K3637p3342m0434k4337R3224R396o5554J6271P906J0950K6993J4315l0566J1754m0639j3224M4931
1100b4173k1004R798L6372Q6498k6297J3310q7595J6801J8149L1177o6437J7789l3839J3117K1633l2260k3573o988
1082e7522k5044k1337Q828J09365l027Q558M628M3495j486l2006q90m1610j53j1997k0539N3032M1520m178k0259
1063B9378N5353l6231j2698O405J7882k0482l0136j0954J2581o636m1208m1162J8457K9768K2963l7764j3265M4215
1045a3534J3209M591n3635K9742R730O81p740l2036M4610k978k7104L9293o4473K8719L7862K6649k9346N2817N5032
1026A12089n0825p9974k9791Q847l8913j2308N6603O8889n1684P6184l9443j1095K3179p8503O249O8093M0815p2060
1008c648j4662j8729M9411j2633n302p6968M072N4677K9714j5569j9098O7532M4449o2678k3664M5314j9507l8087
990a5376J4657J3713r352l599j2906n0907k5556O3706N5291k9320k8116j6644m8541R5169r91q9264J9350N4046M5596
971C0956k4000m6098n9707q035M615K300M0480O3589P298L2787o1115q336L9784q238r6387K7443N9411m7900k4120
952g5273K0143j4612k640k5168K8604L8777n554m6971o092j4752N9258O513M7397J07704n5237n1429Q504j841p3341
933e6010J0819k1647L4615p5091M3185Q0984M5214L4758m2571l5670j945p0254j0682N1445N0029J4346m3993l93
915G139L0634K7029r5375K4499p141l2716o3512P2040Q1013j9370n2870K298J6897N1721N6128j16400q808Q2004
897E5210l3354k4926l5039Q548M7104j12459n1954p883K0127K4960O1494K589K8781p1582K9313N258R525O2460n9
878A8113m2364j0227l9167J9431j0328N1531P0069k3416m1907r8303r191r372O0587M6259M6634K8964o8737m371
860a5795O1343r8770l1982N638P8029j4043l4553k0134J49697L6195p0715k3907J8181K874m1966k0183n1152O2397
842h846j739K3429N2785P736r1927p8244M3873L1184L8621J858o5833n178L8682l2920J893J0082j2479k6381j8685
823i2089o3027J7300M4732N1107M2856N9816j9911m8129o9533R0585j9595l6848p026M8531k0026P757K2547J8732
805B7779J4301q135o7676j6072k8272n82P1790M9576r588n932L3460l1292m0643N3608M1229l1913k6786l5712K7161
786A6301m8581l9716J338Q285M4236K8009l8723L3362r935J9021M2035j5302j0976M0250q3302j3084J0934N250k0044
767c0642q402M0525r5181l6926L8303N3364l77L3038k4487l3928P6652M7559J966j1019l8925K7867l2530n5005l6141
748h4289N1221k6535K2991m318k1841K3875l2258j8489J6570L4486J803r291m5998J7637K0195M629l738o9474K8648
729i4176L6882L1310Q1284n7734m737m0873M5564k787k7843K4991k7650l4262J8970O1985k4199K1836J3472K9375
711E1408k9142k6915K6501j9504r016k5025j2253L0852K4678l2850n5732J5542J3055L8421L9081q7652l139j481
693f3171O3010M7505l5338r7083R7483N656o4830k7452O466M7610k6329J8460m3569K3870N4829L5919j1927p976
675B3133j10385l4838j086M4528P7262r195k9210m6086L0094j1053m6092P8651M4059J881N238j7077m9205j8368
657f7749M4552N1243r26q1621L3540m9668m4849K724J9038K5800m870j6886K7212L5699M0537o0031j8889N8011k1466
638b8599k829N0448N7399n0804l8913m9978J5304j5324M4747L4585O482k8930J8310j6271m4825m8926Q2799k3826
620c9151k3412j1640R638o2564M4397P1504K2176k6986k453m7328m912j8898K7783N751J0042o306m374r375K0857
601d5251K1892K8321L5014l1663R809o2730J7849P1920J1336j8601j3739J9856L4135n9966K3780j5825N373q144
583B3366q9862P264o828k516M8993M6546m7498P164K8769p125k6538o5141M4924O1790p4210R853J3234O629l8703
564e9889m628J07442N4580n8375l3919n0660m3551Q23P625j5531Q933O0861K4179m461k6205L5347J6505p3948Q3788
545B8916P211l5864m789N2679k9088k0911L5302K4307l7306p769l5316k4523P0105j3465r7921L6685Q5463j7369
527A6347M0014L5992q7988n6294n552M5206K0547l165l9019Q270l3578m311P408O2645O3781j6832k7520m3362M7604
508C0193j9402l5515l499K1048k4082J1871O3382l570p1754n0806J2598p97K0254j158j3641m309k1140j736n575
489i7638j0296J2485L9490J1971J8303o2806K5710M5505j7632L7562n3127K4664R316K5763j0477j7160K8705k3863
471a3525k9280K8642L2623q0588q919R2133j7023j6060m1040J2956N5264M911k7840l6915L4980k0457q525M2072
453C409K3364l1942q409j7836L9267o5604P458J9261j8408m067K8590l2491k0379K6347O3568p0509k556k1516m0923
434a23376K6637M7553N8792l9036p807r128k3315n8345K3679P8703J5622L6640M2302o5215J6922M506k1934N914
416I114n4493l2051L7324J2870j1741L6551K4858j7793K3588K1982l1128l5413j5123l0851K8327J8146N0493p307
398B7353n5586n3818j351R8439p625l8006n385j3821J0321j0712l2339O7532p875n5818L9216j4613k994M2417N8540
379D3875J1116j7506J2765k3163J1314N229q676r960K9154k226L759q7208k9862M6410j5529M6283n4015k6431L9984
360b4687K3010k5070q130k0051n695J149k6284L4382J9823J4989j7599p285l2487k4738M4776l3857R706L0439K904
341d4705l349m6192P698L3223J7045J3525l1157l5296O0704M497K6079L2880k2833m6730k4742l1397J9600K6978
323d4172L5517J3212o6205k4440M9149q38P333r299k8983j6566n6703j3834R2227l393K4027J3158n3180M5143K4314
304a3533j8232l871o6930J2811K4895O1388k1511l5403M5870M8017k4015J0865K1249k4135p2244k5703l0260O0060
286e0682Q185k167J2899k4050M0410K65n398k2354j4497n9761J3059J9158k9044L9830P9160j654q478P571j755m4878
266d4181J5912M8309j6897J6004k0051o6525J0289O8984N7242k6083m0649J9153n4283J6867L9484j8465k7080Q651
248a3319Q339k072k0470K4689J6188O460k1773j4926k0523J4716J4151j6797N525k5898N088l2307M7903K035J0095
229a2896N8378l3699k2637k949L787J8920r938m058k118o4188M044P7434k2549k6360N7098l048l3498n26J1288l7802
209d5317K5881N353j4550N358k0528J5824n135P882k6584o704j5787J552K9499L0353j8601O6964n2515j22j8732
190c5909k4460R2772M599o8887j1028M1657R390k5539m2378O571l9113K275N2563N4390K2089K1423J0740l2815l8712
171c72j6213l1413L6417j8134o1628O1457J5187j1280L1502l4728k0434L4718K8955J185m5304K1950P836J3087J5725
152B8513K3463K918n9480k2550k2690L694K0617K0683J2056L8611k7892j9225R775k5206k829q936m03M2692J0639
133B4450j7685l9681m057O036L2716M605L585o0417K107L9583N487k9552J4610k3812q918L1476j4422M6052R780
114B1943m0229k092J6541l069J3839n8283o642n199N7353j8882k1205K9059K5433l5772L4368j1476m1143R0632m2745
95B431l2871k1399j1629L8948K7944r726n3628m4197K3780O3662N3097o607n5677n255L8821J6158k2924K6801M1662
76F9391o4189n7143L4179L3468L0027m8115j0758L3236M5645n3189l8804k9540K1172K2749K2709r171l3270k2248
58e3851J5189J6831j026M6836n9650L9103L7406n0894o1249J2577O094k0179L851N2683L018j0497m0781N3843K4791
39A4095K8995j6018p6925k3301K8316N9831l3964n588l4121p212P1666k175M723J7504k3154j5129J5748j6549n1765
20f5023M5696p003K7919k1002r22n4919Q3574N267l4408k9648J0376J3492J0397r811L8955j2187J3710n7929j9863
1f3329J0803
0e2526
##END=