##TITLE=Parameter file, TopSpin 4.4.1
##JCAMP-DX=6.00
##DATA TYPE= NMR SPECTRUM
##DATA CLASS= XYDATA
##ORIGIN=
##OWNER=nmr
##.SHIFT REFERENCE=INTERNAL, CDCl3, 1, 256.13907000438314
##.OBSERVE FREQUENCY=125.777909068
##.OBSERVE NUCLEUS=13C
##.SOLVENT=CDCl3
##$JCAMPDX=5
##$NPOINTS=10	$$ modification sequence number
##$ORIGIN=Bruker BioSpin GmbH & Co. KG
##$epoch=1782245041000
##$date=Tue, 23 Jun 2026 20:04:01 GMT
##$ABSF1=256.15540669277
##$ABSF2=-16.1554083404283
##$ABSG=5
##$ABSL=3
##$ALPHA=0
##$AQORDER=0
##$ASSFAC=0
##$ASSFACI=0
##$ASSFACX=0
##$ASSWID=0
##$AUNMP=<proc_1d_spintropy_auto>
##$AXLEFT=0
##$AXNAME=<>
##$AXNUC=<13C>
##$AXRIGHT=0
##$AXTYPE=0
##$AXUNIT=<>
##$AZFE=0.1
##$AZFW=0.5
##$BCFW=0
##$BC_mod=0
##$BYTORDP=0
##$COROFFS=0
##$CY=15
##$DATMOD=1
##$DC=0
##$DFILT=<>
##$DTYPP=0
##$ERETIC=no
##$F1P=0
##$F2P=0
##$FCOR=1
##$FTSIZE=65536
##$FT_mod=6
##$GAMMA=0
##$GB=0
##$INTBC=1
##$INTSCL=1
##$ISEN=30
##$LB=1
##$LEV0=0
##$LPBIN=0
##$MAXI=10000
##$MC2=0
##$MEAN=0
##$ME_mod=0
##$MI=0
##$MddCEXP=no
##$MddCT_SP=no
##$MddF180=no
##$MddLAMBDA=0
##$MddMEMORY=0
##$MddMERGE=0
##$MddNCOMP=0
##$MddNITER=0
##$MddNOISE=0
##$MddPHASE=0
##$MddSEED=0
##$MddSRSIZE=0
##$Mdd_CsALG=0
##$Mdd_CsLAMBDA=0
##$Mdd_CsNITER=0
##$Mdd_CsNORM=0
##$Mdd_CsVE=no
##$Mdd_CsZF=0
##$Mdd_LrLAMBDA=0
##$Mdd_LrNITER=0
##$Mdd_LrRANK=0
##$Mdd_LrZF=0
##$Mdd_mod=0
##$NCOEF=0
##$NLEV=6
##$NOISF1=0
##$NOISF2=0
##$NSP=0
##$NTH_PI=0
##$NZP=0
##$PC=1.4
##$PHC0=9.92
##$PHC1=0
##$PH_mod=1
##$PKNL=yes
##$PPARMOD=0
##$PPDIAG=0
##$PPIPTYP=0
##$PPMPNUM=-1
##$PPRESOL=1
##$PSCAL=0
##$PSIGN=0
##$PYNMP=<>
##$RDF1=0
##$RDF2=0
##$RDFWHM=0
##$RDINT=0
##$RDPOS=0
##$REVERSE=no
##$SF=125.76281753
##$SI=65536
##$SIGF1=0
##$SIGF2=0
##$SINO=0
##$SIOLD=65536
##$SPECTYP=<C13>
##$SREF_mod=1
##$SREGLST=<1H.CDCl3>
##$SSB=0
##$STSI=65536
##$STSR=0
##$SW_p=34246.5753424657
##$SYMM=0
##$S_DEV=0
##$TDeff=65536
##$TDoff=0
##$TI=<>
##$TILT=no
##$TM1=0
##$TM2=0
##$TOPLEV=0
##$USERP1=<>
##$USERP10=<>
##$USERP2=<>
##$USERP3=<>
##$USERP4=<>
##$USERP5=<>
##$USERP6=<>
##$USERP7=<>
##$USERP8=<>
##$USERP9=<>
##$WDW=1
##$XDIM=0
##$YMAX_p=507462327
##$YMIN_p=-6200514
##$ACQT0=-2.04698104669894
##$AMP=(0..31)
100 100 100 100 100 100 100 100 100 100 100 100 100 100 100 100 100 100
100 100 100 100 100 100 100 100 100 100 100 100 100 100
##$AMPCOIL=(0..32)
-1 0 0 0 0 0 0 0 0 0 0 0 0 0 0 0 0 0 0 0 0 0 0 0 0 0 0 0 0 0 0 0 0
##$AQSEQ=0
##$AQ_mod=3
##$AUNM=<cmc_acqu13c>
##$AUTOPOS=<41 >
##$BF2=500.15
##$BF3=125.76281753
##$BF4=125.76281753
##$BF5=125.76281753
##$BF6=125.76281753
##$BF7=125.76281753
##$BF8=125.76281753
##$BWFAC=(0..63)
0 0 0 0 0 0 0 0 0 0 0 0 0 0 0 0 0 0 0 0 0 0 0 0 0 0 0 0 0 0 0 0 0 0 0 0
0 0 0 0 0 0 0 0 0 0 0 0 0 0 0 0 0 0 0 0 0 0 0 0 0 0 0 0
##$BYTORDA=0
##$CHANFCU=(0..24)
0 2 1 0 0 0 0 0 0 0 0 0 0 0 0 0 0 0 0 0 0 0 0 0 0
##$CHANREC=(0..24)
0 2 1 0 0 0 0 0 0 0 0 0 0 0 0 0 0 0 0 0 0 0 0 0 0
##$CHEMSTR=<none>
##$CNST=(0..63)
1 1 1 1 1 1 1 1 1 1 1 1 1 1 1 1 1 1 1 1 1 1 1 1 1 1 1 1 1 1 1 1 1 1 1 1
1 1 1 1 1 1 1 1 1 1 1 1 1 1 1 1 1 1 1 1 1 1 1 1 1 1 1 1
##$CPDPRG=(0..8)
<> <> <waltz16> <> <> <> <> <> <>
##$D=(0..63)
0 2 0 0 0 0 0 0 0 0 0 0.03 0 0 0 0 0.0002 0 0 0 0 0 0 0 0 0 0 0 0 0 0 0
0 0 0 0 0 0 0 0 0 0 0 0 0 0 0 0 0 0 0 0 0 0 0 0 0 0 0 0 0 0 0 0
##$DATE=1782245041
##$DATE_START=1782244260
##$DE=7.07801895330106
##$DE1=4.5
##$DE2=2
##$DEADC=0.5
##$DECBNUC=<off>
##$DECNUC=<off>
##$DECSTAT=4
##$DEPA=4.5
##$DERX=1.5
##$DIGMOD=3
##$DIGTYP=17
##$DR=32
##$DS=2
##$DSPFIRM=4
##$DTYPA=2
##$EXP=<MRRC_C13>
##$ExpStatus=4
##$FCUCHAN=(0..9)
0 2 1 0 0 0 0 0 0 0
##$FILCOR=0
##$FL1=0
##$FL2=0
##$FL3=0
##$FL4=0
##$FN_INDIRECT=(0..7)
0 0 0 0 0 0 0 0
##$FOV=0
##$FQ1LIST=<>
##$FQ2LIST=<>
##$FQ3LIST=<>
##$FQ4LIST=<>
##$FQ5LIST=<>
##$FQ6LIST=<>
##$FQ7LIST=<>
##$FQ8LIST=<>
##$FS=(0..7)
83 83 83 83 83 83 83 83
##$FTLPGN=0
##$FW=240000000
##$FnILOOP=0
##$FnMODE=0
##$FnTYPE=0
##$GPNAM=(0..31)
<> <> <> <> <> <> <> <> <> <> <> <> <> <> <> <> <> <> <> <> <> <> <> <>
<> <> <> <> <> <> <> <>
##$GPX=(0..31)
0 0 0 0 0 0 0 0 0 0 0 0 0 0 0 0 0 0 0 0 0 0 0 0 0 0 0 0 0 0 0 0
##$GPY=(0..31)
0 0 0 0 0 0 0 0 0 0 0 0 0 0 0 0 0 0 0 0 0 0 0 0 0 0 0 0 0 0 0 0
##$GPZ=(0..31)
0 0 0 0 0 0 0 0 0 0 0 0 0 0 0 0 0 0 0 0 0 0 0 0 0 0 0 0 0 0 0 0
##$GrpdlyHandling=0
##$HDDUTY=20
##$HDRATE=1
##$HGAIN=(0..3)
0 0 0 0
##$HOLDER=41
##$HPMOD=(0..32)
1 0 0 0 0 0 0 0 0 0 0 0 0 0 0 0 0 0 0 0 0 0 0 0 0 0 0 0 0 0 0 0 0
##$IN=(0..63)
0 0 0 0 0 0 0 0 0 0 0 0 0 0 0 0 0 0 0 0 0 0 0 0 0 0 0 0 0 0 0 0 0 0 0 0
0 0 0 0 0 0 0 0 0 0 0 0 0 0 0 0 0 0 0 0 0 0 0 0 0 0 0 0
##$INF=(0..7)
0 0 0 0 0 0 0 0
##$INP=(0..63)
0 0 0 0 0 0 0 0 0 0 0 0 0 0 0 0 0 0 0 0 0 0 0 0 0 0 0 0 0 0 0 0 0 0 0 0
0 0 0 0 0 0 0 0 0 0 0 0 0 0 0 0 0 0 0 0 0 0 0 0 0 0 0 0
##$INSTRUM=<Avance NEO 500>
##$INTEGFAC=(0..63)
0 0 0 0 0 0 0 0 0 0 0 0 0 0 0 0 0 0 0 0 0 0 0 0 0 0 0 0 0 0 0 0 0 0 0 0
0 0 0 0 0 0 0 0 0 0 0 0 0 0 0 0 0 0 0 0 0 0 0 0 0 0 0 0
##$L=(0..31)
1 1 1 1 1 1 1 1 1 1 1 1 1 1 1 1 1 1 1 1 1 1 1 1 1 1 1 1 1 1 1 1
##$LFILTER=100
##$LGAIN=-12
##$LINPSTP=0
##$LOCKED=yes
##$LOCKFLD=4294
##$LOCKGN=143.461624145508
##$LOCKPOW=-30
##$LOCKPPM=7.23999977111816
##$LOCNUC=<2H>
##$LOCPHAS=34.5
##$LOCSHFT=yes
##$LOCSW=0
##$LTIME=0.400000005960464
##$MASR=5000
##$MULEXPNO=(0..15)
0 0 0 0 0 0 0 0 0 0 0 0 0 0 0 0
##$NBL=1
##$NC=0
##$NLOGCH=2
##$NOVFLW=0
##$NS=256
##$NUC1=<13C>
##$NUC2=<1H>
##$NUC3=<off>
##$NUC4=<off>
##$NUC5=<off>
##$NUC6=<off>
##$NUC7=<off>
##$NUC8=<off>
##$NUCLEUS=<off>
##$NUSLIST=<automatic>
##$NusAMOUNT=100
##$NusFPNZ=no
##$NusJSP=0
##$NusSEED=54321
##$NusSPTYPE=0
##$NusT2=1
##$NusTD=0
##$O1=15091.538
##$O2=3250.975
##$O3=15091.538
##$O4=15091.538
##$O5=15091.538
##$O6=15091.538
##$O7=15091.538
##$O8=15091.538
##$OVERFLW=0
##$P=(0..63)
4 12 24 12.1 24.2 16.5 25 50 420 30 60 40000 40000 2000 0 0 1000 2000 500
600 2500 0 0 0 1000 0 500 12 1000 2000 0 0 4440 0 0 0 80000 0 0 2040 4000
0 0 10000 888 0 40000 1260 2400 3120 2520 0 1895 20000 420 0 0 0 0 0 0
0 0 1680
##$PACOIL=(0..32)
2 3 1 0 0 0 0 0 0 0 0 0 0 0 0 0 0 0 0 0 0 0 0 0 0 0 0 0 0 0 0 0 0
##$PAPS=0
##$PARMODE=0
##$PCPD=(0..9)
0 70 80 0 0 0 0 0 0 0
##$PEXSEL=(0..9)
1 1 1 1 1 1 1 1 1 1
##$PHCOR=(0..31)
0 0 0 0 0 0 0 0 0 0 0 0 0 0 0 0 0 0 0 0 0 0 0 0 0 0 0 0 0 0 0 0
##$PHLIST=<>
##$PH_ref=0
##$PL=(0..63)
120 120 120 120 120 120 120 120 120 120 120 120 120 120 120 120 120 120
120 120 120 120 120 120 120 120 120 120 120 120 120 120 120 120 120 120
120 120 120 120 120 120 120 120 120 120 120 120 120 120 120 120 120 120
120 120 120 120 120 120 120 120 120 120
##$PLSTEP=0.1
##$PLSTRT=-6
##$PLW=(0..63)
0 96.63 35.975 0 0 0 0 0 0 0 22.264 0.89054 0.82298 0.41396 0 5.8523 0
0 96.63 2.8397 0 0.00021068 0 0 0.0033709 0 0.20575 0 0 22.264 0.82298
3.2919 0 0 0 0 0 0 0 0 0 0 0 0 0 0 0 0 0 0 0 0 0 0 0 0 0 0 0 0 0 0 0 0
##$PLWMAX=(0..7)
530.897339 108.978821 0 0 0 0 0 0
##$PQPHASE=0
##$PQSCALE=1
##$PR=1
##$PRECHAN=(0..32)
-1 2 -1 0 1 -1 -1 -1 -1 -1 -1 -1 -1 -1 -1 -1 -1 -1 -1 -1 -1 -1 -1 -1 -1
-1 -1 -1 -1 -1 -1 -1 -1
##$PROBHD=<Z151574_0025 (PI HR-500-S1-BBF/H/D-5.0-Z SP)>
##$PROBINPUTS=(0..15)
<19F/31P-75As/139La-109Ag> <1H> <2H> <> <> <> <> <> <> <> <> <> <> <> <>
<>
##$PULPROG=<zgpg30>
##$PW=0
##$PYNM=<>
##$ProjAngle=0
##$QNP=0
##$RECCHAN=(0..9)
0 2 1 0 0 0 0 0 0 0
##$RECPH=0
##$RECPRE=(0..24)
-1 0 2 -1 -1 -1 -1 -1 -1 -1 -1 -1 -1 -1 -1 -1 -1 -1 -1 -1 -1 -1 -1 -1 -1
##$RECPRFX=(0..32)
1 0 1 0 0 0 0 0 0 0 0 0 0 0 0 0 0 0 0 0 0 0 0 0 0 0 0 0 0 0 0 0 0
##$RG=101
##$RO=0
##$RSEL=(0..24)
0 1 2 0 0 0 0 0 0 0 0 0 0 0 0 0 0 0 0 0 0 0 0 0 0
##$SAMPLEID=<>
##$SFO1=125.777909068
##$SFO2=500.153250975
##$SFO3=125.777909068
##$SFO4=125.777909068
##$SFO5=125.777909068
##$SFO6=125.777909068
##$SFO7=125.777909068
##$SFO8=125.777909068
##$SHAPPR=(0..15)
1 1 1 1 1 1 1 1 1 1 1 1 1 1 1 1
##$SOLVENT=<CDCl3>
##$SOLVOLD=<off>
##$SP=(0..63)
120 120 120 120 120 120 120 120 120 120 120 120 120 120 120 120 120 120
120 120 120 120 120 120 120 120 120 120 120 120 120 120 120 120 120 120
120 120 120 120 120 120 120 120 120 120 120 120 120 120 120 120 120 120
120 120 120 120 120 120 120 120 120 120
##$SPECTR=0
##$SPINCNT=0
##$SPNAM=(0..63)
<> <Q5.1000> <Q3_surbop.1> <0.0> <Eburp2tr.1000> <Crp60comp.4> <Crp60,0.5,20.1>
<Sinc1.1000> <Crp60,0.5,20.1> <> <Crp60comp.4> <Crp60comp.4> <> <> <Eburp2.1000>
<> <> <> <0.0> <Q5tr_sebop.1> <Q5tr_sebop.1> <Q5tr_sebop.1> <Q5tr_sebop.1>
<> <> <> <Gaus1_180r.1000> <> <> <Q5tr.1000> <Q3_surbop.1> <Reburp.1000>
<Q3.1000> <Q5_sebop.1> <Q3_surbop.1> <Q3_surbop.1> <Q5.1000> <Q3_rna_c68c1.1>
<> <> <Q3_surbop.1> <Crp60,0.5,20.1> <> <> <Crp60,20,20.10> <> <Crp60_xfilt.2>
<> <> <> <> <> <> <> <> <> <> <> <> <0.0> <0.0> <0.0> <> <>
##$SPOAL=(0..63)
0.5 1 0.5 0.5 0 0.5 0.5 0.5 0.5 0.5 0.5 0.5 0.5 0.5 1 0.5 0.5 0.5 0.5 0
0 0 0 0.5 0.5 0.5 0.5 0.5 0.5 0 0.5 0.5 0.5 1 0.5 0.5 1 0.5 0.5 0.5 0.5
0.5 0.5 0.5 0.5 0.5 0.5 0.5 0.5 0.5 0.5 0.5 0.5 0.5 0.5 0.5 0.5 0.5 0.5
0.5 0.5 0.5 0.5 0.5
##$SPOFFS=(0..63)
0 0 0 0 0 0 0 0 0 0 0 0 0 0 0 0 0 0 0 0 0 0 0 0 0 0 0 0 0 0 0 0 0 0 0 0
0 0 0 0 0 0 0 0 0 0 0 0 0 0 0 0 0 0 0 0 0 0 0 0 0 0 0 0
##$SPPEX=(0..63)
0 0 0 0 0 0 0 0 0 0 0 0 0 0 0 0 0 0 0 0 0 0 0 0 0 0 0 0 0 0 0 0 0 0 0 0
0 0 0 0 0 0 0 0 0 0 0 0 0 0 0 0 0 0 0 0 0 0 0 0 0 0 0 0
##$SPW=(0..63)
0 0.0029269 0.0023963 0 0.36753 21.26 0 0.015188 21.26 0 21.26 21.26 0
0 0.36753 0 0 0 0 28.77066 44.72305 20.8825 112.6176 0 0 0 1.9433e-05 0
0 0.23755 4.8623 1.1255 0.0091817 35.215 2.4151 0.0023963 0.81302 0.99672
0 0 0.60377 21.26 0 0 0.20119 0 5.1211 0 0 0 0 0 0 0 0 0 0 0 0 0 0 0 0
0
##$SUBNAM=(0..9)
<> <> <> <> <> <> <> <> <> <>
##$SWIBOX=(0..32)
0 3 1 0 0 0 0 0 0 0 0 0 0 0 0 0 0 0 0 0 0 0 0 0 0 0 0 0 0 0 0 0 0
##$SW_h=34246.5753424658
##$SWfinal=0
##$SigLockShift=0
##$TD=65536
##$TD0=1
##$TD_INDIRECT=(0..7)
0 0 0 0 0 0 0 0
##$TDav=1
##$TE=298.859405517578
##$TE1=298.859405517578
##$TE2=0
##$TE3=0
##$TE4=0
##$TEG=300
##$TE_MAGNET=0
##$TE_PIDX=1
##$TE_RAW=298.859405517578
##$TE_STAB=(0..9)
1 1 0 0 0 0 0 0 0 0
##$TOTROT=(0..63)
0 0 0 0 0 0 0 0 0 0 0 0 0 0 0 0 0 0 0 0 0 0 0 0 0 0 0 0 0 0 0 0 0 0 0 0
0 0 0 0 0 0 0 0 0 0 0 0 0 0 0 0 0 0 0 0 0 0 0 0 0 0 0 0
##$TUBE_TYPE=<>
##$USERA1=<>
##$USERA10=<>
##$USERA2=<>
##$USERA3=<>
##$USERA4=<>
##$USERA5=<>
##$USERA6=<>
##$USERA7=<>
##$USERA8=<>
##$USERA9=<>
##$UUID=<e7db32be-c23b-443f-86ba-cc43b595612a>
##$VALIDCODE=-1
##$VALIST=<>
##$VCLIST=<>
##$VDLIST=<>
##$VPLIST=<>
##$VTLIST=<>
##$WAVEMAKER=(0..7)
<> <> <> <> <> <> <> <>
##$WBST=1024
##$WBSW=(0..7)
4 10 10 10 10 10 10 10
##$XL=0
##$YL=0
##$YMAX_a=55818370
##$YMIN_a=-52841752
##$ZGOPTNS=<>
##$scaledByNS=no
##$scaledByRG=no
##$shimCoilTempK=301.15
##$AMP0=100
##$AMP1=100
##$AMP2=100
##$AMP3=100
##$AMP4=100
##$AMP5=100
##$AMP6=100
##$AMP7=100
##$AMP8=100
##$AMP9=100
##$AMP10=100
##$AMP11=100
##$AMP12=100
##$AMP13=100
##$AMP14=100
##$AMP15=100
##$AMP16=100
##$AMP17=100
##$AMP18=100
##$AMP19=100
##$AMP20=100
##$AMP21=100
##$AMP22=100
##$AMP23=100
##$AMP24=100
##$AMP25=100
##$AMP26=100
##$AMP27=100
##$AMP28=100
##$AMP29=100
##$AMP30=100
##$AMP31=100
##$AMPCOIL0=-1
##$AMPCOIL1=0
##$AMPCOIL2=0
##$AMPCOIL3=0
##$AMPCOIL4=0
##$AMPCOIL5=0
##$AMPCOIL6=0
##$AMPCOIL7=0
##$AMPCOIL8=0
##$AMPCOIL9=0
##$AMPCOIL10=0
##$AMPCOIL11=0
##$AMPCOIL12=0
##$AMPCOIL13=0
##$AMPCOIL14=0
##$AMPCOIL15=0
##$AMPCOIL16=0
##$AMPCOIL17=0
##$AMPCOIL18=0
##$AMPCOIL19=0
##$AMPCOIL20=0
##$AMPCOIL21=0
##$AMPCOIL22=0
##$AMPCOIL23=0
##$AMPCOIL24=0
##$AMPCOIL25=0
##$AMPCOIL26=0
##$AMPCOIL27=0
##$AMPCOIL28=0
##$AMPCOIL29=0
##$AMPCOIL30=0
##$AMPCOIL31=0
##$AMPCOIL32=0
##$BWFAC0=0
##$BWFAC1=0
##$BWFAC2=0
##$BWFAC3=0
##$BWFAC4=0
##$BWFAC5=0
##$BWFAC6=0
##$BWFAC7=0
##$BWFAC8=0
##$BWFAC9=0
##$BWFAC10=0
##$BWFAC11=0
##$BWFAC12=0
##$BWFAC13=0
##$BWFAC14=0
##$BWFAC15=0
##$BWFAC16=0
##$BWFAC17=0
##$BWFAC18=0
##$BWFAC19=0
##$BWFAC20=0
##$BWFAC21=0
##$BWFAC22=0
##$BWFAC23=0
##$BWFAC24=0
##$BWFAC25=0
##$BWFAC26=0
##$BWFAC27=0
##$BWFAC28=0
##$BWFAC29=0
##$BWFAC30=0
##$BWFAC31=0
##$BWFAC32=0
##$BWFAC33=0
##$BWFAC34=0
##$BWFAC35=0
##$BWFAC36=0
##$BWFAC37=0
##$BWFAC38=0
##$BWFAC39=0
##$BWFAC40=0
##$BWFAC41=0
##$BWFAC42=0
##$BWFAC43=0
##$BWFAC44=0
##$BWFAC45=0
##$BWFAC46=0
##$BWFAC47=0
##$BWFAC48=0
##$BWFAC49=0
##$BWFAC50=0
##$BWFAC51=0
##$BWFAC52=0
##$BWFAC53=0
##$BWFAC54=0
##$BWFAC55=0
##$BWFAC56=0
##$BWFAC57=0
##$BWFAC58=0
##$BWFAC59=0
##$BWFAC60=0
##$BWFAC61=0
##$BWFAC62=0
##$BWFAC63=0
##$CHANFCU0=0
##$CHANFCU1=2
##$CHANFCU2=1
##$CHANFCU3=0
##$CHANFCU4=0
##$CHANFCU5=0
##$CHANFCU6=0
##$CHANFCU7=0
##$CHANFCU8=0
##$CHANFCU9=0
##$CHANFCU10=0
##$CHANFCU11=0
##$CHANFCU12=0
##$CHANFCU13=0
##$CHANFCU14=0
##$CHANFCU15=0
##$CHANFCU16=0
##$CHANFCU17=0
##$CHANFCU18=0
##$CHANFCU19=0
##$CHANFCU20=0
##$CHANFCU21=0
##$CHANFCU22=0
##$CHANFCU23=0
##$CHANFCU24=0
##$CHANREC0=0
##$CHANREC1=2
##$CHANREC2=1
##$CHANREC3=0
##$CHANREC4=0
##$CHANREC5=0
##$CHANREC6=0
##$CHANREC7=0
##$CHANREC8=0
##$CHANREC9=0
##$CHANREC10=0
##$CHANREC11=0
##$CHANREC12=0
##$CHANREC13=0
##$CHANREC14=0
##$CHANREC15=0
##$CHANREC16=0
##$CHANREC17=0
##$CHANREC18=0
##$CHANREC19=0
##$CHANREC20=0
##$CHANREC21=0
##$CHANREC22=0
##$CHANREC23=0
##$CHANREC24=0
##$CNST0=1
##$CNST1=1
##$CNST2=1
##$CNST3=1
##$CNST4=1
##$CNST5=1
##$CNST6=1
##$CNST7=1
##$CNST8=1
##$CNST9=1
##$CNST10=1
##$CNST11=1
##$CNST12=1
##$CNST13=1
##$CNST14=1
##$CNST15=1
##$CNST16=1
##$CNST17=1
##$CNST18=1
##$CNST19=1
##$CNST20=1
##$CNST21=1
##$CNST22=1
##$CNST23=1
##$CNST24=1
##$CNST25=1
##$CNST26=1
##$CNST27=1
##$CNST28=1
##$CNST29=1
##$CNST30=1
##$CNST31=1
##$CNST32=1
##$CNST33=1
##$CNST34=1
##$CNST35=1
##$CNST36=1
##$CNST37=1
##$CNST38=1
##$CNST39=1
##$CNST40=1
##$CNST41=1
##$CNST42=1
##$CNST43=1
##$CNST44=1
##$CNST45=1
##$CNST46=1
##$CNST47=1
##$CNST48=1
##$CNST49=1
##$CNST50=1
##$CNST51=1
##$CNST52=1
##$CNST53=1
##$CNST54=1
##$CNST55=1
##$CNST56=1
##$CNST57=1
##$CNST58=1
##$CNST59=1
##$CNST60=1
##$CNST61=1
##$CNST62=1
##$CNST63=1
##$CPDPRG0=<>
##$CPDPRG1=<>
##$CPDPRG2=<waltz16>
##$CPDPRG3=<>
##$CPDPRG4=<>
##$CPDPRG5=<>
##$CPDPRG6=<>
##$CPDPRG7=<>
##$CPDPRG8=<>
##$D0=0
##$D1=2
##$D2=0
##$D3=0
##$D4=0
##$D5=0
##$D6=0
##$D7=0
##$D8=0
##$D9=0
##$D10=0
##$D11=0.03
##$D12=0
##$D13=0
##$D14=0
##$D15=0
##$D16=0.0002
##$D17=0
##$D18=0
##$D19=0
##$D20=0
##$D21=0
##$D22=0
##$D23=0
##$D24=0
##$D25=0
##$D26=0
##$D27=0
##$D28=0
##$D29=0
##$D30=0
##$D31=0
##$D32=0
##$D33=0
##$D34=0
##$D35=0
##$D36=0
##$D37=0
##$D38=0
##$D39=0
##$D40=0
##$D41=0
##$D42=0
##$D43=0
##$D44=0
##$D45=0
##$D46=0
##$D47=0
##$D48=0
##$D49=0
##$D50=0
##$D51=0
##$D52=0
##$D53=0
##$D54=0
##$D55=0
##$D56=0
##$D57=0
##$D58=0
##$D59=0
##$D60=0
##$D61=0
##$D62=0
##$D63=0
##$FCUCHAN0=0
##$FCUCHAN1=2
##$FCUCHAN2=1
##$FCUCHAN3=0
##$FCUCHAN4=0
##$FCUCHAN5=0
##$FCUCHAN6=0
##$FCUCHAN7=0
##$FCUCHAN8=0
##$FCUCHAN9=0
##$FN_INDIRECT0=0
##$FN_INDIRECT1=0
##$FN_INDIRECT2=0
##$FN_INDIRECT3=0
##$FN_INDIRECT4=0
##$FN_INDIRECT5=0
##$FN_INDIRECT6=0
##$FN_INDIRECT7=0
##$FS0=83
##$FS1=83
##$FS2=83
##$FS3=83
##$FS4=83
##$FS5=83
##$FS6=83
##$FS7=83
##$GPNAM0=<>
##$GPNAM1=<>
##$GPNAM2=<>
##$GPNAM3=<>
##$GPNAM4=<>
##$GPNAM5=<>
##$GPNAM6=<>
##$GPNAM7=<>
##$GPNAM8=<>
##$GPNAM9=<>
##$GPNAM10=<>
##$GPNAM11=<>
##$GPNAM12=<>
##$GPNAM13=<>
##$GPNAM14=<>
##$GPNAM15=<>
##$GPNAM16=<>
##$GPNAM17=<>
##$GPNAM18=<>
##$GPNAM19=<>
##$GPNAM20=<>
##$GPNAM21=<>
##$GPNAM22=<>
##$GPNAM23=<>
##$GPNAM24=<>
##$GPNAM25=<>
##$GPNAM26=<>
##$GPNAM27=<>
##$GPNAM28=<>
##$GPNAM29=<>
##$GPNAM30=<>
##$GPNAM31=<>
##$GPX0=0
##$GPX1=0
##$GPX2=0
##$GPX3=0
##$GPX4=0
##$GPX5=0
##$GPX6=0
##$GPX7=0
##$GPX8=0
##$GPX9=0
##$GPX10=0
##$GPX11=0
##$GPX12=0
##$GPX13=0
##$GPX14=0
##$GPX15=0
##$GPX16=0
##$GPX17=0
##$GPX18=0
##$GPX19=0
##$GPX20=0
##$GPX21=0
##$GPX22=0
##$GPX23=0
##$GPX24=0
##$GPX25=0
##$GPX26=0
##$GPX27=0
##$GPX28=0
##$GPX29=0
##$GPX30=0
##$GPX31=0
##$GPY0=0
##$GPY1=0
##$GPY2=0
##$GPY3=0
##$GPY4=0
##$GPY5=0
##$GPY6=0
##$GPY7=0
##$GPY8=0
##$GPY9=0
##$GPY10=0
##$GPY11=0
##$GPY12=0
##$GPY13=0
##$GPY14=0
##$GPY15=0
##$GPY16=0
##$GPY17=0
##$GPY18=0
##$GPY19=0
##$GPY20=0
##$GPY21=0
##$GPY22=0
##$GPY23=0
##$GPY24=0
##$GPY25=0
##$GPY26=0
##$GPY27=0
##$GPY28=0
##$GPY29=0
##$GPY30=0
##$GPY31=0
##$GPZ0=0
##$GPZ1=0
##$GPZ2=0
##$GPZ3=0
##$GPZ4=0
##$GPZ5=0
##$GPZ6=0
##$GPZ7=0
##$GPZ8=0
##$GPZ9=0
##$GPZ10=0
##$GPZ11=0
##$GPZ12=0
##$GPZ13=0
##$GPZ14=0
##$GPZ15=0
##$GPZ16=0
##$GPZ17=0
##$GPZ18=0
##$GPZ19=0
##$GPZ20=0
##$GPZ21=0
##$GPZ22=0
##$GPZ23=0
##$GPZ24=0
##$GPZ25=0
##$GPZ26=0
##$GPZ27=0
##$GPZ28=0
##$GPZ29=0
##$GPZ30=0
##$GPZ31=0
##$HGAIN0=0
##$HGAIN1=0
##$HGAIN2=0
##$HGAIN3=0
##$HPMOD0=1
##$HPMOD1=0
##$HPMOD2=0
##$HPMOD3=0
##$HPMOD4=0
##$HPMOD5=0
##$HPMOD6=0
##$HPMOD7=0
##$HPMOD8=0
##$HPMOD9=0
##$HPMOD10=0
##$HPMOD11=0
##$HPMOD12=0
##$HPMOD13=0
##$HPMOD14=0
##$HPMOD15=0
##$HPMOD16=0
##$HPMOD17=0
##$HPMOD18=0
##$HPMOD19=0
##$HPMOD20=0
##$HPMOD21=0
##$HPMOD22=0
##$HPMOD23=0
##$HPMOD24=0
##$HPMOD25=0
##$HPMOD26=0
##$HPMOD27=0
##$HPMOD28=0
##$HPMOD29=0
##$HPMOD30=0
##$HPMOD31=0
##$HPMOD32=0
##$IN0=0
##$IN1=0
##$IN2=0
##$IN3=0
##$IN4=0
##$IN5=0
##$IN6=0
##$IN7=0
##$IN8=0
##$IN9=0
##$IN10=0
##$IN11=0
##$IN12=0
##$IN13=0
##$IN14=0
##$IN15=0
##$IN16=0
##$IN17=0
##$IN18=0
##$IN19=0
##$IN20=0
##$IN21=0
##$IN22=0
##$IN23=0
##$IN24=0
##$IN25=0
##$IN26=0
##$IN27=0
##$IN28=0
##$IN29=0
##$IN30=0
##$IN31=0
##$IN32=0
##$IN33=0
##$IN34=0
##$IN35=0
##$IN36=0
##$IN37=0
##$IN38=0
##$IN39=0
##$IN40=0
##$IN41=0
##$IN42=0
##$IN43=0
##$IN44=0
##$IN45=0
##$IN46=0
##$IN47=0
##$IN48=0
##$IN49=0
##$IN50=0
##$IN51=0
##$IN52=0
##$IN53=0
##$IN54=0
##$IN55=0
##$IN56=0
##$IN57=0
##$IN58=0
##$IN59=0
##$IN60=0
##$IN61=0
##$IN62=0
##$IN63=0
##$INF0=0
##$INF1=0
##$INF2=0
##$INF3=0
##$INF4=0
##$INF5=0
##$INF6=0
##$INF7=0
##$INP0=0
##$INP1=0
##$INP2=0
##$INP3=0
##$INP4=0
##$INP5=0
##$INP6=0
##$INP7=0
##$INP8=0
##$INP9=0
##$INP10=0
##$INP11=0
##$INP12=0
##$INP13=0
##$INP14=0
##$INP15=0
##$INP16=0
##$INP17=0
##$INP18=0
##$INP19=0
##$INP20=0
##$INP21=0
##$INP22=0
##$INP23=0
##$INP24=0
##$INP25=0
##$INP26=0
##$INP27=0
##$INP28=0
##$INP29=0
##$INP30=0
##$INP31=0
##$INP32=0
##$INP33=0
##$INP34=0
##$INP35=0
##$INP36=0
##$INP37=0
##$INP38=0
##$INP39=0
##$INP40=0
##$INP41=0
##$INP42=0
##$INP43=0
##$INP44=0
##$INP45=0
##$INP46=0
##$INP47=0
##$INP48=0
##$INP49=0
##$INP50=0
##$INP51=0
##$INP52=0
##$INP53=0
##$INP54=0
##$INP55=0
##$INP56=0
##$INP57=0
##$INP58=0
##$INP59=0
##$INP60=0
##$INP61=0
##$INP62=0
##$INP63=0
##$INTEGFAC0=0
##$INTEGFAC1=0
##$INTEGFAC2=0
##$INTEGFAC3=0
##$INTEGFAC4=0
##$INTEGFAC5=0
##$INTEGFAC6=0
##$INTEGFAC7=0
##$INTEGFAC8=0
##$INTEGFAC9=0
##$INTEGFAC10=0
##$INTEGFAC11=0
##$INTEGFAC12=0
##$INTEGFAC13=0
##$INTEGFAC14=0
##$INTEGFAC15=0
##$INTEGFAC16=0
##$INTEGFAC17=0
##$INTEGFAC18=0
##$INTEGFAC19=0
##$INTEGFAC20=0
##$INTEGFAC21=0
##$INTEGFAC22=0
##$INTEGFAC23=0
##$INTEGFAC24=0
##$INTEGFAC25=0
##$INTEGFAC26=0
##$INTEGFAC27=0
##$INTEGFAC28=0
##$INTEGFAC29=0
##$INTEGFAC30=0
##$INTEGFAC31=0
##$INTEGFAC32=0
##$INTEGFAC33=0
##$INTEGFAC34=0
##$INTEGFAC35=0
##$INTEGFAC36=0
##$INTEGFAC37=0
##$INTEGFAC38=0
##$INTEGFAC39=0
##$INTEGFAC40=0
##$INTEGFAC41=0
##$INTEGFAC42=0
##$INTEGFAC43=0
##$INTEGFAC44=0
##$INTEGFAC45=0
##$INTEGFAC46=0
##$INTEGFAC47=0
##$INTEGFAC48=0
##$INTEGFAC49=0
##$INTEGFAC50=0
##$INTEGFAC51=0
##$INTEGFAC52=0
##$INTEGFAC53=0
##$INTEGFAC54=0
##$INTEGFAC55=0
##$INTEGFAC56=0
##$INTEGFAC57=0
##$INTEGFAC58=0
##$INTEGFAC59=0
##$INTEGFAC60=0
##$INTEGFAC61=0
##$INTEGFAC62=0
##$INTEGFAC63=0
##$L0=1
##$L1=1
##$L2=1
##$L3=1
##$L4=1
##$L5=1
##$L6=1
##$L7=1
##$L8=1
##$L9=1
##$L10=1
##$L11=1
##$L12=1
##$L13=1
##$L14=1
##$L15=1
##$L16=1
##$L17=1
##$L18=1
##$L19=1
##$L20=1
##$L21=1
##$L22=1
##$L23=1
##$L24=1
##$L25=1
##$L26=1
##$L27=1
##$L28=1
##$L29=1
##$L30=1
##$L31=1
##$MULEXPNO0=0
##$MULEXPNO1=0
##$MULEXPNO2=0
##$MULEXPNO3=0
##$MULEXPNO4=0
##$MULEXPNO5=0
##$MULEXPNO6=0
##$MULEXPNO7=0
##$MULEXPNO8=0
##$MULEXPNO9=0
##$MULEXPNO10=0
##$MULEXPNO11=0
##$MULEXPNO12=0
##$MULEXPNO13=0
##$MULEXPNO14=0
##$MULEXPNO15=0
##$P0=4
##$P1=12
##$P2=24
##$P3=12.1
##$P4=24.2
##$P5=16.5
##$P6=25
##$P7=50
##$P8=420
##$P9=30
##$P10=60
##$P11=40000
##$P12=40000
##$P13=2000
##$P14=0
##$P15=0
##$P16=1000
##$P17=2000
##$P18=500
##$P19=600
##$P20=2500
##$P21=0
##$P22=0
##$P23=0
##$P24=1000
##$P25=0
##$P26=500
##$P27=12
##$P28=1000
##$P29=2000
##$P30=0
##$P31=0
##$P32=4440
##$P33=0
##$P34=0
##$P35=0
##$P36=80000
##$P37=0
##$P38=0
##$P39=2040
##$P40=4000
##$P41=0
##$P42=0
##$P43=10000
##$P44=888
##$P45=0
##$P46=40000
##$P47=1260
##$P48=2400
##$P49=3120
##$P50=2520
##$P51=0
##$P52=1895
##$P53=20000
##$P54=420
##$P55=0
##$P56=0
##$P57=0
##$P58=0
##$P59=0
##$P60=0
##$P61=0
##$P62=0
##$P63=1680
##$PACOIL0=2
##$PACOIL1=3
##$PACOIL2=1
##$PACOIL3=0
##$PACOIL4=0
##$PACOIL5=0
##$PACOIL6=0
##$PACOIL7=0
##$PACOIL8=0
##$PACOIL9=0
##$PACOIL10=0
##$PACOIL11=0
##$PACOIL12=0
##$PACOIL13=0
##$PACOIL14=0
##$PACOIL15=0
##$PACOIL16=0
##$PACOIL17=0
##$PACOIL18=0
##$PACOIL19=0
##$PACOIL20=0
##$PACOIL21=0
##$PACOIL22=0
##$PACOIL23=0
##$PACOIL24=0
##$PACOIL25=0
##$PACOIL26=0
##$PACOIL27=0
##$PACOIL28=0
##$PACOIL29=0
##$PACOIL30=0
##$PACOIL31=0
##$PACOIL32=0
##$PCPD0=0
##$PCPD1=70
##$PCPD2=80
##$PCPD3=0
##$PCPD4=0
##$PCPD5=0
##$PCPD6=0
##$PCPD7=0
##$PCPD8=0
##$PCPD9=0
##$PEXSEL0=1
##$PEXSEL1=1
##$PEXSEL2=1
##$PEXSEL3=1
##$PEXSEL4=1
##$PEXSEL5=1
##$PEXSEL6=1
##$PEXSEL7=1
##$PEXSEL8=1
##$PEXSEL9=1
##$PHCOR0=0
##$PHCOR1=0
##$PHCOR2=0
##$PHCOR3=0
##$PHCOR4=0
##$PHCOR5=0
##$PHCOR6=0
##$PHCOR7=0
##$PHCOR8=0
##$PHCOR9=0
##$PHCOR10=0
##$PHCOR11=0
##$PHCOR12=0
##$PHCOR13=0
##$PHCOR14=0
##$PHCOR15=0
##$PHCOR16=0
##$PHCOR17=0
##$PHCOR18=0
##$PHCOR19=0
##$PHCOR20=0
##$PHCOR21=0
##$PHCOR22=0
##$PHCOR23=0
##$PHCOR24=0
##$PHCOR25=0
##$PHCOR26=0
##$PHCOR27=0
##$PHCOR28=0
##$PHCOR29=0
##$PHCOR30=0
##$PHCOR31=0
##$PL0=120
##$PL1=120
##$PL2=120
##$PL3=120
##$PL4=120
##$PL5=120
##$PL6=120
##$PL7=120
##$PL8=120
##$PL9=120
##$PL10=120
##$PL11=120
##$PL12=120
##$PL13=120
##$PL14=120
##$PL15=120
##$PL16=120
##$PL17=120
##$PL18=120
##$PL19=120
##$PL20=120
##$PL21=120
##$PL22=120
##$PL23=120
##$PL24=120
##$PL25=120
##$PL26=120
##$PL27=120
##$PL28=120
##$PL29=120
##$PL30=120
##$PL31=120
##$PL32=120
##$PL33=120
##$PL34=120
##$PL35=120
##$PL36=120
##$PL37=120
##$PL38=120
##$PL39=120
##$PL40=120
##$PL41=120
##$PL42=120
##$PL43=120
##$PL44=120
##$PL45=120
##$PL46=120
##$PL47=120
##$PL48=120
##$PL49=120
##$PL50=120
##$PL51=120
##$PL52=120
##$PL53=120
##$PL54=120
##$PL55=120
##$PL56=120
##$PL57=120
##$PL58=120
##$PL59=120
##$PL60=120
##$PL61=120
##$PL62=120
##$PL63=120
##$PLW0=0
##$PLW1=96.63
##$PLW2=35.975
##$PLW3=0
##$PLW4=0
##$PLW5=0
##$PLW6=0
##$PLW7=0
##$PLW8=0
##$PLW9=0
##$PLW10=22.264
##$PLW11=0.89054
##$PLW12=0.82298
##$PLW13=0.41396
##$PLW14=0
##$PLW15=5.8523
##$PLW16=0
##$PLW17=0
##$PLW18=96.63
##$PLW19=2.8397
##$PLW20=0
##$PLW21=0.00021068
##$PLW22=0
##$PLW23=0
##$PLW24=0.0033709
##$PLW25=0
##$PLW26=0.20575
##$PLW27=0
##$PLW28=0
##$PLW29=22.264
##$PLW30=0.82298
##$PLW31=3.2919
##$PLW32=0
##$PLW33=0
##$PLW34=0
##$PLW35=0
##$PLW36=0
##$PLW37=0
##$PLW38=0
##$PLW39=0
##$PLW40=0
##$PLW41=0
##$PLW42=0
##$PLW43=0
##$PLW44=0
##$PLW45=0
##$PLW46=0
##$PLW47=0
##$PLW48=0
##$PLW49=0
##$PLW50=0
##$PLW51=0
##$PLW52=0
##$PLW53=0
##$PLW54=0
##$PLW55=0
##$PLW56=0
##$PLW57=0
##$PLW58=0
##$PLW59=0
##$PLW60=0
##$PLW61=0
##$PLW62=0
##$PLW63=0
##$PLWMAX0=530.897339
##$PLWMAX1=108.978821
##$PLWMAX2=0
##$PLWMAX3=0
##$PLWMAX4=0
##$PLWMAX5=0
##$PLWMAX6=0
##$PLWMAX7=0
##$PRECHAN0=-1
##$PRECHAN1=2
##$PRECHAN2=-1
##$PRECHAN3=0
##$PRECHAN4=1
##$PRECHAN5=-1
##$PRECHAN6=-1
##$PRECHAN7=-1
##$PRECHAN8=-1
##$PRECHAN9=-1
##$PRECHAN10=-1
##$PRECHAN11=-1
##$PRECHAN12=-1
##$PRECHAN13=-1
##$PRECHAN14=-1
##$PRECHAN15=-1
##$PRECHAN16=-1
##$PRECHAN17=-1
##$PRECHAN18=-1
##$PRECHAN19=-1
##$PRECHAN20=-1
##$PRECHAN21=-1
##$PRECHAN22=-1
##$PRECHAN23=-1
##$PRECHAN24=-1
##$PRECHAN25=-1
##$PRECHAN26=-1
##$PRECHAN27=-1
##$PRECHAN28=-1
##$PRECHAN29=-1
##$PRECHAN30=-1
##$PRECHAN31=-1
##$PRECHAN32=-1
##$PROBINPUTS0=<19F/31P-75As/139La-109Ag>
##$PROBINPUTS1=<1H>
##$PROBINPUTS2=<2H>
##$PROBINPUTS3=<>
##$PROBINPUTS4=<>
##$PROBINPUTS5=<>
##$PROBINPUTS6=<>
##$PROBINPUTS7=<>
##$PROBINPUTS8=<>
##$PROBINPUTS9=<>
##$PROBINPUTS10=<>
##$PROBINPUTS11=<>
##$PROBINPUTS12=<>
##$PROBINPUTS13=<>
##$PROBINPUTS14=<>
##$PROBINPUTS15=<>
##$RECCHAN0=0
##$RECCHAN1=2
##$RECCHAN2=1
##$RECCHAN3=0
##$RECCHAN4=0
##$RECCHAN5=0
##$RECCHAN6=0
##$RECCHAN7=0
##$RECCHAN8=0
##$RECCHAN9=0
##$RECPRE0=-1
##$RECPRE1=0
##$RECPRE2=2
##$RECPRE3=-1
##$RECPRE4=-1
##$RECPRE5=-1
##$RECPRE6=-1
##$RECPRE7=-1
##$RECPRE8=-1
##$RECPRE9=-1
##$RECPRE10=-1
##$RECPRE11=-1
##$RECPRE12=-1
##$RECPRE13=-1
##$RECPRE14=-1
##$RECPRE15=-1
##$RECPRE16=-1
##$RECPRE17=-1
##$RECPRE18=-1
##$RECPRE19=-1
##$RECPRE20=-1
##$RECPRE21=-1
##$RECPRE22=-1
##$RECPRE23=-1
##$RECPRE24=-1
##$RECPRFX0=1
##$RECPRFX1=0
##$RECPRFX2=1
##$RECPRFX3=0
##$RECPRFX4=0
##$RECPRFX5=0
##$RECPRFX6=0
##$RECPRFX7=0
##$RECPRFX8=0
##$RECPRFX9=0
##$RECPRFX10=0
##$RECPRFX11=0
##$RECPRFX12=0
##$RECPRFX13=0
##$RECPRFX14=0
##$RECPRFX15=0
##$RECPRFX16=0
##$RECPRFX17=0
##$RECPRFX18=0
##$RECPRFX19=0
##$RECPRFX20=0
##$RECPRFX21=0
##$RECPRFX22=0
##$RECPRFX23=0
##$RECPRFX24=0
##$RECPRFX25=0
##$RECPRFX26=0
##$RECPRFX27=0
##$RECPRFX28=0
##$RECPRFX29=0
##$RECPRFX30=0
##$RECPRFX31=0
##$RECPRFX32=0
##$RSEL0=0
##$RSEL1=1
##$RSEL2=2
##$RSEL3=0
##$RSEL4=0
##$RSEL5=0
##$RSEL6=0
##$RSEL7=0
##$RSEL8=0
##$RSEL9=0
##$RSEL10=0
##$RSEL11=0
##$RSEL12=0
##$RSEL13=0
##$RSEL14=0
##$RSEL15=0
##$RSEL16=0
##$RSEL17=0
##$RSEL18=0
##$RSEL19=0
##$RSEL20=0
##$RSEL21=0
##$RSEL22=0
##$RSEL23=0
##$RSEL24=0
##$SHAPPR0=1
##$SHAPPR1=1
##$SHAPPR2=1
##$SHAPPR3=1
##$SHAPPR4=1
##$SHAPPR5=1
##$SHAPPR6=1
##$SHAPPR7=1
##$SHAPPR8=1
##$SHAPPR9=1
##$SHAPPR10=1
##$SHAPPR11=1
##$SHAPPR12=1
##$SHAPPR13=1
##$SHAPPR14=1
##$SHAPPR15=1
##$SP0=120
##$SP1=120
##$SP2=120
##$SP3=120
##$SP4=120
##$SP5=120
##$SP6=120
##$SP7=120
##$SP8=120
##$SP9=120
##$SP10=120
##$SP11=120
##$SP12=120
##$SP13=120
##$SP14=120
##$SP15=120
##$SP16=120
##$SP17=120
##$SP18=120
##$SP19=120
##$SP20=120
##$SP21=120
##$SP22=120
##$SP23=120
##$SP24=120
##$SP25=120
##$SP26=120
##$SP27=120
##$SP28=120
##$SP29=120
##$SP30=120
##$SP31=120
##$SP32=120
##$SP33=120
##$SP34=120
##$SP35=120
##$SP36=120
##$SP37=120
##$SP38=120
##$SP39=120
##$SP40=120
##$SP41=120
##$SP42=120
##$SP43=120
##$SP44=120
##$SP45=120
##$SP46=120
##$SP47=120
##$SP48=120
##$SP49=120
##$SP50=120
##$SP51=120
##$SP52=120
##$SP53=120
##$SP54=120
##$SP55=120
##$SP56=120
##$SP57=120
##$SP58=120
##$SP59=120
##$SP60=120
##$SP61=120
##$SP62=120
##$SP63=120
##$SPNAM0=<>
##$SPNAM1=<Q5.1000>
##$SPNAM2=<Q3_surbop.1>
##$SPNAM3=<0.0>
##$SPNAM4=<Eburp2tr.1000>
##$SPNAM5=<Crp60comp.4>
##$SPNAM6=<Crp60
##$SPNAM7=0.5
##$SPNAM8=20.1>
##$SPNAM9=<Sinc1.1000>
##$SPNAM10=<Crp60
##$SPNAM11=0.5
##$SPNAM12=20.1>
##$SPNAM13=<>
##$SPNAM14=<Crp60comp.4>
##$SPNAM15=<Crp60comp.4>
##$SPNAM16=<>
##$SPNAM17=<>
##$SPNAM18=<Eburp2.1000>
##$SPNAM19=<>
##$SPNAM20=<>
##$SPNAM21=<>
##$SPNAM22=<0.0>
##$SPNAM23=<Q5tr_sebop.1>
##$SPNAM24=<Q5tr_sebop.1>
##$SPNAM25=<Q5tr_sebop.1>
##$SPNAM26=<Q5tr_sebop.1>
##$SPNAM27=<>
##$SPNAM28=<>
##$SPNAM29=<>
##$SPNAM30=<Gaus1_180r.1000>
##$SPNAM31=<>
##$SPNAM32=<>
##$SPNAM33=<Q5tr.1000>
##$SPNAM34=<Q3_surbop.1>
##$SPNAM35=<Reburp.1000>
##$SPNAM36=<Q3.1000>
##$SPNAM37=<Q5_sebop.1>
##$SPNAM38=<Q3_surbop.1>
##$SPNAM39=<Q3_surbop.1>
##$SPNAM40=<Q5.1000>
##$SPNAM41=<Q3_rna_c68c1.1>
##$SPNAM42=<>
##$SPNAM43=<>
##$SPNAM44=<Q3_surbop.1>
##$SPNAM45=<Crp60
##$SPNAM46=0.5
##$SPNAM47=20.1>
##$SPNAM48=<>
##$SPNAM49=<>
##$SPNAM50=<Crp60
##$SPNAM51=20
##$SPNAM52=20.10>
##$SPNAM53=<>
##$SPNAM54=<Crp60_xfilt.2>
##$SPNAM55=<>
##$SPNAM56=<>
##$SPNAM57=<>
##$SPNAM58=<>
##$SPNAM59=<>
##$SPNAM60=<>
##$SPNAM61=<>
##$SPNAM62=<>
##$SPNAM63=<>
##$SPOAL0=0.5
##$SPOAL1=1
##$SPOAL2=0.5
##$SPOAL3=0.5
##$SPOAL4=0
##$SPOAL5=0.5
##$SPOAL6=0.5
##$SPOAL7=0.5
##$SPOAL8=0.5
##$SPOAL9=0.5
##$SPOAL10=0.5
##$SPOAL11=0.5
##$SPOAL12=0.5
##$SPOAL13=0.5
##$SPOAL14=1
##$SPOAL15=0.5
##$SPOAL16=0.5
##$SPOAL17=0.5
##$SPOAL18=0.5
##$SPOAL19=0
##$SPOAL20=0
##$SPOAL21=0
##$SPOAL22=0
##$SPOAL23=0.5
##$SPOAL24=0.5
##$SPOAL25=0.5
##$SPOAL26=0.5
##$SPOAL27=0.5
##$SPOAL28=0.5
##$SPOAL29=0
##$SPOAL30=0.5
##$SPOAL31=0.5
##$SPOAL32=0.5
##$SPOAL33=1
##$SPOAL34=0.5
##$SPOAL35=0.5
##$SPOAL36=1
##$SPOAL37=0.5
##$SPOAL38=0.5
##$SPOAL39=0.5
##$SPOAL40=0.5
##$SPOAL41=0.5
##$SPOAL42=0.5
##$SPOAL43=0.5
##$SPOAL44=0.5
##$SPOAL45=0.5
##$SPOAL46=0.5
##$SPOAL47=0.5
##$SPOAL48=0.5
##$SPOAL49=0.5
##$SPOAL50=0.5
##$SPOAL51=0.5
##$SPOAL52=0.5
##$SPOAL53=0.5
##$SPOAL54=0.5
##$SPOAL55=0.5
##$SPOAL56=0.5
##$SPOAL57=0.5
##$SPOAL58=0.5
##$SPOAL59=0.5
##$SPOAL60=0.5
##$SPOAL61=0.5
##$SPOAL62=0.5
##$SPOAL63=0.5
##$SPOFFS0=0
##$SPOFFS1=0
##$SPOFFS2=0
##$SPOFFS3=0
##$SPOFFS4=0
##$SPOFFS5=0
##$SPOFFS6=0
##$SPOFFS7=0
##$SPOFFS8=0
##$SPOFFS9=0
##$SPOFFS10=0
##$SPOFFS11=0
##$SPOFFS12=0
##$SPOFFS13=0
##$SPOFFS14=0
##$SPOFFS15=0
##$SPOFFS16=0
##$SPOFFS17=0
##$SPOFFS18=0
##$SPOFFS19=0
##$SPOFFS20=0
##$SPOFFS21=0
##$SPOFFS22=0
##$SPOFFS23=0
##$SPOFFS24=0
##$SPOFFS25=0
##$SPOFFS26=0
##$SPOFFS27=0
##$SPOFFS28=0
##$SPOFFS29=0
##$SPOFFS30=0
##$SPOFFS31=0
##$SPOFFS32=0
##$SPOFFS33=0
##$SPOFFS34=0
##$SPOFFS35=0
##$SPOFFS36=0
##$SPOFFS37=0
##$SPOFFS38=0
##$SPOFFS39=0
##$SPOFFS40=0
##$SPOFFS41=0
##$SPOFFS42=0
##$SPOFFS43=0
##$SPOFFS44=0
##$SPOFFS45=0
##$SPOFFS46=0
##$SPOFFS47=0
##$SPOFFS48=0
##$SPOFFS49=0
##$SPOFFS50=0
##$SPOFFS51=0
##$SPOFFS52=0
##$SPOFFS53=0
##$SPOFFS54=0
##$SPOFFS55=0
##$SPOFFS56=0
##$SPOFFS57=0
##$SPOFFS58=0
##$SPOFFS59=0
##$SPOFFS60=0
##$SPOFFS61=0
##$SPOFFS62=0
##$SPOFFS63=0
##$SPPEX0=0
##$SPPEX1=0
##$SPPEX2=0
##$SPPEX3=0
##$SPPEX4=0
##$SPPEX5=0
##$SPPEX6=0
##$SPPEX7=0
##$SPPEX8=0
##$SPPEX9=0
##$SPPEX10=0
##$SPPEX11=0
##$SPPEX12=0
##$SPPEX13=0
##$SPPEX14=0
##$SPPEX15=0
##$SPPEX16=0
##$SPPEX17=0
##$SPPEX18=0
##$SPPEX19=0
##$SPPEX20=0
##$SPPEX21=0
##$SPPEX22=0
##$SPPEX23=0
##$SPPEX24=0
##$SPPEX25=0
##$SPPEX26=0
##$SPPEX27=0
##$SPPEX28=0
##$SPPEX29=0
##$SPPEX30=0
##$SPPEX31=0
##$SPPEX32=0
##$SPPEX33=0
##$SPPEX34=0
##$SPPEX35=0
##$SPPEX36=0
##$SPPEX37=0
##$SPPEX38=0
##$SPPEX39=0
##$SPPEX40=0
##$SPPEX41=0
##$SPPEX42=0
##$SPPEX43=0
##$SPPEX44=0
##$SPPEX45=0
##$SPPEX46=0
##$SPPEX47=0
##$SPPEX48=0
##$SPPEX49=0
##$SPPEX50=0
##$SPPEX51=0
##$SPPEX52=0
##$SPPEX53=0
##$SPPEX54=0
##$SPPEX55=0
##$SPPEX56=0
##$SPPEX57=0
##$SPPEX58=0
##$SPPEX59=0
##$SPPEX60=0
##$SPPEX61=0
##$SPPEX62=0
##$SPPEX63=0
##$SPW0=0
##$SPW1=0.0029269
##$SPW2=0.0023963
##$SPW3=0
##$SPW4=0.36753
##$SPW5=21.26
##$SPW6=0
##$SPW7=0.015188
##$SPW8=21.26
##$SPW9=0
##$SPW10=21.26
##$SPW11=21.26
##$SPW12=0
##$SPW13=0
##$SPW14=0.36753
##$SPW15=0
##$SPW16=0
##$SPW17=0
##$SPW18=0
##$SPW19=28.77066
##$SPW20=44.72305
##$SPW21=20.8825
##$SPW22=112.6176
##$SPW23=0
##$SPW24=0
##$SPW25=0
##$SPW26=0.000019433
##$SPW27=0
##$SPW28=0
##$SPW29=0.23755
##$SPW30=4.8623
##$SPW31=1.1255
##$SPW32=0.0091817
##$SPW33=35.215
##$SPW34=2.4151
##$SPW35=0.0023963
##$SPW36=0.81302
##$SPW37=0.99672
##$SPW38=0
##$SPW39=0
##$SPW40=0.60377
##$SPW41=21.26
##$SPW42=0
##$SPW43=0
##$SPW44=0.20119
##$SPW45=0
##$SPW46=5.1211
##$SPW47=0
##$SPW48=0
##$SPW49=0
##$SPW50=0
##$SPW51=0
##$SPW52=0
##$SPW53=0
##$SPW54=0
##$SPW55=0
##$SPW56=0
##$SPW57=0
##$SPW58=0
##$SPW59=0
##$SPW60=0
##$SPW61=0
##$SPW62=0
##$SPW63=0
##$SUBNAM0=<>
##$SUBNAM1=<>
##$SUBNAM2=<>
##$SUBNAM3=<>
##$SUBNAM4=<>
##$SUBNAM5=<>
##$SUBNAM6=<>
##$SUBNAM7=<>
##$SUBNAM8=<>
##$SUBNAM9=<>
##$SWIBOX0=0
##$SWIBOX1=3
##$SWIBOX2=1
##$SWIBOX3=0
##$SWIBOX4=0
##$SWIBOX5=0
##$SWIBOX6=0
##$SWIBOX7=0
##$SWIBOX8=0
##$SWIBOX9=0
##$SWIBOX10=0
##$SWIBOX11=0
##$SWIBOX12=0
##$SWIBOX13=0
##$SWIBOX14=0
##$SWIBOX15=0
##$SWIBOX16=0
##$SWIBOX17=0
##$SWIBOX18=0
##$SWIBOX19=0
##$SWIBOX20=0
##$SWIBOX21=0
##$SWIBOX22=0
##$SWIBOX23=0
##$SWIBOX24=0
##$SWIBOX25=0
##$SWIBOX26=0
##$SWIBOX27=0
##$SWIBOX28=0
##$SWIBOX29=0
##$SWIBOX30=0
##$SWIBOX31=0
##$SWIBOX32=0
##$TD_INDIRECT0=0
##$TD_INDIRECT1=0
##$TD_INDIRECT2=0
##$TD_INDIRECT3=0
##$TD_INDIRECT4=0
##$TD_INDIRECT5=0
##$TD_INDIRECT6=0
##$TD_INDIRECT7=0
##$TE_STAB0=1
##$TE_STAB1=1
##$TE_STAB2=0
##$TE_STAB3=0
##$TE_STAB4=0
##$TE_STAB5=0
##$TE_STAB6=0
##$TE_STAB7=0
##$TE_STAB8=0
##$TE_STAB9=0
##$TOTROT0=0
##$TOTROT1=0
##$TOTROT2=0
##$TOTROT3=0
##$TOTROT4=0
##$TOTROT5=0
##$TOTROT6=0
##$TOTROT7=0
##$TOTROT8=0
##$TOTROT9=0
##$TOTROT10=0
##$TOTROT11=0
##$TOTROT12=0
##$TOTROT13=0
##$TOTROT14=0
##$TOTROT15=0
##$TOTROT16=0
##$TOTROT17=0
##$TOTROT18=0
##$TOTROT19=0
##$TOTROT20=0
##$TOTROT21=0
##$TOTROT22=0
##$TOTROT23=0
##$TOTROT24=0
##$TOTROT25=0
##$TOTROT26=0
##$TOTROT27=0
##$TOTROT28=0
##$TOTROT29=0
##$TOTROT30=0
##$TOTROT31=0
##$TOTROT32=0
##$TOTROT33=0
##$TOTROT34=0
##$TOTROT35=0
##$TOTROT36=0
##$TOTROT37=0
##$TOTROT38=0
##$TOTROT39=0
##$TOTROT40=0
##$TOTROT41=0
##$TOTROT42=0
##$TOTROT43=0
##$TOTROT44=0
##$TOTROT45=0
##$TOTROT46=0
##$TOTROT47=0
##$TOTROT48=0
##$TOTROT49=0
##$TOTROT50=0
##$TOTROT51=0
##$TOTROT52=0
##$TOTROT53=0
##$TOTROT54=0
##$TOTROT55=0
##$TOTROT56=0
##$TOTROT57=0
##$TOTROT58=0
##$TOTROT59=0
##$TOTROT60=0
##$TOTROT61=0
##$TOTROT62=0
##$TOTROT63=0
##$WAVEMAKER0=<>
##$WAVEMAKER1=<>
##$WAVEMAKER2=<>
##$WAVEMAKER3=<>
##$WAVEMAKER4=<>
##$WAVEMAKER5=<>
##$WAVEMAKER6=<>
##$WAVEMAKER7=<>
##$WBSW0=4
##$WBSW1=10
##$WBSW2=10
##$WBSW3=10
##$WBSW4=10
##$WBSW5=10
##$WBSW6=10
##$WBSW7=10
##$TITLE_FILE=Spintropy Username jyarger
2026_06_23_Salicylic_Acid_CDCl3_5mm_Bruker500
5 mm NMR Tube w/ green cap wt = 2763.23 mg
+ Salicylic Acid 99+% powder = 2783.87 mg
+ CIL 0.6 ml Amp CDCl3 w/ 0.03% v/v/ TMS = 3700.29 mg
Saturated w/ white powder on top of liquid.
In refrig from 6/19/26 til now, 6/23/26 (NMR not useable til today)
re-wt 3680.91 mg, Bruker 500 MHz NMR

##$observeFrequency=125.76281753
##$brukerReference=125.76281753
##$OFFSET=-16.155408340428323
##$SW=272.278141656424
##$BF1=125.76281753
##$NC_proc=7
##XUNITS=HZ
##YUNITS=ARBITRARY UNITS
##XFACTOR=0.5226319513462818
##YFACTOR=1
##DELTAX=0.5226319513512863
##FIRSTX=0
##FIRSTY=734165
##LASTX=34250.68493147858
##MAXY=507462327
##MINY=-6200514
##NPOINTS=65536
##XYDATA=(X++(Y..Y))
65535G34165l31182P2443j14173j92766p48067j82873J28262Q4014r46689j211247n37026J406124N63644m83216l417
65520a762004O89112J281517J096829L13114p74435j053482J35057K31456K63316Q54721j11189o3170L89687K63321
65506A753850k14949k82323o69778o2800k5870r64755k70972K54704O43109j48785m1339P50568n91977l25884k34567
65491d31768Q68528J240076k39539N0205O56721j20254k95460p73676l91904o64689J69724j64928m51803M89005
65477e9762K83231n5526l94387p80795r674P66474J503235N40399l86891j166846j019062k73584Q15490K71227
65463C3529L48627p49156n22969J08699Q15805l03462L18563l88329j08813Q96957P37415p0328L22374o99246r62411
65448b22745O46826O7444l87703j156832o19998K28358l66875J082694K52701m29139k3885K75063Q27326K02620
65434C75855k35250n57028q0145K80756J249371R22731l86832q59175o90496j88838j318815n16460J598473M92390
65420H6537l10621m95120M2999K11886l69063J95653j75613J39051j31166k33549R2398Q76963Q74875n86460l31142
65405a12372L52420J42543m4556r98969o84186m48701n9660J076997L906n63063j184509n08124J22427K14483N90677
65390b100687J396917O11436Q90393j18833m28511J744845m52776j858403p65130J234124q4490k80532M86199k48343
65376B6209l80609M7176k41282m57131Q5153Q66540J042081K21563r25672m75521m27294K48865J258232J656293P345
65361B551948j301891j379559l66429P2244k82628Q19503q33473p03965R78131l59757l6162N22800M3666m77131
65347g52703L15204K67437j81376j604842r97558M78025J847058J471051K40829m39088j413484m61798K5006P9958
65333a126281j21173J089799J83740P5128o52075J6046o06603l19560k48539J507351R99009q42240n14943P7828
65319d82513K31814j2924k01029J693006q35900p03216J74804J78724N26013Q79355j24654n87506l87764l19394
65305B8816J16228O46422Q59890j060725p35568q96945K57998o97090n17866R76749M12899l53770O00151L65605
65291B794P55670J34516r93477q41887n0117J55983K94347l95237k43875K94975p16476J44317J46198j406148l7034
65276b755451L21272Q12836J167671m20999p87808K9435o6839m64876p36156Q57427J687380J77446J479940R30727
65262B232005k10505N41923j373479j625001l86821R28597R79847P6370p03255l05204p128M96142j07662m80656
65248E5173J123791k6996k47287m50696j5550j132463q29061M5138K49333j82268P13578N33545n08329P56269
65234H4177J243225K69671j060249J86680k8053K11579j69870j056756M1299J085965J066891J05519j093700l86578
65220D99800j140254m85598P26245J425877M93198n06626j640599j18776J031515J224803K63858j639887N14342
65207F47898k18149k54276J04995q10552L74115J125232J135811j61403K87511k89410p90233n70756N12521m98373
65193E94931k61794O95994j323870j507073l4797p14536k67322J062243k42491O91291k94566q8803P20633Q2517
65179h87643l20597L73641o4585J7078k14702L37199k0273K68765K34557j281096o06457L20306O87551N35416P96557
65164A75717J084623l64845o74194M61748Q35513j752147j859627k88826P43474k39716K75363P39033m7320r50997
65150a862201k27455M3771m2099L44894J21057K214903P13370j508768j246402O30045O72109q24727n86352j70036
65136a727891o78905k78313J82031l15997J011218J939926q356r01139R27463j049105L0418O12612j1806j80017
65122d47861M1729j25156R11096J359004j71289n55968K53793q72776j546557P69591p0580n86359O6709o12384
65108a587008L13899P32948o64424r30358R0723J27024m62838J457809O7468m07056N62232J62348N55812L33404
65094C51983Q96009m712p9599K08500J109500N29740o39082q53193R47338j078131j166937l62285j64793l93173
65080f98835j037109p00828K03608J049902N39486k18935p20539k00493K98286J150228p41313M84419j23912j748315
65066b464350P6299J614401J231684Q80689p73269k59431M54580m73703r82481p37399J487719K014467n41348
65053A527858k910904K14227Q18770J312427O46047j02549j514091j104630j17887Q64005O19011K32876p9260q68778
65039d62878L30943L09262l71204J82314J698488j52082m18356R81276m5305j4989l90425j015245o1879N29667
65025A099587o25891L49374m07878J92161J469941j21881j255954n5458M72592J72513l76953j352082k03757J796321
65011A152635J156389O12285l95763r52888j05550M22122j47612j523858q70253j57658m12945L00586J1382J941555
64997A030427M76872j563858q10410R53349L83311j281097N03914J358360Q9167m77546Q31573j82113k4527J40969
64983A428391k38285j389753L0915J082412k23881o03810k46456K1544L04778m57547Q79973J022081r07563q55847
64969a53048o73986j410897J141385K099058m00978j094995O48269l0150K38323J160334j841612m41702Q10314
64956E0315N02481j278226O97025J684355N36920q47360p06443k348983j750060Q81414K182714L166m95694J106604
64942B18228j27715L9257L26536L08786m57886Q93580O33706m2503j424121r76279J70145N91259J617380J38165
64928A908538n42883m63760n18634r34864m26869L38200K07654Q29191j33927L08583m01263j403961J64602J063997
64914e396o33575m66203p2750J251977Q30375j163131n69083O84030M51272l37960J4743j227239j38259o5399r20054
64899b366652J585039K585822Q89930K72472J40239j693683j759915p18388k89127Q44668J1723p55800m35113Q42490
64885h46295P57302j488207O75061N9835K97331J035614J653852Q2410k957218k856414J4112Q3296J325953Q37996
64871a325372j28614n61534r359J234985J140397r351K058586R14946o37272K94582M81592r58447j501782k085651
64857a092294M29417J031806k85671n83469J53118o92074j069364m64960J97427r4384L40421J030219q2321o58218
64843a840347j230725N35364J003802P86834O71328p29520o10573j343335j264584K77011K040621M30646j941293
64830c214771k33159o74624N67056Q83152P59616J121484K2419K39997P97432k6081r44656l0290Q03676M72986
64816E44237O12118M75974q0844k084020j966870R70375L14852M33902R35480M52548j252756n09106J023770Q89786
64802G59446k24058j140802r59425p61316j135493O81945R26062j347387M51541J097217m33701O23821K622042
64789A159892M16639j494209n9917p5186n25815O90329n42494J36539J027217O42005L09575n59106o15002j361874
64775h51407K51939J881608p3337j922682n25485J365901O92399J316641l33250O89623O67427j145511k194196
64762a80330j477506P49746K183122J556301J59541p48075q73417K34421J646932J013483m30928q43573p00881
64749B288836o62914j031306L32129Q97800L12102n3511j199385j57008m03874P51369Q6294k197725j183082R1504
64735b128771n75802p70965P66485l0856J049633J633973l51663J2218j461007o67862J255592P8754K161385J820082
64721B791196j098194j306849O6967m56132q67140K23340Q72761O31104J2029j035642K09068R76401J42716j17566
64707A044059L45706J56164K58733m90756j18528j414298p95356O32084Q35949J307671R98574j566289q69354k13217
64693A11142k03510J13945M51998J32870M8054j242724j55001p02737N38637J532050M0003J036985r39807j581280
64679h19375j51274m27633N65425o20437K83297J662475r6075j59182N05786j589408l93587K127404M81515j162441
64665B06490K28105j293599p65229M66886J42845R30341Q49608K29843N42495l01489J58815P31135j01976N98315
64651B622585j278046k362473m45062M54769J405548l64953j105021m25069P79945J58802j63436J140730J026280
64638A444599j673104j737936r24442j941233J133983K187099O18696P32584J972086L17473j040374l09300j208602
64625d28471o51113J262479O67952J673346K12845k40728q36769K72293n53155O34206J315687o38724j348551r88263
64611C53034j066480M89269q14738k1855j000486o1965K824563O76918q39565n36181n23683K435964Q28849j6943
64597B726701q17277j921592j739568K01535O49171l80655O06736k13787l42443K52571l62997q10739J25941j707458
64583c733861J095274J698103N74840J659181M86843P37343K52949m84161j928665j025321j6489K548176J759758
64570C623970O44226k560026j489591l26460N49729N18151n93226q80448r10400n7688l48388n22446j72194r5471
64556b620262N26692j095423o82968L036853K159411m24753q19873o62806J31889J019197O80334K82977p77784
64543G53484o63067l22290Q92402L85121n28449o84251p90980k010972j821161L82423J354659p5554Q28676k16729
64529b516688j324621N15934k39017p65531P05064J614763P13279J682181N32500m82774o01623m06917J01094J23038
64515c49318j39358j038617K67156j112698j92347J112003N22182J64624k96970Q90456M69119k09290K48464m84499
64501a49093o09902L90837o47746j029635m2414k100858n88850K598689J550997M72820J905541L22734k241944
64488a68824j63453Q18314N80419p33327j026178L76967J34090m93579J452280J596338l73372j07913j583286q5351
64474B23125J087368m55015j223238q86966n86601k85314l8997J670484J146313Q16524K75331K23576o68089l94651
64460I03850j23020k725595j87139P15540j14279j81096O22503n36601l94407L90869J548214L28975r92287j92338
64446i36811j84141K59318O45944q32455k35912P33969m42711J078239J47409q88260j589067N87634K40452J195547
64432b20845J496498r13120q79647k44791J25572j41874Q05118P47651N34106P26697k595009q68769J439896R83712
64418I95195j139109j316227L55684P20084J29815j485675n75670P3895J07271L63884L71940P61699J774969L32812
64404A470567Q94952r72870j682349M05915L66158j291755p78902J284360N61121l97691J51452J60901m28816p95620
64390a052577m38275P66857K324341J81954j357506K65559O25312K80419l75687j157107k24270L75550n97463M27452
64376D4559l20196l05382J202674J291856L08411m38055n47396k10314m45706o85533N29848o54941J13888K46431
64362A30144j977959j64338K071785R85449o48407k64739R11685o6782j013232N18562j28323J23516q97362N88746
64348A68745R69336M98681k483655k332941m73069P44973J143365K58394R40386J179825k64786L40314N8366r5467
64334F52467n05284M31946p4175o70563N95592p21664o45904k95832Q77032J272515p47106j01620K21579P06632
64320I95615R03874Q75281K1686j015214j085490k97326K08077j293824q69317k00870n55905n7425P52910j51879
64306a769807n29541K168359J359954J013427K020229l43752j402137j955594K79173M01931j039620j701218q64797
64293b363393p08728Q5201M69993J404386O24786J085660j454246j43020J589404O502r91151Q98550L22508n81885
64279B44567m55778j605763L51192J392728Q40321r74702L02368J441948m48442k55696l06402J387088O94784
64266B608213j368891k407634M75356J703692L9510j47042o93459O6604j354273j437889L85488K511316K944149
64253C325140k96680j684392q07185l50682k95640L77794q48520k063625o13842J065776r28605k26896J109180
64240b238177J415188J218864O20685M5056L15733n65378q84954o87677J97890J266655o42065l98892K42172l43587
64226d38487o3497J754270J988606l74036O23419K31293k681602j349109N40712J890976j93700r50359L11358j36559
64212A153285k96280N75142o09536o49808j229366K3855K61948M62192j88112O70801P28201M51644m58387j326338
64198d30759p7488Q965M84206O79781J267431j84832j683649q44676Q45679o50675r90567J09905J108707K070430
64184A712458j43684p56067o140j42184m66694j484625r42758J151620J068377K056034M55731j121223j112624
64171B68221j039358m54096J361241K78834l02963J40016L71050j81517n47686N60070P11184O16376p61096r86467
64157C3809P71672J094534l06508L17565J040899j274562j404754p78615j164182l72981r06206J83631P88803
64144a976895J692689J142561j007817j579623J63093o55860M68656J513398Q08707L52291K07947j68250k79897
64131F81000j884789o5119J085321r53035o8163J34708P00085J583241m55763m21493k40383J517448j085072q11587
64117b83601n74965j363775J294344K256758J226837n26905l95008j424138J50649o21868j029153R05797R79159
64104E94131K16662n10181Q82489k15671j849665m22656L55168L82814k79693j2767J690770R77374r28556r68325
64090h8106n44745l13609j12921R1093Q07735M70337j543323J05870j08791m27834K2846q60230O31641K87243
64076a582794j034171J393804J42697R64430K298583k86990j688376p97839L44587J025042Q8708p19784k068218
64063a920321r63988K823784R86212q18028k86833J149630k42483m73436j00563Q31465J5208j277268k146759m40899
64049b864279R3133p69511m03475R62629M89342K173977J279386o97251K05296j55924j97715J569101Q08184l36274
64035B156619K03347j77733J242155O70300n69265p38567r15813j373424j679128l22989n14902J648373R73282
64022F02255j763349j320713O48298J246024M15407N62889l45567J090828J233316j85840k71421j064397p1297
64009G76433R98146m30256j384479m25953k4277k03081p19009K39230J665453q90303r83448J007617J353501n61345
63995D18229l82042M20781L89646L022p19203R22180l03474o43210q96193Q347K98222J724507R67496M39259k46323
63980B401244k25871p10842j001196j600442j742704P71467O19244k72457J72458O83179j336360j358792k56556
63967c857628K226528J368211J47927k55793p22362l59512J795173J586270n68628o4941R83178j97217N74718o84050
63953A971874k96438l74508j289687L80097N98495q948l53467p23872j10751K20668J102254L37711K66551j45121
63939A574858n71532j617678j526515j443895K17251R13826K86713J681337J167819j977871j211036P21676J566212
63926b18835L41280k60223P09732j59761o35551J400113M7756j318284n57664k86852Q5808N91244J711226m48877
63912A001112j336715j978270j354990J45436q86875R97521K736669J111865k82577l12545R70552J021458l07988
63899A524653j974842k501171K98564R05322J003527N13108P41296Q66970j190072j186668K82306p48010k72291
63886a737308J824016L94862m29108o8567J03813o39674j459630L44462J526922m23058N3372r5800L65637J626569
63872A386508O80969r14102k61776o72362J4077N78912o17446r76992j841686n649J116508N77834n29826J302984
63858a62047O22232j334341m79552L78296O28597K00977j24798P76691n99339l69469J098845J05032r50301j263443
63844a472620o93498O11710J888959J269938m30133L22004J70444j245307k036989L22519M95966q0477j503093
63831b380577l88232j7987k21380J946055J706522k03252q31965P66570J08140l14633K416Q85880P9286l85024
63817G51819N01014j078584m11738Q61693l4543N51586M91363j690704q7811n57953j25149N88646m99326k51073
63803i90760O0910P21563Q10856j014746k26414R95785p76516L06273K58207j035482N74903r52463q15643P08531
63789a374996J320611L12418j66510n54402L2284J121373J026103j012854p24226j77495k7527j526654K02330
63776a549545J963145N10976Q34662l60553j269156k88812J942093Q60652j165659J437514k48781k286613m25937
63763d6014r69654j397099q95065m8510R35706K93800P28965J185847Q98302k99461q0054M07438j11126M29037
63749A032112M56315q59954j28750j308783j027941R19914o61299J355606J820736q81496j353682o55298q83977
63736b176497K01676J277716K149232M8678j103969p79545r68536J52540J764245l2961m34363k64700o13106q66552
63722a646142l17094k48824L7788K31087r6100M53539Q87284K67382n78184K44612R98841n49759J54726j265103
63708a425947o44185L69781J84244N20057j142796p65393J14532P07039J65847k24610o57331k02498J620170R85850
63694c95240j4643J783285J29516k347151k390025O31775K081017L02952o12972P4761p38979k6277J814207L56244
63680F48470k97975J48429R24911o11023K9905K04996K70594q3946n88428j272934p81560J4329J015064l38585N4540
63665f63213N66475r76164R21642J701757k52146J8424J5442q19230j055719n27582L61415K11598j347389k77903
63651b122593j231307O29984R41738n98120m11933Q16337J90387O26883o15525n53176j38858K49102m32496j314716
63637c964293j07085J531074K323528R41011P46901J51180r72520k03576j28121r30675R2466J853310q55408r74554
63623d96762P32940m92838k63067j228279j442057M78170J633158K197894K358988J209207j083722m70339M7858
63610C181151n54991Q47260n41411o54166m41059j782489q08861J15636q03675m48811J088935N32335J464104j48585
63596A045373k31961O12673j15422O00022l04544o13668l29422j127496M77728J742899N35808r22614N85831R26058
63582B881265j124748j047210p94411N96201J283326N61778q52773r79171P61681m29328o63305R61461J43016
63569A297782j380168k2899p2559J252972L46455j754699j447097O64120J601332m45546n93161j272128K71147
63556a554449J564502k64406n6257j022427J58468J661922P64564J075221J31315o56910n65113p25705r83768L42142
63542a30901L4115l30860o44095r7192P77389J674818K75498l99816O3098Q31147J23788q70257j674890q21992
63528a190150K60050J419524j13452j129059K54338J359418M94198J06078K99245o9719m37182K38356j220881M82379
63514G53143R96112j083163k12770k90368j80656M63502J280720J71263j757060j742746M35237P91622Q65941
63501D90777J286287J358492K40152j814624k093271o79120q29402n78949Q21701Q14290K55124K94014J166045
63488G31516J382155k11008j310296J629493L71760j238227K71691n4746k039763j361140J348105O17088M33479
63475E70107K91107r83467J097136R16655j986925m72448O62114l96475N54932N38216k579106j562124q13463J75522
63461c988219J537471l36433m77739n9787P83998J225263J036777j049036r68265P51552J85396k32088J81472O29503
63447g80135M83053R60758Q27135l66096k61852P4100q91472n63409j00063N66670k02172K7439N62964K46562
63433E83482j355948P0267M98231j702524r62252j167968J101252J152465R70003L48572k19531Q9611n03587J026970
63419g0957J402436Q32554l2794k897588k420274j051890J189074J297405J722564J144349k26854m61088J278054
63406A704991q60074j925085k72503p91366Q8916n9712R76172k52526O34685Q36310k19042j916091j161638J930675
63392a286288K342290q25805N49216R64648n68022j105299j162691j708477O12165O90243l83823P20738l69655
63379a530760R79745J244594q1538j679850j74132K144872K57173p7058j84804j913093o33160J042064J27991
63366d77956j180878J546297L3715j091129j399271P29568R82897R27883r4375j240706K92335j550819m75854P78112
63352b220181k5667O31733J667964m67940O89836P25572J21988m16564J100496o45582j07036p13725j329117l60600
63338a348823r93274j227781J10031J532008J008280J030149P76406j187r7594Q3263o67793J00793J87757N57947
63324A050182k56188j060667m45623K61985Q58639P9342q73206Q89302O48920j063538Q57345p36400l67602L82080
63310B24571M05255j072798j265070j818354P84537K414451J368842Q04834J54613K61917q679l27184j067778P2697
63296I31854o19988j222080R04192r11304j018344J320199J144062l17806n4457R2916p05920m979R43452Q99080
63282A380877O93646j45006L09145L56360j810322J202468P62695j430205k34522p16065L976m75419k82712M68662
63268H3578J75799Q66935q1589o54445K82234l11492j165211k13158J244377J49526p28360r59494o74160n4832
63254b040292j441009L76258J826720K73628j53271j513275j71072J664801N39944J647291N07490r23329j379481
63241g85597j472246K33025K109447J088823k66432L09701N63194j58923l47980J155281Q29097k506158j228902
63228d77670l76668j118006j22033O87855J656296j306621k46486K224749m34277j044542n13579J529467P23564
63215A182049j162664M17553J341050j01127l59602o14503N05402o76552k36906l33822J548852R63340j96913r78852
63201A297305J29060R5750j265051K4845N34873m93803K7208L46500j102766l52596L23129j766956Q77775J533010
63187B08283j259976j18017N75706Q81923n50544Q97150N43270r28976m8588J689062J473976j855406j828543l65762
63173f86442Q27596K35036N88046j193781r69771j30592n9004O48408J132802R93740n7053n16267n00451q66670
63159e54403k26104r60073P54552K63347k49174N35499J043190J86939n37426n38708M53230K88060K46075M91791
63145A196795r0735j285334j035386Q36632M33424M65406L66356m68190j043722O01294k56275p57271J515161O84367
63131A162522k359727j223549p31449K22627J912512K133831J014689j29468p27248N71168O35118l60438R56831
63118C077419R30776j54834m88743n63964j805608q35352l14553j626512j510062J016205J756305K186215Q47216
63105B514508Q94527J653940r42069m75592l02814l569050k632038L12347K415692O39455j958092r23582J098994
63092a273774J513631J104986k290072k389992P35499Q85916j477474J669399K396150q80915k018095j117004R07922
63079b233823N53923L14789N59541l70812J667020O59651j985282J22346J054053P8465l28406P2630j245202L1749
63065a049358J346479J102354m46909j085353o60414P18740l48989m09283O40039j009040o81662O82992M92812
63052g07592J425161n69678r66270J360988M18647K37924p06497j036014K10517N51880M42873Q426j672431n38547
63038a540613o57568j454531J743890K223891j3842j063749J87177K364140R65369k136862j75606j319597p50557
63025a628458K139929J109677N97215R75784k43985K56663j515005j011859K60763N38668n39581j169682K47966
63012A8095j165096Q54194M47202m01596K63057k81966j411988m2183K97748J514511J026632J99551L497q35025
62998D86633j062719j50150J054312J078915L71653L23672k36588p43506L63104K33991M30907k7742q71645j349227
62984i8390M35322J514323N18333n12561r01651p01422m31044O44132N72185j276847m51298J80763l61731Q89383
62970A9497N62390q56366M67122K098316O76955j818146j621576J751653R84882k25708p74790l16002k26064j551849
62956h29686R16295N44609r88630q28091J03378J586198L253591j760552k216857J337600N24874o75980m16157
62943E50592q70067m98236o75292k97003R32622J385745L91964m40438k3996J555633l95971J340587K97600k091801
62929A161939j835776q31186J306906J387091J40760j15664j546035j196147m56364M07293P48067p6503J339599
62916D33980J385051K2171n06459j201131j735138K934176K027922M78501r03432k832216j275264j331479M52112
62903b051206J758482P59450k9119L48131P58676j516433l42518J326075J256772K67003j347938k168615l86711
62890a367951m87055l08010J354113Q54054J383572M06725K72190q61023j257026o11425R49350J138725J622766
62877C089005k19548j487279q57475M37297M76412q39693j402194m37406j51644J298044O94637J217536K80657
62864B098349m06337o24074j545801J115792J319935j451969k09128J036918J245918Q7292k10538q87166j002790
62851E66401j588086q03176m49663k81126M41144m32939r1831R87278m30963r25274O39478J358441J538406j213824
62837f85734j342273J684609J877046L03175q39020j212176q32335N9748k153030o89155Q31364J147345J412906
62824d37530Q8162n78694j878993J40105J91967O8345K434597L99183j741773P41134J144874P05922j201875j621704
62810a546280p07642j185054o7009J299126Q57436l52523q17888n47074M9359J285572J678052Q08023n14532J448848
62796A688414M75054j047027k08928k57718q50990n96791J311409J007731J001441j70928O88408K62427q62819
62783B439683p86727j125198R67961J107302J037131n53534l174610j294623P87720j106842o32731J989662J291789
62770I46983O05616J248921K70885O6902j096713j538618k51607L57992Q48226L50334q3405K39813n23820j263544
62756A77965j913098K65044M53K58029J093022R01223p86062o80722J158804L98264j815096J18184J235734N2433
62742D64177Q23086O90946j062992O04329q25312O391p24808o78410N2583L3828Q62197P50153k77819p02960O30445
62727F45834j269564n27500n04677n96842J852570M1990q24752R98980J289337Q54811j316391q12888J271219L43519
62713A445646k45114Q16376r833n32591p21910j43168J043228R05995j154482J60522J93489o63402j892182M8350
62699g49076O12228J339653k31339n28139q2826o07131J031393J381989j70537j893152r00647m23015Q70765J105326
62685G55492j010837r29154N40961m33909N60826K40406n78323k21022n61868O23848K85288L33014L10063J731691
62671A646476P05011P39231j039639r84231q10578j557473J770296j65468n66935j001874j2311o35463P33390
62658a179568K025181m3406j002840j070647j29303J376285J298478r1312j272106o84386N82506J506248M46766
62645A761896n60208j271961j815099O74552K240931K15892k573533j04011Q33413q86789o75362N74560L66446
62632a219273J174700p82723j133199Q36215K07816l33627j820418m86960J044470P90036J863886p67340r64378
62619a590795n82984r9780q13767Q42561N68243j275007J184116J853593Q55728j219718J57629o45040M89648M59844
62605A84271O90151o64663J104018R1089l86374p88533k46892Q12793k60786j747429l41215p9866j06540J67259
62591a572717J632575j88200j854398o05398J596819J545924J005639P31566o29972L93557k31377j647341n79970
62578d03293Q16858j053351m51076J127607J126169P58899N37737q50751p49098J287397m5266q86550m23417M6233
62564H38098K55885j219994L72471L23947o87546j135177j045194M3568j49684O63595j598513m46078K247222
62551a537400J448028n16541j332297J359821M97944P26362L07873Q91148j24221j104851p61847n20244k184647
62538b850872L59740J162458L89650k38711J62475J605989J2561o11230q57734Q30005N05946k07044L6844N06733
62524H06810l53698J155834j090193k293062J622788n22276N70015J723573r24248n68734R7542l20626j058017
62511a154292K19164J803036N55527o79171J046380J20923P59032Q53435K99224r09995j368496k029388j423461
62498a908082Q0475J235561L55131J16707l14084N2649j199927m42929J78307q88700M57762R02277Q95001J51133
62484c28719O33218P51919J471668r42570j049487j58156J51695j276569L9087K26024j077068P50248p83273n84751
62470b176734K52628N93474j74356J044989J305943Q9576N07966j67144r403K75570J040953o40171l32301J35269
62456A746259N67116j51827q4503o08146j540486j216357K6387K13263N61280J93421l37102r74770p48575n53276
62442b907316O13834Q50682N13706P50342j01677j2627j540444o95118J962072j60105j504414m49100m45629R38721
62428b187073J137498Q63066k03215N60549K296734J527709J18094j466452k733937p40676K051685J006130p71535
62415A458577j958989p12588P95734L39425k004833J58607J773373L65885j377312L06077q11141m705Q1921J268252
62401c21717J167093o04369R62822L54028q4703M08101k55214j009446j260907L59571p85419m74675O30574o81428
62387a595689K311935Q22112M07171K69878k103459L12174J471733q4013j540776r85763M79690p69920M5948K72037
62373f86942R708J17847O07705o51638l54629l93594l60224J921424r2883j756915q09844l43091J594365M63371L246
62358g32094N69784L08934J64035k52487Q39648M67344R8381O3031Q98549p14138N16335J019262p68301p24603
62344A753680Q87611j134737k478539N59803K146920P68071j205344j209706j223099J84357M73886J148911m28592
62331B43222p19759J612993K115384p96962j971166J36116n95200P00682O20930j508696p24522N73911M69136o0665
62317I5404m04475m21749M82811j004960L62540J019417J6937J91542J114516n88513l56444j717579J29820m87281
62303a568014K42249Q27454M00705j098127q14910o094L53523O72310k42178M79463N31454J165248M37605j486247
62289a05559j028507O23403O50476R57990J716320L55058k87058o04318j585958M1364R39712j981803o70214l00899
62275a279993o12582K433231j69020j423373J431703L59666m24934j356166n50736m96062r4998K026764Q20943
62262F64443Q87532m32177j045906j861644n19163R51959L03454j015792K43774J621413J033595j945124N56196
62249e57440K89691L82144j137175k65810J158396l7182L74353k15647k35663q40912O56379J359630J685984N26999
62235C143747J155212P11146p88664j091420p02444M34945P27926j714783k168176Q06565K05970j29997l19602
62222B70425J052663J551330j95137m09294r90289j066742j264084k122012M54489J493129K531961N90455k068189
62209a71295M74415R09997J103228m02527K83523p71417k40843P42196J69038k430042k246435J876358J034973
62196C31169m39409o16592L4927p08231q09135J624844K041567M33896k352842j780289q62267q3215J227681J083005
62182h74891L57497k17216j702695q51229J539448j09570K41604L11858q32635j34244L71349r1768O84541J144964
62168a62987j47176j334219n1209P58909Q61579m91894N81329J651987j031203p81657k21726p24707N08637M11804
62154a72533j154027J000535q34891q57334J169781J00048m16621J26262Q65884L45798M42422J37687r33332p15202
62140h95523J392842J362364j814092j19501M6917j348002N65971j168989j038911N89993q32284j831905J831115
62127c260005K423418K115511K15419k52938j344998q57713l39755l39577q96125K166657J785897k15154M17322
62114A617959j074554k238513j088611N74973J501186J953301R72592J609808j028555j413501j20095o09411l86589
62101B69990K532262M39277n76982j851669k008020Q24768J667028J141444o46165n14242p6148N72558L7305k96820
62087A514586N74429R20922M73036j698525j415132j059030m42509J193938m26198j713580r9428O01226P19878M4895
62073h11492J881072J683538l90058p28403j280412n79987m18279N63505j45274n0282q50800O3354J295275k46587
62059a4830q01001j477425k100528O59190P44962R47324j068160o45174R93893K001766P57958j386460n77263K63471
62045a702277Q56969r2137J002348p35034j087176n65938K46897Q17502K01491L83856J098279J406877J290238
62032C121895N25360j235581j300550n73704L29943m31485n55043J700924K1602j300374j823667N13440J79994
62019h27246q88907J272345J530004j708606j312918J417795j41771Q30454m22519N39667j26857K59176J71579
62006E92196o81478j21397j82655O06488j144053k48181J110174J045843K32492k029465J427125J429383j123417
61993I13055p31115K239032Q63562N82730O99943l62458J53696n81808j597419j776461j195974j6307J82721L16770
61979c10033k73789Q24877Q79358Q72506o59013q04228k40732r46632q44917m61717R29237P31527K88585L5088
61965B0117l01119k20121J556132J69693n20069j653436l57445J481181l02779n61117J269585O88235k78062k84365
61951G06430L04172J325233j624457j956222M00610J07181K10081J191920R2826M04955K86490j650827L58337q4053
61937G2676j257184J31195J021602M79378r5126j377465q98107n5666P56996J304243k959148j541119K294586L97354
61923a725785K016304R07137l74551J82207j111332j238310q25359K59893n18530j37401P84711N78427j89641q32776
61909b225006J988387M79705q28706N60181M01985p26886j575491N7431Q4005P70768J305390p8612p69274L71426
61895a84697j372491j16668J136216q09248q4766M19380K29240J218321M62567j230016j064380p6146J235266K64154
61881B6732L28418k61176J08543o39745j161267k50576J001167j4844J411118J689110J056830o30270j221325o89462
61867G53253k35414o67674j12512r68193j44840K01710j475456M24082J353679R96976O32280l84227J48539q27000
61853c04797j002660o1235M42422N06084N88979J9356K200890k59220l007253j321614J285655Q99020J734361N15260
61839B235248P28869N74154j805325j457694m76271j178251M9994L61964l2073J096769K92799J219453N95982
61826B205618j598852o43281N13538k54790M63024Q94036L46108j651533j062962R2807M7040P30190j9370O00626
61812F62199N74086Q9180r15251p21769p72569m76453O78739R91949m71788Q16736n70807p08796K71281J26624
61798d26639K70071J96747J6289m95274j337712q78848P1516J245108L54842J680415N41551o09357Q97633j80501
61784A345841k241181j480593L20464k67401J924492O93863K61643M41903J195920p98912j099032k019195r1817
61771a814005L932295J214801l35713L389j216715k360387j029134j45295m88628P59625R09809Q13814K03880J00664
61757E48400M71143J75973j338695j527825J380588K259841L06892j261603j644561J60778J459094K64787K8419
61744A283231P0243L34453N5591L41627L92883j668696l16352L68831J90099p16066j419774K49147J394142J99425
61730G58784J628150K1687m85580j706563j85706J90271j675606j001329J556313J217598J545938N47248J006752
61717C417957o67184q98542j027157L0484J278985p23050o59457n93123k126131k092649Q44441K547891n4788j43347
61703h65670q06J01317M3001l45357J957097J694648k65024k311766K50936J455699j008477j004462n84405j02560
61689i85829m40341N49333R94404j472461m97209O05057J172431p00672l89130P02712m61846K85647o81598r04194
61675b223696q4144O08547R01382L209M52822M52740j321123L39047Q24452j539245N9435M73534n83594O29232
61661a007402J98762J456110J046661L18502j01477k83076j184605l84927O28560K981163Q58291N87737P547456
61648A2661755R103091m351443o851582m680892l455791k116421L21565R81284j645862k911491J308608K474460
61636H37281P00872j78311N04813j136621j414185J440313q81095j159375j158787n83524K072672P08388J269736
61623A022177l82016N22860K09307r25445j19961K01182n4017j392097p38413o51794J483181J389712J276044o90742
61609A149978j976031j003049K61952J76647N03082J18718M86303P64500O74994m95626j91432O01100P41986j000464
61595H12658j153249j541651j77476j70457M85102J49231J084480P81444J42795J098874p18873j198390j28552
61582e34064j729049j424146J774706J302052O77636k35457O33088L60351J35909J18936J300452o37127n47382
61569A195905J445155P17854J64230o73257o91354j041065l26973O42455m39754j335352q70091l39688j58213m01153
61555b111301J254705Q11020j045766j579422J303040M3898l84586R8793L16429O81642L96991L69390k18267j357937
61541a421371N9123J934766J57815r75924p79125r5714K383937N30387l86001o97543J76406j396347O40388J080474
61527A211271n93060o24375m3357Q19366J165116N39416L98860p63348p44644j041044R90662j444359M04257K356658
61513B631419J332304n93745j560195j238254m25788p57638J299367J134096l627030r52882K710622J348642j206456
61500I4462j096854J34237N09853R58714K085125l1662r59733n88928l06888n60384j142806N95081J428657p33743
61486C85131q62042J312469K15954o78363m87587r23880l15364P1297K315254K131954j784297j403258J57535N38598
61472F73401N25280p3228q90863r66089N48860N38221R67300O1259M16990R26195j91292j498274l21556J19200
61458H35404O71325K81554j421772p71896k5372q52084N18975L62059K62983O33721r87497K20930M56776J60489
61444C45595l71941J294987J318848j186261j628877o29218J16579O09293p96977o51586m59912J596667o45196
61431a087999k102021J506257L507236O24065j144469j438740q53107n8059J479878O70638p36756j82300r87268
61418h02645q14336L38145J592989j43201P48218M5475l20645n63826j796689j76654J400776J868294K76515K27780
61404A880196K17716m18124k286346j433996J25153M21733R36661J76333l25581K41540J13904o07605J23809Q89384
61390E4777Q1215r59826j384779L54707o18939m2292K148980K508624q27622L9969J96932j036630p3424j268713
61376h27021m06959O65588J647950k59090q8930N58531K06859p58579j004923O08802k08122p60078p16686o21150
61362a963808N07156N17631l44786o49590N8502J419807O90368R35574J462711k455394l145327j02380J454109
61349a615427O38737p55045j326857j585794N13708o75688n1057K185154P09199m85120q0238N2059p86899J135396
61335b127872K280101J818324j025332k691072j09419M71642J84409j124353J80343K135611R43266m59183k264739
61322a788274J57875j84856J698414Q15668Q98843P83035P8394j034452j291354K8430N13577p23137r86233P50139
61308b83931Q65708O7103k17721P6337n9662R00669R2558o12922k48829r58926r63388J397249k96007l0726j362862
61293a635350m9366J423667n47178j010378o68969J402329N47737L41244n62629o40099O17547P38546l90081j301931
61279a734911R60678K558702k023165j800459Q3892J102886J371142L04177j095207O4589K60602P10774j37454
61266F26246j040669j137522J897051P55891m06738J2818j089368M40169K97058r77263K57525L94782k58234M54594
61252B26340J231311j52868j249311j427622o79529R60253J527351L5299j37461R06949k06816j331685k394161
61239b691950q22186K46254Q91737k24549K66897M24925N490J364056P52092o31113m38339J88235J826349Q73044
61225B030942j030286N4447j428204j000157J047120J439396j91969j749257j712834q92268O63558N6425J15385
61212b597702J128769Q11219L00702J259241N29947j191521J650625O98898j647541j882466j067210O40129J453259
61199H6349L35016m98295j85030J035864o51109r31875j8902k47593o43874M36650L82465L42821M88009Q00532
61185G31028p75906k51261Q70575k90621O39119Q76050m31258p55590m20410M65268J485675l03621j505273k39282
61171I4493J3671L01122Q74433L7257j403592k89880N83984n97147M91216p78032j681882j16847J17675P81394L5276
61156a536859n33693J969529l44357j058084J09630n62284k69740N25430P13235J07919J417950J09653O18568q32928
61142D33969K77249p027k94646L29178o90216j80126O38216j098618q67675O90953n77993q3453R16047K93401
61128b20741j222824l25589L44878J626444Q21027j82313P72868K48106j726048j632857K10867J846473Q83248
61115A443539N68555K93774l44356j115520j069262M20694O93527j162595J447017J261881p15595k61369Q76399
61102B336689j76935o63577k366086n01295R6911N73628n90284j087438J860020O32405r24115j51966N71967j179709
61088a569785k102532j62547J866904J417196J330585m64863q3044n87249o50455J084813o62631r13598J277965
61075b19241J150766k456567k250246Q80131K747779j28472j30390O13588q52165M27460l38383k46678n13557O52021
61061f63954k0336o67533r5685Q1245J083586J045542j333770j662989l21790J278188J772386K75765K11854r06295
61047G6214J47008K36154j09850l83123M12791R89705j168530j59104L93111P58134o75323j610607J671346Q1674
61033F59600p32706R44135P38720l85771m73467j337390Q43452j55104o15663J072714n89934L25670k72456R1279
61019A13079R5925J64087P33952J038630k96358q52279k48427Q13120n61172k83287J320962j94842k72363J031397
61005B602424j976242q02614J121542J37313m0415O49897l49986O47112N47995j514021j776079j468936o93638
60992b915648j328092R01562R32458J67615j116828J190654J140758K34702Q17103r89943n43570p31269J600069
60979f40429Q49092Q44131K49875r14365m39788j141398j086668o78372J694740P29900j0954J655634M13960o19495
60965I05863J96567j626480q83773J399029l07833j687339N39539M73837K00127N95012r87696o56067J282579J64513
60951c92122M29241L49976J27811j45322l73619o96999M50992M35377j717889O61207M50373m83378J242776M85015
60937H23439j25704J427912J475663k410916k437560j117654q3444J7755J839035J196479L19503k630j075224o85409
60923h38755n85035J070849M52481o62457Q05784O4154k49462j286028j74552L40937N24003l56923j621167M08344
60909b107827K375830J67522m55950L13838k3500j528507J615616K452030j24181M13686j740536j863446m44888
60896i50313J28901j38915n39397J902511J60739q95013n84786m29037L33488L35799J004044O96745k01294o12026
60882B11446m37882J73328K54160j83392P0728o54679N29690J055640p70983j600074J11668P36865P93477l39231
60868d9239M70525n89378K32888J082944j412455J00048O65881j73585K48380O65110k16650J98137J58422O64303
60854B045331O39310j183334j062029N23172J438007p07509j064012Q04660l58794j278299Q84093N47505p8850
60841A149251l86682L44495J263617m47531r62636p95177l1023K4570L96611N03575L84543L20665k77787l52780
60827A133711m49190j084312k46394m12548R49779J415262q42211p70507k75472j030715j379722P84903P55943
60814a451473j41707o84459q63689L23569K60942M15043j74313l20200O19526L75233M23372K19106J006323o32066
60800f24793j722243R87043J351524k66997K54609j070148j876553K94315J695436K15578J32002j50849J218998
60787D37922o75264l21636J06357O1995M86397n99248o9774q20389J232720J126727p85352K21682n21908R45665
60773H25894J97187j746588K20035J375707L56502q70124M57509K215841N09346k053927j328608m54148j498717
60760a794091o44823J236079L85649j99956N65541P43371P80355m52038l83343l28446m73817P22101N53161Q5865
60746G95608l55556M71205K261948N28420k31335l97050r94324n51587j393901j77755R57500p84236j329877j106349
60732b307289k13018j089130n20505J105184J555472J158127p37972J85530m23302m63410J334755J236768R96176
60719A817386j7554j151866m98263k39075j343096l51316J795632J735231J58346p07011O67311J711340j105232
60706B471833j064953r35719j752887K69537J702044O28214J299031n60818k093982j724333M86616R12570P84350
60693D21503o12474l9328N26754j05169P43179J572726O79528N22463n99644j277175m48252j519887o56938L6865
60679g55849O4671Q29743O30367q18041o15525j855893J155932J480897r26903k059903J094080O08462j093733
60666b261695p34115o87395n96371j03621Q39229J802699O10730m6098k82528m86798O08619O74008j792611o07076
60652c063023k69326J658610K450588n78388q36487O83937M34705m20891L62306r31634j762208m61665l53411O32445
60638b454442L87667L74562J071030M20008J057337J070263J7272n64230j046377L67174Q61878R18644l38879
60625B141907j949377n39610j89337O72459K31424J217184J232202o50579j464900j514843P0589J668548N58673
60612A484340p36472q75993j231700J74849R75898P21890j141939j315663k97917L41794J181337k7814k63336
60599a010726K109173J200909k21166K15476p40938j201860k69921M72518K56842P20038p61073p85555m61784
60586d78067j133183m21000l75276j195782L46155M61249P44493J690353o31996j27072O94534m86529R50023Q50026
60572H87928l29429q51466j751559p78951K376978J305968j373306j323266K83246J441172R95564j025878m9258
60559a92257j9775K46436p03600j46372J959373j44157j213596l88880Q53987n00146J49172o14180l52018l90017
60545a456030P57767J517614j552054r53843J06320l12296p99108j1662Q76164J237710N03975j075925N60487
60532f00881J604660l01234O6485m62844k57127Q78285k13797Q08382q14754l68618J201112k29432r4477p86710
60518D29050Q81989l5631p06710o03369p23628k99249m79395n18764J654804J469391j198310j674626K2110L60475
60504a421863k4753j81286J126697J314939l64455N22026n642N79895j19316n17696O05962K45478m56028J57243
60490A461201Q03294P71875J370287r05269j310423m54436p63000P26877M99763n03450J84949J554657J000995
60477D437320L81084j443210j136081j54060K7847N65206j360681L54699N76723p42841q61869O13285J47623p57856
60463F47189K31695l12645o37924m32736l09699J348281O49315Q21928m78372n70998o31804k025515k493840j17363
60449d312488M25115O16255K125953J403084N44087J287412o02044p84989P33219J419589j792564j816084o10207
60436a363662j209088K832843K0663p19453M66129K45369o23095q83921l62997k13634Q73935n49286m87229N30367
60422a443059K87131K387232J808955r39387k70066q5356K39251o64447j96631p57449r57742R47888P96904M77325
60408A630549M36542J62236m46467j316435m05161l68743M0379R55616O39616l7142k40696n8287j952156o16715R88
60393a575876p84064m91853J253647J841217N8019L8685N86111m75419k03355L03057R76788n29177Q89085J187
60379A888052o79728r01735j70116J041650l48111R39017k09314k090760p58302o65234q58247P01238J266418Q68230
60365B3058m68460M55365P33349j357839k40230Q4185j15483K89595j51216M73745j151529r68752K22251K51386
60351a920575P50683N10181J116005M09863j74309l14800Q32364q87687o41448N18157K76353k84362P38019R08501
60337A836945O32642q94942j59476Q11740P32920j284121r18075j233485J6306J740105p84785j321817j173904
60324a999947k87876J296843K98347r66229K56184J402918P60962L0406J216500o07720j794236K11928J28351l20350
60310c73919M01176J672820J901076J004132j084750q72351j306182p36134r26307l09014J179890Q73014n10874
60297I12577n44717j094597l27726O71502P25999l48409J384149M29572j490175m33222o81723J567170m17010p88145
60283d34755l14138J80558J95864R8367K88790q2340l55754M37227P67409L20296p1267k2598o48784j204055N85925
60268b59255O67434q36723J049910O02129M44611j009167o44096j64150J043078n53562j354437j335546q84950
60255c234724J536197Q13962K070748q95079j510794K60193J509345R95531m75388p13561l03207J468773Q87980
60242B409976q1596j243865j197330P57487N142Q8980m07029l80875O32062J458609n96260j04206R7931k05552p544
60227A225930k039659p0311J620534l08069l83438P20748o14060o63761j300441j173647J224341J800143l33416
60214b95106j18699K93905R99416j273081o25544P87767K80856K50612m29815R7315P16250j637030j059356J07157
60200a905353K033536N86742J2635P41882N9730j350401j353444l78166J151582L61790r83987o3830M5299Q1361
60186i60624J009947J912039R09571M81099q97330q4408l38764l038104j066394R20114R03096J955640Q86415r30213
60172A662084j240125J78472n7984l0413L53624Q70942n77333o41571j772883q21240J189765J236856J046725k93607
60158A103312M36777m38215k46480P14140n65206j149699l23634R44961J4921r48041p28412O9972j160695k67143
60144b543442J99170M41320Q53026J454665J019645l09922l478237P04577J089174n1090k24883j37916l67743l84137
60130a735793M64662R55918K067165k90236K6473R48717j038259j125079j768950p52394R05736K04822L6080Q17190
60116b83948J343596J53605p51668K79390J09750r15671k3194M03901j233699k56301l2899O87207J000482J74297
60102F54848l72393j558070o73377j306208J943044J574168k164458k56909J340315J354978n18084j394991K15474
60089a161663R4036R17992J482046R71163o05652o29949j552059j535429P74491J74984n40089K17909n62828r46595
60075b901643J175699K039606L96343k96028j256935n54086J950988J322843l16132n06057Q97585R46763j122955
60062A775991q53444n12016K04526J880279M4605j815804j269230P29896O73331r95296r15603j362024l42907k68075
60048c025771L91177J646327R00552L47623J783297l40508n31009l31305q36075r01297J375472K12490L7844O83146
60034A411963o9149m73654j925381p86151L41730J159846N21852k0496O76723J255315R02198K50832q32643j526675
60020H86310l1772k17052O85064p45188j297924L00454L40557M42322p5731n86573k99205J55554q35863m12337
60006a691384l28459O66197R53200J845563J321r04013O1811p42428J36857n0629l2454l47403O44652m18741P11211
59991E05301K6865o33119M06114Q28018K57036N94984l93688p68906m21133P85358J10031n65042J110345J278055
59977C120219k71757P5228k438319j438234q6985r4622N30446L02296J633780J233277O86361l60338o01575M56029
59963B745806J918180R44234j537261q48723J44022m29597o57890m36810k32014j104919M85347K99732o82133P1875
59949F79849m26618J197401J215918m11844k61577M05323O1530j415314k046641q02630M36709O56430J48970P3387
59935d89107M89339J59395o43457o57458N82050O02357j59400J60869j489446Q43803K496219J172676p48769j133406
59921A185665q04362l53899k502366j729886N32826K549390J799599Q3877l47851P9310Q27364p10704j511368M57943
59907d44462Q41843O49887M61003k104515J077749M33279J33519O28857K08714L11344J95478j271514o72279p41223
59893b92320j1986j339345q70215J164600K465464O89465O48446Q70442M00738K53095j77830r72296n52256j86848
59879B089154k136364j488134J530890K170861q5520j041821j91614l62949j214589P5514J7861R18497J007779
59866A289565J091401j340656m48077O95117M01739K78151o28222p13416q25256j88646R04071N21295R19420q79750
59852A076736p88487K37480n04098L43109P48330L13888l75926j023631q84444L1854J274679J107141P39964K45175
59838B541770k206782k62535M73830p95253n16655O34530k02851j547703o34904r11322K54543J782007J229867
59825a61458l95328j532481N28911j44136O4261J41137Q87707n77911K23929J231702M09792J099892l88405K89568
59811A677180R03319m58022j623955o90934O6943J201127P25166k79532Q18340L00415q97210l8198K30729m16092
59797A519276J32296j932529m13830L85236q91367n23967R27345J411927j495358j513087J994326K053274J88197
59784A841739k14944j34677R20049o91697q35990R373j061965n52292J99507k54351n0582J55671L2534O42917n22524
59769e17232L61399k2652l78543O50504J359643J990052M35548j133444m38187k171889n65261K9357R5612J060086
59755G54993O00659P27969L78383K15013m14689j081435j711593J76889J119618Q34065J5248K85411j977996j670515
59741a747980n75975L86591J231538N5540J661227R81732j524830l15242L12261J46062J256734P80958L1881j094763
59727A585734J55747P84057r88683j554484l15104O00361O3168J69122J303538p37239j121774J62681R38117J281581
59713B326822j49290m12736q02216r00251J231456K12245j186433j47871N56601N41728o07169j749826j353625
59700b440565P54358J037123m19600m44994q68594P42464J667364k48373q27081L08314K85760K41893Q24531O18223
59686A230823j272531j650247M02650O71908k94337p7892J735868O17133n72196L57512p56496j56563Q67311L96856
59672A499799q11199j266863L77101k8658p05311J306861R94990O75254j62082N9493J294920q50167k238516j605028
59658a459406m52849J72359J157298J388276j684707k30603J661931R12085j105289j699438j616420O67651J458562
59645h30550J442573j058379j555802Q11491J311331r73729n2564p89815N01838J821155N90322R21087m06391k32011
59631A500556o71745J94533J738306j70654j298869p33007k26626J561539m86510l92284k35995j340934m26191
59618i87881L66980J170860k44440K02233O6446M2761P22142j45771n44846l87185J035098P20077n41609j256708
59604B18157k1229K85551k88161j71566K53089n24141K69982q10987J1289l91728Q86432J443521Q09469Q9931j8725
59589B040884k3338p05520J298666J16467k995162j679715P01031O59698p00312j279812J4200R19713M93438K81539
59575h58223Q3767L96518q16405m49525L94520n27453N42830O18993P47668k27769r29384j243618M61014K353514
59561E46447m82965k137911j350500n63174J082592J967797J374034M34702P7202M44521j562227r47896K115367
59548I97989K500311j086248j230017j574429n18900j336118o03937J920814j63644l84231j39965j085741k4908
59535b729024J216428P13092J507104P31637j004611k149870r54139J77271N43966K0580O99152J007010Q20468
59522E99064P33402k354701k334893J693693J883438N53881j309461l59042l16413q73122J065445J010556k32267
59509b40420Q49601k19983j35786J35801j551277O59069p34853r79613K021981J586224j15885j575389k050261
59496b350791p23385P62626P17332R8296N71894L1891K65501m52891L10520m94651N61701P11772n34521K92397
59482b32309O64065j27383k45967r43940K80870K209369N98357p73249j509648r00635j169389J384183L221396
59469B455720J704240j044014j281991k48719l70615o78718j101531M59116l77938O03500J377327o86079j696180
59456h85882j904039N38438L057455K555642r68230k861352J133267J19885j539793p56088m58925q92507J072393
59443a789736J827477L02710K87263o15121k12278r0040K78179J789043J007355m19663k99888P63357J034938p53118
59429C110478k126072j783390j214621J135682J203243L03589o48930J077479R72552q54315j181165q79371J041659
59416A56818l34089M30548O21047l091j64383r44789q91396r31477L27208J27677K829432j09124j757150l75330
59402a018099Q54584J580633o30071M66138L47907J91948q0787r57530o19010o8427m60358J42723r2017j050377
59388a392743M12272J742813L42721j060510j596955J96681j96877r94323J71085N39467J003865P23794j055040
59375a163750L97439M92745l04014M67570Q987L48368M02304p80120q3073M54431J688392m89224L4784J834141
59361C308980p45329k266894j263694M62912j69076k032557m03714J712329N53578L16406O42469m14616L87290
59348H8084J105084N27460j51738j796981J56879N53697j361368K05200l74468Q87106J589979J76179K19956P36980
59334B562049M13766j407889n50167J216433J078687m52685p33667j337617K8896J365965r3414p39893J63346j53939
59320A359871L2068K196473j036079j002103J8430r83051q6789P07202N94678R99787n2281j410228Q62595L11539
59306B512112K69805q64571j474653m22799J082608J89113r35223j70056M35875O23241J56034j422595q49873l6657
59292i07639J12062K883111K327173r81279k048765j048945M18902k6099J30138l69888m83622o12929l84945l74761
59278a367486o6920Q2352M87712M38075j4117O97305J65666J27683M26140k16399Q25249L276K34109l13431n16434
59263I92780n18471j49060j26830n75157o65700K23015L51622P80739Q8616l86283o33474l95658J331893k92623
59249B5409l18770o29399k97935J38413M42922N67296J734236N7193j344389m63585K67217M191j43046M4809j41931
59234e7369O1345J157970j82715K37078q72844k124838l30847J215078J47613O40418m61002N97365J624407o37278
59220A014381j828356l26258N23760l48884Q29910K232548n94716P13291L81266O5132r3617o58671n62813j151820
59206A95153M14817J399814j3416J91035l04933q25650j39256M53491l39541p73097m1437J473429J394010q0251
59192C004168j271940k154393j255833J173446M40442K33161j228867j497863K399749K626585l20295k726263q90002
59179a467905l30106j511471r95088O47184J409014J679334J838457N21815l38463k198172j77857R17455p70546
59166g76349l51913p03578j42793m85308j309069L45188J839195J712903J157574J015368L71871J43660M10608
59153C227357k47439p76621j093979R41975K31771J584745P56199j254629r43700N40223N04749j643464j518748
59140C08439O5304P92418j36325M77534K315860K20768M3610Q19588j260504j546195l435o45106R77315m84108
59126A945163j87957M16950o95931k139261n99571J805015O75894J75572r18819o00077q0863n28148J588948l67382
59112D89533R0757r33860o30518J653457P90299j016213k197853M80056P97416k67671L5476j27353L10800M91771
59098c3903J15207N10389j168066r27617J628564r3003J227800O48742j089421j373927l55271r92616n44767J562684
59084h85205J210493j220228j263657L17056J54253K22877J873789R85465j436538j441452O49506l76457j100404
59071b310502L09718K97870k53846j255640M87430L73752N7843J234724L42736l83598l57874J574304m99527K54647
59057a27963P37416p90474P14039L52689p03335k087140L31680J324679J438196J217053l6886m93542J326002
59044C202414J512043k18145j127623q90635j83906N86161M46950N36832l81018N62114r65954j769394L19664
59031A629503J164719m66354j403028j082166O54924k275160l097645J224374Q61642M25366P65190J325978K70581
59018b076j021989M04644J63961M7956J401578J487165n05550J133102k99505r26723o02590j315981L77602k89174
59004E2420N2762O23326N25746m03410m17267j580376N52962Q05156n61121K02343J429222J113825N43010j222716
58990A715882j710448o77918J33485n25147p70910J15100J139805P03608L98801j176019j388389K313P05601J792181
58976D57945R99933j047747k406059J542381J366135j225091o17363o03338j585733L80629J836208J071483o90169
58963e20786J28848L89158K410916N5619j201425j010426o19110M67528j98343o71002n7827K29245q48871r42147
58949b388623k65672r97837j512912J198420K456064J207540M07744P82093J855668J234993j850326k338818O54846
58936D43180o38353p58134j71301j749597K0567J614345J858589J03614k93477J6295m7288j38400M82881J279402
58922B022323k010209k03317J115189m43357r63427m89673o6356n90001q95412J98258Q77292L73885R0349k09846
58908a194302K16940j48179o06378j387956P51448J693364J238163J679934l50159n09208P63987j70604k019464
58895d2414k481556Q83206R02491j653713n99095O94212r23483l13094M91620J065351J327065L54953j411384n23012
58881b228853N94872M3689J729411M10192k84792j158976N50323L37294n63738K29901J123609Q49413q36443j271477
58867d75575J09753J020238K59021j471473j089850K21236o65744j434566J99343Q00686J148569m56103p01747
58854b536212J046398J357194N13591j78780o08524r13165R6822L75879K61449K63641j373075p983J793292p47789
58840f57262m45043r07562m90576O69815Q27112K210298j63663P51543l81664k083588r30590N51306J463427J27179
58826E40732n86899K23795M7462m4238M56744o01448J763652o26244j918197L17003P23149j819385R2874J438185
58812G185r57878J94627N66389r19328P23825J828050j709338j114766K847711m02028m40283j247990p66135M85119
58798i04840N83764J281753n41468l69485N84122o19834l01149Q63004N89190J79858J78717j045323m16874J737069
58784A798504K39181m83437j280787j705351K10782J107359m53614p20549K3748O68719L47932J48713J663791J44682
58770A709673j457052j22187q5480k55000J351839K3950o29232o1247j131236L96494m38419o01912k07372m64533
58756a971714J774623J738842Q16288m80389j269904k91536J821899K31046q06947q53826r3835p7946P22860Q65683
58742B125144R09429m23799o66395M85967n382M33833j186836k132517k174896Q14782N88080p31993L20932J607809
58728c5842O51304j219698j347906K027525J229762N01777L49743j639468j82365O69058n61528j71128P74603J38560
58714A184397o57350j15719p58629K18845j11718k15419q74278r83419R50099j679912r61346J344013K602202
58701e8234K153475j190785j039309J817481K167165j304407j866931j810829k94965J351896n60635r69663l14217
58688a919958J979156L95820j88344J026484l78919j384732J146779J135650r83741k014402k73042J160553j77382
58675d76078l90689n44453r95902j26141J424659R11011N77301L91466R12859J808679O704l25540j646962k109680
58661e82766Q63254l82045j71774J813051M77965j040892K80229J057668q01004J174153k36925j204337p97411
58648D49166P13810N75187L57612j47251l08356r62586q44778M1987j745648j030274j42874L82937K48453R71045
58634a441570J678464k07247j988183r87277K677016N10633j434677R51086n3961J928J616034Q83135q05142j396637
58620C602q13163P85871L2493o98062j53731q58384J546117J731042l0852j71291l37260o87310p49806K00719J42876
58605e7139n51427p94125K67625o08431M36683K602383R40295r61512j645203j147313k45412R30383K272041J27435
58591A566283k40404N18216p72838k96435j03671j111464K29601J42867N03385p73496j33568j412435r62104R76901
58577a869162J875483n68989l28542p06047j9087K246028K114475J040871n38748j142358n77138J143749j259651
58564A410884j816775r47533j162494m30815M77823R09191N33593k63126j417152L11050R44393O3458j163265K93791
58550b256977J1161J802569J864046P35308r49987m3579R77630l66902N12506K48740n87080j615159P54901R9822
58536A186999j145280q52022j86241O05332N64185j262869r31101K19952J545871j33437P74373p92745q69144N27702
58522g48425L98970J073970o3533L79665r28660j458684j715611r0375K036331N00952o45345m85974p24813j271911
58508c743443J95442J442056J047369M82076L2812n72075M62377n46554n2049M53347L03362L71980P50417r69865
58494c42748n57200J063604N52314p80132K79936L93216L52286j502578O37920M53450l12787K49416o17229j474232
58480a604764R95359J54873l70703J98690Q1645R16326r89340j171516j390836J093227N51958r77646p04089J72713
58466c044103J019794N50191j500734m51833j03896J33503J818510J851378J063734M27951k09214J51355p24825
58453I81811j618223r69273l11021p725J639555J364808o11699j288141j00312J181641J357716k55437Q60957m35606
58439A789051j671473j217272k99661R12724J973966J8789j324714J307497R47762q48004j74215j118839n76345
58426b80734M62070M92679l68291J62892p44947k92017Q57345K29962r07219o60495P4759P0539j37685L35396O6423
58411f39323K4420J170735J743147j022418p50339p98298j646381m04473k19132r4998m50393R72720L87086J56862
58397a570785K396996J064473p61623m59758O72885k31982l71465r2307j753667J087813Q13334R81099p75148o8269
58383I31596N91802n81156P82939J145322L20365q64483q91874K60677L4367j738467j184088M03303P98436K40570
58369B49309j064385k89227K59533k34796O49026P64373L74187l86169k68067L01851L23366L99871k96963N16541
58355A298450k102960j308429j63919j430299j25963J930862K783429K012598j985837o95622J648422o7632k107899
58342c14799j563536N23335L84439Q05264J324408J95320R0262J82858j66325j170296l06886p5945l01198J90353
58328b02746M67583M11337l13231p11452R06401p15764l109411k10659K368232K042029J11956o36427J327447O71499
58314B406794K43120M8859o62270r36235r87736n7141J421479n93918j551235o06388J150074j045639m26041O78501
58300i17776J097992N88320K30011P71833J47355j734726J44575o99495Q51819N54287p08074R05501J52913P61134
58286B145669k35800m07360j940876J38296L78711K24629J04468O60593q64746j25719N3084n82777l1274p17203
58272a200305o31030K23710P68592J715770l90198j170702q68951k39957j055719J91411K147952J191300j60604
58259E21269o41382N82921k88783j481663j14213K758235L027489q78497j401965J21919k6033L4206o49594j489306
58245G4603j898754R19263R11255p9721Q60321K51047J23050j148685l32145k53733N52106Q71550j911121r60949
58231b021913J073696J032553J337702M28132k018912l5769J376658j211773k17231n45951K700256O36138p52858
58218A780728j872390o26865L61501P51511K76421K5223k92435j786P51054J18891O45252j210968q79981m40168
58204f14012m86775M57885O69887J234099K02021j506449n4038J02845M6409l0422j64824J94402K57916M41236
58190G50180m57376j050574R42145Q30566N20460K85182r54947j007056J167843p4227P39779J972577o93007J26356
58176C097901j083950n32407k79439j151112R7867j747331q38312K251407j354994p1045R55064j170245O3480
58163a763116J231353O763m73451l99287l82383J311524O36015O35931j175275k62341j95358Q46512m37676q96418
58149a317207K248402N64784o52630m57542K01667L07765O5534O39612J1282N99031p03588j298648m33351n53698
58135g78587r37029o61554m54561J601128k80946j929942O44288J500277o48392q68197K23718K295328J182088
58122H87619j971213m86000N26172P76088J127687J138539k90291j058862j438911j135833L42018R91467J210103
58109F18583n40685j392364p44150N33787O59321p21953j024507N35478P30449Q51343O68603m36038L0336m10651
58095f42448p04205J280984K173669K95781Q6702l30569n02778j038867P63864O42707L05614r81279r97907O41592
58081I92860J587487p6524j021705P522O41588j110137o26428n7972j873675R12331J051113O54412J329912m82735
58067A928049p12880r53108j579576K67755n7417j76664K92805J281361J975176l365J38459k87632j206314n00259
58053D06390n46621l02190J976074L62060o09625o80307r75135K033084K429656k25113j148621j276632k225888
58040g82868r72044J405651Q99916Q54225k13749p97597O98572J196581L36283j676273l61845R2292j093234R32690
58026E18600K96834p5932j006280j015065J684648J601414k19358p21654J066256l82908j580015j29674j691257
58013a654391J2094K0823Q89065n65305m74689q674k120709j374897O19174P99504O93979m25373j015371N87100
57999d017670J076767R64186K33089r98464j352539Q65100M70559k59714Q12597K126510L58403K90356O39824N16330
57985A725334j178689k131185l04322J96475J005964J370397R32384k257083j035540Q66162N35617o79391M76265
57972d77612L03150K71427J68481n34226m66303o94262n5565L4235Q12106J407355P14312P76894j926822J35765
57958D68935L27090K81503O89769j952838k319542n03041N22085O38164J822310R49726o77447l15617k79551K71760
57944g6694o8819m3819L05057k64412R24777p22676j40045Q39100J502060j007037J11796N01385L02533j258572
57930I04634j079142k38258N39710J964836K187444r52490l031297j33505R13828l12945K50707K34702j475929
57917b27705K07934R59158l22021J323437M1881p06385n99339J216139n63309l41424l89489N45545J321993j0065
57903B456350j061203j568992q94080j368129R07028L324403K065091j318908o42810M57461j089654l19945j63277
57890G83335J35894r36991j183731j91693K070983K81059O36106q34329j560761N63428K597623L37719r91418
57877A707224j072350j300526j211705o54888M09687p79325o44125J71303m31333M45613K43602O18728J387058
57864a111037l41917K28546O68844J083982O13393m13637j82447J078065n61647j046651j416131r27256Q6309k36222
57850b477806O18259J846105q2824k59567L77669j130967o20187O212j024728J911055J039128J33985J43547M1808
57836E21689P65984j033864m34807M07533J377459K34728K2429m41821n33021N46922k04326J19892J48173M45372
57822A942342J91126j576104m26907L29614k7332L61726m99087r36255J261964j46796K59133P05497k28047r93539
57808B17335r21403J460315N19392q02053p27927l71160J247017K261351R24153J53265k553492j904516J040047
57795E42324J99641N2595J001767M12040L59802P22844k227249j340183J81486J86232R31252n53239j334499J178926
57781C13739K149429R91505O70868m04891k6098O25181m68962n72130q81865j028317k078332j490174J00365K51357
57767a848325O24584M99475l14761P12635J039317j70420O4389L34329q5594j22540k8708r37583R16040j28846
57753E53992j029779k93251Q74673o3268r15368P61732P83096N38018p84806q00126l06001R99220J789287o60283
57739A447136r7098o72716m10424J081334K84842j206211m58666l87856n86244k94231O81144j06673Q63108R42928
57725A080373j064242N32456o0170M01114L90330k83095L62201j063512K30544P8350N42972L43537o5876J19340
57711A544322N66120N19026j662956j849103j133749j500437J285094J465337l21622o74973K589888P16661j301966
57698B41642l87788J240115O74838n86783j208911j680305p89110k09417N28245L11334R92463K596098k11532
57685A510889j345879p05458l97980p18321n86878O46939P43826J410221L2342k301059P1469J55463M009K41385
57671a239032J19235J90804l16136J114288J422669l32996R25870R04852o22663j112936j638694K199039Q24118
57658B438418n55731n33208r95258l72775m0182K89820Q23021k32891r80853j73241r37481Q92427N26930J088648
57644A237644P20444J023393j377617j537494j94212l06037N36013n93036J289221K016598K41123j028721J00386
57631B127705p4302j080742o63240n04281n17687R05343j224675j567253J252156J291402K21607J489400j646278
57618I155q76002N70394M70444m05095q4150j14734J89317k31541m92925M06736P70092M20338m70122n66021L42799
57603f1315k89363q3173k39478Q7508J41528K56104n8745P03033q43422j01432L9571j9394j835428o18127J763679
57588a158454l92716o6131P97715q39880L12465R03522j659319m41388J6618J539582K211865l09244p82385j993559
57574a861309m16696N80962L09719L53841L56464Q54512n52434k46808J169987O08729J321279L5461r71871O29556
57560B171392m90480j296289j037770J75006o0311J471985P02722j254152j031687J14808j26878m62978j159699
57547b284331O06810J266316J060184m70099M66996J86184m18364p59008O04382q07313J338634J755800m0815
57534B505376j773215j308492O76096Q92843k21516k093954o02540j203567k47805R50312O0173J81718R15068n85524
57520a855027Q95311J038806N38912j03697p84194j488460r01188L35593o52914P58955J052920Q70947N21195
57507B27159j113524j960870J47274J497075n85160N98343O11824n5635J92742P8013j576909j480950J513226
57494a907392J179806l7833J81245J233102K33396j199173L56520Q09214P97945n69015j64066l88006J71313n30390
57480A66666q25081J056567J034844j153088j371499J429489K21715p01404J67196O2467k74982q1680N68398j08186
57466A91422k2578r66946M67017P24972j069469j894057J042586O57471O35739k19673j091547m71586K21799P51863
57452a042987j04656N49595J805021J52123j181801J53252o21954j635139k15948J763551Q76727o42871q10388
57439i55475Q57944P27637j561536j122591j161642r10665J357970J957205M14375j46910l21323J122352K24087
57426D81428K7904M04261m77462j3552M57505r71456p70981J879455J19253K20160n18377n51089q84800j161030
57412a758781O61386P18001M33653j8245K94260J73059l02315k53116J71648M84986m8498N23882L85034k76074K6807
57397A215687P9942j827345n30246j71923K65729R60752J739412L16766j655332j918387j013804l63393l39382R0737
57383c150787Q94438k17705j435755j067222Q96216J976488P77569M89997N66696N71743m68170j088115m91498
57370a746105l59598J325382m16504j224202q65020l95494J026534P96509Q80452R54092K12628r32453o34799L572
57356a375006k5926n91418N7669K506494J847642k077349j670392N45362J281153k29174k558077K22902j27133
57343b193253J037938n99431J13913J516284O6099J780639K73161k217148o72668J435471J141467N22059P11230
57330B915761j837004j99160R77717o0178k32323j866549N07182J734655j688900j418244J56946j39479J054613
57317i4963p86391n74385R48745K001083q9924q79160M47276j9274j338123o17369j251676N5180J906774J985526
57303A693319J169089L68142j251737j060846J056918n54205j85826M49810j100376j91820Q16252K277980q91115
57290B595585n00306J208136r65769Q9351L58111j678334q67215P08218J768887m38100J303859j26502n30197k95748
57276B629976j305013N06251P59844L81386j950341k876223j918887L24877M42436R1686L039015J558920j043883
57263F40044r08763N18982P8831m40311n34442J03189J672099P07557O47207n88644m82557j115003p88199l00220
57249g90230j574589M37347J546473k81791l81358J083445J379125K69675J22406j550184j245464j521283q3234
57236b589662K35028J25053P69611M92361R37429J249599n2877O94618n50316r41195j067574j807484o29213J768314
57222a366308J608810K84830m92235K42181L6698M66435J230027N52435j292230j064708j729799j14417R50892
57209f87389K97812o03716N33677P65721O10799J151163o99553o24337j529265j334129J95701J277452K60660
57196c85404j061193r87199N74072L7180p25649o03740o86853Q93870J151655M5412P22946J282383j378962q61200
57182a982682R75889P36480m07401j037389J76949L40422N31500Q92506j458350j841294J073959J637826L47534
57169a4051k20399j30657r49348J281077O60542l7137j389178j101734J366517n08687m98624p91844L44793K56701
57155a732029N45959K71881N5179L82117O70614Q6413j00422K73958j017074o271M7861J02010R65449O53116m16530
57140G82231r45069j148104o44761p49703o61597J569446J192925j50053o8559O43426J940466m27523o97746m19383
57126B15996r315N90035p90755q59404J280033J101944n53912j200266k441271J122258J328141p50767O24379
57113c42904J823597r41954n35266R46910L92776J260975R4135j853866L86653J284204q62619L30930k36835k12241
57099A534495O13595q49106o98453q9033J944152P1705j118193R62295k37220j683653j604019R50264J545404N41821
57085A884054p66149j959441q17291j26951M80650J083237J731180Q79771n84227M81282o32677n63079j517787
57072d27428J011451J141056p02431l37428L67780J287231J70703j553782j307544J255256Q52244K34139r60904
57059A030343n02967Q97320l45580J06553l43281M15445k58770R05991n92669j229343k91979J446530R18471n90439
57045A565625M24562j963139j286165R10945N2453o32867M60202O70683M19536N4185j09878J10449j300984O06869
57031a7524J10721P23618K9655J14458o92586L24660N99034p6900j16767o96002m85028K1107L97542P96562p68523
57016B64027k71209n91114J337004O85170M9637j49163J09490N06579n88756M93637J25459j246745p66226q22879
57002h65089p33768K30186P59768P85502J149402j745235n95591J662492l54443l79738M71423N25059O95989M17132
56988B023089q09790o39384k77640j325292L27075N28218j221255Q34697L83362n07313j630226p24726p2591J76766
56974b935010J183753K287392O55681l94840Q1919O29059p58534k79860J91260p39070j095533O02684L02580j54219
56960d22738j079436n89664P32429J165528O21423K72145j42021L98616q17089O7462K50654k43363K86518J767086
56946B267550j412276j705608j315986n33953M84475J045943K05096j560021r59859N39918Q45247J428239j37731
56933h08966J56695p47275l61104L95481m90099K36371j28959L7368J087188M34608k30610p82064m22309j62048
56919a785723K57923K54852J713662J323272o94981R72982P08602n91693j032544q6569J197706q89298j901119
56906e52928m89512j71665j17971N33756N17666J287556K62825j463611j119541J9550O0887J559241R50345m92174
56892G84424r23744j208448j73747O70695l21717q48598k21678j79028J143163K244769k313174j307241r520P99999
56878a863845J40918j56114j75471n06924l13945j089046J273592O56685J026925O23254Q48749j527540p32670
56865a795432K109545k91528r91220j524305k8984K26345J102203N62766j025635M52258j58387O26216K42935O55902
56851A62679Q24752l03412J73952m46921j200309L99699L74752J248530n70778l37076j72323q72149j101725J430346
56837c89983P25191o77804N68046J108500M69907j062340m89397j66802q32284j79089Q81184N76161P1049J318762
56823A921101J30410j252113j790872J127950J105591l0911p48231j292918M16897K95129K97345k88933k467958
56810b577513o98537Q33164M19869k371810o27980L140164K728432j41524p46474j207571L92809O99184j350364
56797a508151k58937R16894J242954L70605k70728j314644j12650L33751m69944l33050P11056O81355J02175L15686
56783D06372Q80704n11968M56619N97778j477292q15964k61492n211k39269J197473N0431r27002q55741K20678p0344
56768a354228J289225j90310l82410K91835P35754k5403m13351K90990m19410j285450k47818L94071l07642O55609
56754i68538J327733J082178N29320r15988l27399k750364m57469Q87925L59358P43211p55999n38362K112439K4917
56740C52962r91156J39367J254563L99612j278437j126821J68240L25594m1734j63485J162961P51894J235433R16909
56726C105902L70008j749483j674574J147544o50486r40410K59621P46122L84897N29k033831j104845K233309
56713I4303J503130j047236m91516m01116J89946j098852J78142J660933M41172K70081O99625q12910j247823J19511
56699E7390J069670L38958j489754j626L60290p25720m99388P12539R91431R40329N47564q87890j336375R5035
56685A72453J436346P28538L31837r6039o85907j082668J78524j82477Q5719o06368J293944m10881l02671K34790
56671A095140K13486o36590k55852n93514M19909J118200r91932L41943J076622q4331L69254N94944j225034n33624
56657I08621P79561j24437p32880o48206N7350p35505q88407j081451L14904J458333J93242Q36820J74275j108586
56643e96366R66754p65620k49841J773921J125157q56051m3577m61992q02038p54235p44851O8518K56308L6059
56629a047854j20370j280981L1642M35540J548611J283861N69408K41828r70242J02505R21627O64029J51608q15790
56615A715422L28462Q31108k9122j363868j178050q84128P04049J927982j81230j140085j22964K30418M51555q56454
56601D33095q94767K367439L19709m54748j415586j469233J64469J709083K70877j554603j33891J602767J811994
56588B756605j017022j707936K20972N96143J503177m34481k596227j931337J605124J397153N46061J841353l80346
56575B399239j364133o23286n35156m94102L43048Q83394J696053o79829k241143P64449L62172k68309l4069L94910
56561F03238Q5490Q1368J04963J158445r28049j017215l10321n67735J037783j53383j513459j391225q8963k47208
56547c146271l3281N34132Q49897P37388P00506R07460K07827l99841n58129p09768O1286k74362r55117j635710
56533c713983P59747J961075R20144N27847K024398m40730M85791k77592K30171o58058N48658j355759k705730
56520a694021j05661q61051K65865L51672P42486J48997m96218N43354J401579N19883l28350J93453j378522J070835
56506C74301K20750j397305M9432K271606O57902n97452Q27976l12965n57176n89558J272359o02912j493700j065160
56492i41902L7218J050270J02190j41798L53836R89881M64454N14886r1056j46701j959229k010008J825464K800561
56478B848066J02613p97592p3377j128038j43514j488523M06529K236078M14713j349654j179287l90728J053097
56465E10383k0487N94742J333126J76532O29445o63838j061790l56456J206122j2413j519940k86957P8418R80152
56451A587039k81090j689806P06528K257525M34559r59611j368300J201812O60818p68553j980017j081404K96101
56438i84399Q56767J459238J158918j271890j513212k62686J732492K037588r01434j039987j527445N13180o45043
56425c87913j615835J6576L33611n62445O13817J420729p4844J32689l08959j04623j071584n73837J687657L8922
56411d56039J22829J24964p33668N76190Q74580k04448L81429N56169P43152J338525j612734j438229Q6589p77435
56397d18126M39097M7544P06539K98774m38841r65657m02490Q29148j139571O07123M5696J50221J65091k66226
56383c41678q25794J157536Q25971m85021o72416p54378L50340P37586J064084j20371j482079j129710K35930
56370a440000J447530M28853r20128j234541n98430J080321O28524J058018L85064j137576l37976M48440M52465
56357B60564k85443j691990j94999M80755P37053L78315K79357L21952j300415j016390q13321J265733P49363k44240
56343a073706j454729n0563J339649J411208L85899J32346r65423N09672k17704j410786P23837M59815J94094r92644
56329a009035L93732Q02207l12920O68153J206143J719569J411723j648757j883713j275455J368994J034765o75814
56316A799592p73202M49159r96822p00746m28589o00699r73132k07557P82448l5297J07589J73121l67607J060729
56302g11013L90221k74357k89819L67272j77488L1135J282054Q65799J245156n84105j357160j277487k37569M53170
56288b74191J041460k002812l85402k98715L99554J165092J337766O77965q49329p72349N28941n61678o83552L59460
56274c17790l10426J06834n14865k3147J003945O17065l66795l17069Q79618J103948J39792O52759j150182j126839
56260C76848k08764j208442j210485J048147m98051K3189J877497N37437R46210Q98884J415432j179963j350413
56247A467526j473093o52888J567956O02123l57171j854348n73329J319554j82623L26127q94571m6451j05973l50365
56233a207526P22439J343693K227645j168321k326485m51128P93899J088079O51977R61430m28557O86531p97461
56220B096215k635896n77086N06658J252335Q47635l40673L90747N18514L13438j302626k691114k75948O75167
56207a222634R52635O31203J595416j56715r00471n96701j99605o72456J350049J823763N21562l83108j716755
56194A026183j095840Q4291k42880j280869q36208N38598l52372m85376m14498j37504J85016J382072J277302
56181c52085J550489N7629q96951n06122j372284o81259J184518J23450j464408J43206K845823J683412r6508n96631
56167A622279q85897j191744r65657J44393Q67625J157808J065350l50805j009772n72146q84467j306983o4217
56154b374233J423655P63559J27362J583394m89496j815614N11659m6211R37112j104994k90746P37008J007018
56141I69473m29316k6026R97144n44704j234019N74664j416779Q35074J495850L1370J302990J249585m36039j877436
56127A491831n17691n81290J59916J244781K20390p47535n44350n2311j229606M93945K537055R03065n32068j157918
56113A688214j920057j515951P24733J164009O58592j050033N25374J151667N1432k361405q08348O32639K80160
56100g78974J087007M98347j502538r9192q61629j926253P05538J590503J333283O48597j091700m57023n41505
56087a395539j267651J088596R41903j09710O87155J478191J607915q93265j562162r27469n87639J156846o18646
56074d01475j049601R12167L29197j533340R46521L69478j942486m18472O34841J12617P97804O3368r1663P05808
56060e65236L73137j121568j620352l53546J351916J483857p56325k223263j231561K86916J277956K237742P25186
56047a35141q73204j131250j235434J896197J019266K04425K35678L72728R19762j11139j191278m67064M13147
56034h3307j320794o81097R59135J232344P38700j42075k49735j03155m13441M40782N41783P0360p89438J09739
56020C09801L08158j60465j349477j86248J245479J146656K18048r79303l52543o38410N3675N22244O31754N46407
56006A315776j163280l31673L47397Q69766P7733j343528k087274N02701K537399O28692k72558P03752n21298
55993A263605j643322O62455j84301p76385l91464J524747M52984j25806N98924J813801K35352J6299m81484j242017
55979A723388o08311p77416j785372k25462O26554J008109o8361q81579j000851l75371P21097J156414J361043p2483
55965H01399m92992N81900j723293k438638Q94009J821530P45344l65250j209373j066345n90527k75388J614529
55952a703095J161152K25840K444809J707729r47834j809663l94499L26203j624669q55511L93209J11918j472074
55939b436485Q06067K48311j694500L76984K475737J164177j082915q38149n84495j326306j017276O8437J032804
55926b807609K254448J71254r76427l60287J967161K15584j268245j41446j145760p36291R3687J461055J003846
55913b69030J398005M84861N41375J64844j490279p28681Q03294J282033P79388n76608o96862k9063l22532k57883
55899A082862K80310m16451j082704M09286N14148j879893j053177K71575K110530j54381l02161J763890k72320
55886A271514j126770P1006M35497l49550n53271m99770P45683J276064j735010K53523J644417Q66470p09861K16265
55872A806207n87826j331697m72064O23177J429923n5455n40776l22393j509696j505192M78162M73423P10471
55859h03736K295878L83391k255123k806115L8945J751921J879267M45684k001098n484P34886O60393m91257j225489
55845a397937M84294R44687k56603q26124p7332M96665o9100L58298N43753j709770j405730N01048P64998j29431
55831a778284j48234N84964J14473O14794m28702L55235O62159J227132L53497l90215J17635m26418M07672r10660
55817C55048r58555l80683M37937N55854M07731j452026L72669m83887R70795K63440L20206n83834p77187O13317
55803c39175K16331K59698j426461k9192j29207l26870J151130O73702M45364j171650r28878Q44570M91331m72229
55789g41536m05067J074112J730520J001817j97025k2690k84332m43618o30929O01665j67390j887383j070993
55776a442849J301266K142682K83065q07545M44580M24272l88577m51131p78174k068787p46141R20122L68122
55763g99095j288276l85820J105112R64254Q74960N38997m36504M96086m79137l06101P66295O44964p28462q56559
55749A10714j460719O02371P64368q60960J40783K47567k07115K514176Q16195l75352j339902k004113R55860
55736i6127J515942p81388l35786J077084o23522j337338l19097J100071o01684q07782M15943P70546j036870
55723a060008j189744J541881P25354o24289m55234o46857K066545J415386q58897j336800J05499J079329Q9283
55710H51448n89706J992846K020176p28445j222433j287691N47193r3561q61740q30387j034667m37586J06931n2863
55696a620485j37259o47941j802267n39319J763949L02823p24500N3640J571131J031771N26505J438033j088105
55683A27976j968299p51454O28983J790201J653679O186j558070j179482j20133K18169K56850R47794J116492L96150
55669A565042k9297m53082n15411J20871L37314P01241J06756k3222J085618m44924q77481j301278n71279m34954
55655g34086J37331K760892J47970j240293j739445q79645J124041P30967Q12227R79p24763r32002k33395o40036
55641a409258K35285N83440j7692J132706l48531m8719k96670j120269j625000O68153O27270J148355K182033
55628A711103J617144q76553k553094r77882m25148m03650M18253J496910J098635M52383M30568j90996p66567o0149
55614I70957k35278o65045R30999j95979j311620j814910p19735J77481M2042K73778J39786J24617J072098K058945
55600H48136p33184j272823J281941J676128M88686J251767j745939j479686K60679r06544p7315m33762q06157
55587a648073q33763R45503J830920J318805r132k40465r7509k14205M15410r08626n33954K49344K33880o38265
55573a30130m88428K017076J274674j158294p52495j818236j315106N60112M87085j304263j052744R39519J446635
55560a294595J220141Q06927k78676K39339j44959j40874P92082J706001J567860k94000O8049j81827q47444j189927
55546B028097j469931j037907j050425k04163m44295P961R20526P5466M59966J081615j026614j051417L12057N14804
55532h84260K90353N28194J99511J012026L31156j696608o18276k75702j137694N56753K064879r0801m7004M74565
55518G07092J87017n43384j123119o83168j02995Q42176J65193J496981L74542k81492R37998j384770k009252
55505a417181j010234L03585k13628p95050M62419K548956J134377J2274k54578J02714O62765k712253p29109q6731
55491a991674q97864j191799m92266K257705J460741R17505j20975l68500J095545K71030j106342q26062J044808
55478E1852m69441J36180J275278k13843p1787j914781k65637Q58596M03336N85081P74695m0212q93699j066168
55464h50550K20789K168041o4999j190045j738289n9618k45897P58168K199481q60461j054967r231N38958J577187
55450A388567l97114L09470R75151m26689q70073k43822j904243l99657N69655j201243n53247J723493Q49286M13305
55436B32839j55715j28500N02615j328516j585218l77797L56038J293090J046358K22446m08934O29759L31443k26599
55422D03309J821063K77361n39919r17962m48549j073649j168150N35105R8181K30112R75743l07082l53724m76784
55408i44945q7376q1669K81932l58427L93358M42540J10699n89129q09623l59360L41163R95182P91646N18392l42917
55393C01466L1074K92307O64221m17290k01216q98157o87087P76883K27234J114153k093255n92349J833716M1198
55379C92898j35115J472375J135694O05213l55133j859331r78338M82460r42825n84381Q79658p28669n47071j70964
55365a333529m41765J600255L70956P25808J550566j84712k725510j256694L42673k26865J912286J103649o08743
55352H28375p30427L209l32197M51086M69430Q27296J011913o49147q62052n00726P18753k57527p13077P82427
55338A047336R98216j164246L92495n59447o30411J571831l60946j307465k58822L11564L93518J86635Q48769m1838
55324A427189n02425O33120J35067N22874p35390o16059K512437J713074L29413j515191j088123j421469k15385
55311A179132j752998r9687R4699R18607p89863j001725J539819Q2397j90088O39785l18034p95858n3528O47114
55297I9772j79657m06389J423303M19069r55406j664997N56854J890278K69226k2382k10371k899876o08024K19754
55283b068846K387237J052847n57212q11863J430844J289925q76377k165657k151997Q41061L470856K0700j315020
55270E46498L4426R95562K81827k82534l165609k012405J49262m00507R22684J623742O61941o62988R51626J863216
55256A506741n6507m8574j936503P30621P11215M36992j33643k17462N2302n30992j238711O97983o98441l78624
55242a103603p43811k19670J633013J217832J654192J334125Q56924j432282N52323o45849j378838j03140l73592
55229A247624k192961q7693J666953k117476r75521L84152M64002P84616R35190r0018M92251k55367q67729l47300
55215i59277R16123O03142j787846m41117o35391l85334l24556N74565l28431K33647J509089J067204L19133O91738
55201A052689P45329L3808j0554L79383o689Q62097j182092j522372j27628J022430Q74426J085559J01143N0338
55187C357867j501570m64453l31117o15141J281873l42266k023350J172183J071048J555162J002487j940768j766857
55174D55098j063153j133490j80401M31935N25340Q55053R48033P86615o12816o95170J477040n7580j414479j44633
55160A77392j514690n83904J452362K116590o75599j199531P92767j55343P68522p62104j560121j80924k85231R4868
55146a514946J577572R07822J01165L8220p75231j83515j908052L986P51169k40516j486134n27253J129731M23577
55132a702405n07327M53777K37805K24051O36813L82956M5428n69380L71560l90438n5664P66244J03913M59987
55118D57320N13458J22060n75688N11454R95294m6994n51699J481821M3695j292087N37169n36254j077945j71969
55104D09635J154595K15757j828707J14247J008719Q04322J374830q28587O80757L94981j204883l320803j341670
55091b366807j360320N33542J633789J14268O92047j808645j543744J52522J61190P59427K208051J298324p61124
55078b87480J116944R33035M22663k28186j328812o58805l13102M79589J449817L51093j146190K03339L64283O89688
55064B047876j374116j677167K086272m13328j658580p3468L90585r30987K40422J884916M51502j751581j512470
55051b290124Q8304Q81460k82813p41480P15813J129382J137109L730j158133n44767J391334k62266n83888J987846
55037A471507j56195k96096m76038j757986j02644k32589q3233M97590J06275J025721m01672N60909N02940M44409
55023A102898j75085Q0248q73573r47769j713014o04915R4074R86398Q36776R01437J222678p38973R08344j82175
55009H97349j105432j235682j007746j13331R36388n05745r97794o06756Q07616R2426L01973K605682J788489m29544
54995A427893K04674J63413j452700j753543m95633M159J925549J502323O27523j173771r16489o18318J3704P15062
54981A73846Q80048j106183k138747o39079K7438R22400J248166K24272M05762N29476k96711j423969q32075J061914
54967i63442K92242l85768R12484M75184O79017J845391J004019m48499k776588j847282N31012J345485n5146
54954F08109j658663j101830m51420Q02118J856683J587699M17808l35074k27017j372837k068290q77512J41077
54941b679149J603116M41970j108704p09408m8776J679207J268913k118166q84982o14119M11454Q32444J709902
54928b16298O99351n31680p30579M8409J160526N44630l18303p18745Q89769p7620k393379k14627J196097q96233
54914a558682J8282N87761J295139P99721o136j133525j099029j53566J161122R72992J14678J51758O9856n68718
54900F51653p28291L82882k57007j656048N97487J333149n73216N35016N62237r18406K13519K96807j678663K28266
54886a010615R31615p85390q7197P50935K87354K18606k16837K7588Q0121N26548N31143J78340j512530k910683
54872b991002M8735Q22985o09012j99631N87043J918681j3800N39117p60984O52861J737083J009744j450051j042803
54858B48966Q35861Q26522P8357j074088j482751k56062Q62530J463481P7389k23338J89877n39421J89423p76448
54844D20298K19007Q38462j492149j312197O1437L46313M02265O71302p10969k03261J46090q05717j242539K63290
54830b398368R93054L26479m30162q22199o44511l64378Q63828J230303N44878R64666J119110k126380r04231Q71883
54816g76028J022023P21047R88608m63016r16185J42835j389114N8356Q69521L75769Q22174m56817N60784m82080
54802A077877J546659N54936j057306k817882p75688N51691j69679R13734P18399M11016N8037J22662j144602
54789a0146j358112m14458J205937l46514n04984N85428J033865J249726n64086j227784j623801j855513J311121
54776b519321N88746K52123N81106J100633J207813M01172n32631m04557n78494q3741j44801n65076j74238J7207
54762h54059M50120J815351K529212m10769j983721n03806n3981o45952q08937R93748k30788O12115l60155J00745
54748F49123O47776O92519M28392j347821m6673r19601o16112m73034P43151L84892j537121l83483O16449J91706
54734i69837q12061p99471j451855J043806L413999P57052l05092L22106J444615q79175l203616M97477J756548
54721H14496o18622M6222R8387n53418m23833L41205q2090R61422J709150p21409o19984M57691n55043j052872
54707a98698j175005n09416J209861L92624k125090M2556K81184j266017m4646j52255P15251J936842N83959p11089
54693a019939j14465J183896J27144l47468J791981Q8711l55597P71491J85348j239162k691858n45588J110271
54680a055235J27755R74477P25610J045299J184381k84418j374646j799444j053782l36696P05830J605342o43788
54667a79315j444349J30644J074923l15416L65593K69113J69560R67291m99006j035129l11998k25650M17229O88747
54653G2237N48572n83922n86274r89704O82927J045501M45537J439563p67204l49825Q62278Q7797k478310l91082
54639i61909P63835q10967j550947J045306J199330J765279j075107p50060K05836N50100J79893k51554o50004
54626c40969p98297j29912N22801q74960J09084N17700Q37726J356703M69781j038150l76075k12488l02452N80119
54612C20611R00550m72113L50460l59006j176755j88642J662851J217307p14077r830j493843j186704M35078P06427
54598g686J290937o05232k31566k86674j427770o58313P39395l01411J46855Q98201O68028J617363j649783p70877
54584e78533j86595k55795N79525J203189L79240O76222n94980q67393k0920o82782L35505K18754J460598j7j74410
54569A491608n96633K21172m03667Q36754m06579j405007Q82777N93810J404272q65008j346548L59273P24320
54556A490544J260900j966118l053676n82028K005025J954171j219092o67803j775974o44303J637317J108517M68792
54543A6272p9405j168492j23949L21079J92866M83115l78201j2557J335854K7330q15010j171960K23349J316830
54529A67121j59443r45402Q43514j57386n22271J062747j4593J02785N64342K52313O12069k76594j444569p19522
54515f34889J346055Q98132n31822j866709n27571J58097K07897l85291j082219J049275M96131k29029l07126l56207
54501a765276K504398L488841j754509k160922n83213O97181m5592r44744q02463r91413N50423J237388J46130
54488d23771j64161n36621J018294L10800q0489J668322j38456p82446j572997j027763N16630Q62528K279115j90949
54474A738036j03078j369259L62297O62760L98355p68419j546018P6388K2453J91175l77154j259397k47705j064742
54460c284308M52691M86727o16566n35727l68370J144433K752194J371004o62631Q29272J144839j34474k047068
54447E32016n11899J338220L82274j255696j10388n8311r91721J541647J616541m99301J97980o77908k882315p66214
54433b145075R84405j14563J041533J478388J337471q33707o392L21717p95807N42056p09679m90381R37099l61344
54419A185721j297267j222686J395775j63524n64913R5449n5918k08561O17339n11153j636845O88090o35625l82874
54405b696992k01840Q07216J454549P20739r47642n40258l44919J76138K162268R4838k032550k03068Q59943J416266
54391G24688J6492K86103m64878K42709K114139M93933p92230k052397j026035J95953j213141k53655N70251k87732
54377a445800N9319O94823J177741N18779j28218J57109L66684M62576j18337j336792J707481R28816o72807j389629
54363I81745k56913M23924q166J89195J041675J186017M0826k12853l08603j401134j039592R91728O424R3790k38144
54348A489919l03126K66113r43219j714997j46541l81457N82931J243651n62130m39150m50422M75874M44206k8407
54334d66755K23577R87347l76817m37526j12198n56628j392578J621954J764222r61970j612773J464985L15318
54321D60158N44552J81835r89850J27195m73084j72885j4246j782213N79461J474536l84952j622834m87655K53444
54307b306538J843060M19446K5791J6889j136614N55534J013478N01038O89954m23416j187870j20036R51168r6852
54293G45032n5017J988492l48095k411255p36198K052278J230161j053816j067872j489105p88544J098714L37741
54280d97484m01840o07121J36952K397475Q22097j040352k14384j0694j443694K71328N42343L35072M32506o74495
54266D7709n53123K57467K64671j094445m85594L01214J260055N5788o59690Q71547Q43557n393p17065j059268
54252f72570R06343J458500Q43298j442990q52467J170016M20333R80235l63463M38023j564367r85871K22337p47978
54238a90621M30447J088576p05058j456883n87405R49823K435864K52656j450127J374335L99890l68567J352990
54225C525920j051419j299509q48116k5814q70440q21491K52059K50027j504853J513481K34812r88914K78144
54212a356113J691401M87578k307237r49847Q90044Q0387J56050J982273M6345M37413N15821k693J453996R44894
54198D070312j088431j849491k30650j251753j069916N26809J806888o26504p41178J33952O78274K17483j558313
54185i82518Q85269k01903j486288J247636K270128N74686P68684o29619r94828J107983j622152j412473K267918
54172A792523n96066j234745j34407q07241k22048j62702J886273K436715R65803l59165j321104j293686J034239
54159A984389J36211r66022j683964q17773m19515j167532J55168K400640L185189m33509k949p3349k152937Q24341
54145I68388p62516q8694J825423j245163j206453k84787R41386J70404o83207J067273N63199o12230M54570m73054
54131F34539j045334K27770J327693r43956l01222L40322J156150K77983l0457j81786m64663n06137L48146n46633
54117B92415n39497K73346l98353O28988N62202p33465n29654r14554j44350J186721K01146J019284J131998j503320
54103E32907L4860K50324j681531M07272P63843q98966K06252J250221p02288l388813J172583K015628M9318n68705
54089e57095o81468j99445k95750J06017j806769j44655N69265J508317J926042L15078P27516m01280J69491Q82761
54075B118025J55875R04643j52742k500522j388266J295854K78292Q76204P33103j097055p85708n11385m40432
54062e14114r04603l5847J460798Q01908j46562R7260m72569j504172J796385K55404k478846j28903j3876J24239
54048a663498J560434R16575K81075j16377k114383j215171Q44503K27521L64403k73896R853J3955J118252K325173
54034B278419j754413p97475M65148K73931Q32179l02334j536028j001752J63670m19555r79163o53369J542074
54021a888668J962806l450K30431M64342r52976l13425N39601J70129L36494N57802j049312j991156J77950J163206
54007e96226L01548l33324r9866j0655N37181J074123m20646j313386N1106J915537J97211m24012l86509j538547
53993a046465r39804m16514J200005J95254j27388n73012Q9308J547853Q09809r18185o76941N94014J020415o10807
53979A47542P55515M5137q73662j052200r91571Q3193o1794J115345J003775K09024o83835j2017K03145k58074
53965c70477j05285J14953Q33407N16115j90128m46614p38070k01447p63488N41512j53902P45494K297036J199516
53951C278622o12312k029973K17996M90651j127267j084044O57983J38556J246179Q1450M14926O58180j177185
53938A153762k531992k005527J78606J231809r78717R08965J601336k81498J034667N64772m39494N50628M85745
53925A473062j959105k067049p74622J069299m77363j978765m60303L97718L112190K910070p04883K45224P70745
53912A556218J201962M15699k42519k94212J286644J76687l08173j327928j036764P1995K0j311137K44850J005369
53898A438711J162628o97820m34977O51963M40309K2247j939996m06040N5483R5483K71471O84250m31017j488325
53884e75630r41622P10235R00253k13771M99192j243941J11612J652650m86825l32512M67571J28273Q01278q96492
53870E80271n05207r7084J570971P75261K85600Q87327k51434n74106m50342K3065j1535q03990p73098j288975
53856f33276q72704j75733P31944J029532p822k616903r29624J320070K473668R40382o89531L35160J888o02312
53842C04739m09784j206213n59098J554710j042481j125254J141191K391433P74122r46853K19419o16634j789298
53829a310001j408994J121409J229256J424793j359412j382492k91683k06652R05673N56829J683550P42343n66311
53816A138308j085056M03444j037781j1735Q03216P46283J921839L98492m46221K96852k64560n16013p45584j851363
53802b49879j268099J517278J324575j01409k89088o74359q1152Q68120N51732j77621p70278j690880J46759m66177
53788a360478M82825J834481P55727j291878n31822j98170J153623J15274k18167j504615Q68212J605739M50366
53775B161117q42949k98883O70353j136948l97842J25355O75337Q01161j76672j626712j035125k24746k06071o1628
53761a574253Q00920Q11112J14753N90490j043266n42247l89664J79192O73043J862782J002353k46222k130929
53748A08064o24151j579116N6417J333761o9910M71121N25708k71122o61179M79558p63654n69101P97712R73655
53734B07763l03509j131672J227022J444775K25597m74765j183440m17432R0709j035160r64779l34473J506757
53721a142607K064600J163875k79235l74194N28550m54025j669132p53616P32565J603258P09864L54055l49557
53708B134401j119307l45091R0012J170276P14111j427996k607451m94125o82626R49355L19805J443024m4075K36963
53694C37276Q16027J491360R23316j14286r12782j342440j167251j24037j461562Q41294M30243K39051o68309k72753
53680i84853R5055k8410q26965m76445J95133R49748J22442R30325l58523j707961k01428R78407J123631Q60090
53666F70246l65192j382244j574632M33193O20060o91546O77559N15346k72932Q84995J619703J797669q62783
53653B069442j280757r60171K81660K96076p4962L81113k94545m62970l10127k40112j512127K257690J837650N34148
53639B522008l82815m21713P52114O498k142238j381355R92179J723866P41290Q39090q27697j524491j898362
53626a001626j462111K54801o0236n61732L271857K413354j389736j012472J101316N18376r68987k89080N7255
53613H70979O23996P35297j08772n03268o35625p17737J53700N44146O25749n57551k42199N38103N2352P42901
53599B122071J302179l08178r93134n20757l78222j19591k87387r09953P58128N87084m34050j92497P56354K73496
53585A655543N5839j772699k835051o08620J823949J387598n48227M84470M26494M88044o10778j234493l87020
53572a674951K062574R68194q60533R6253J090344O32761r04738m77344m12525M66625J114233J74658R67598m88618
53558B754531n55753k65950P07726L39648k083643j310949n35062Q66785n15270K238095K01670j913495Q8230p58377
53544g41814K48942J463019J387925j70452J84301Q16979o93250o80810j85670p54616O76371K36804o13864k70003
53530I03862o45549k61214K73719k45533k68387K018849K88437p42482l19116j75761j547025o95595J48682J488442
53516B21329k46047o19832j02276o94385L40932J98790Q2046N70777M35778O72855l49199R0161J038753j730997
53502i1315p84479J196404K233204K4674m52773J230091K15395M97809j913892J05676R14492j458758J33873O38000
53488B488401j591280k32899Q25453m16225j298710r07654Q79478L00755M17873p17597j130650J201495N31231
53475C49671o70571k72554J108769J562270k31361j767860j667683j091570j55948Q94069J998043K153105M92802
53462B701182p52886l73867L00378l63894q85927K53223j567678j359305M73839K643870M41341k193692J84171
53449d99245N53374R0492J623443l59055J105144J55808j285136o24242j675585j127827K42491Q88722P16051
53436a95565K128745k02001r08573j082335m90117N72160M46843k609881L5362J315590Q17569K477827o20370r23082
53422G62172m61276J20888j84021K23056J530506k80833j486556m60161j13908P7197K00166r67804L56579J103009
53408D19014l9156j76061L07404J8428r54790j125r34640Q86783J664505m56308q1662p06819j647576o74154O75488
53393a700669J575047K88505k129359k35835J04692q10362N91455j79546r40665M17025K042456k12966k500306
53380c690528j506031J357722J347117J165750j07484J49351P25214r25576n31980j174143m04108Q46384P48458
53367a999854O8018M88639J84660N72657M42149Q30302O96357J557290O07874n58250O29695m04217j127892j48421
53353A839007n32458Q20559n68176k481263k059596j002045J261778R18468J495026J167023J0125j291032M12245
53340a0339K94171L35902j133511k73029j331897p24233Q99741O80969J623816J096533J122949J138032j081817
53327B637287k099871m21672J499785L55975n00703N24331n72564M87967j23779r42135j770680j29997M65837
53314e90219J029182J944809k64901j523034o60503p61819L71828K33167O23649j822427j800097j45372N25753
53301b839984p93156j60597o48209Q51607J094621m09068j100638L71183J564604J032735j797207J68663K00218
53288b465228J81617K410952Q47304J3368p40890j206744N28908M93438P07326K33036j091384R9558r91903r970
53274i90612J573771o04502j727582K44738J209788K77408n46381m59364k70065r79179Q25056R74012J078265n28249
53260G7104p73840j557863j112113J44185Q90189J258185Q01960K57099J317488j96820P13898K855863j262264
53247C413071j021260J07748L50709j386366j531863r4745J0358o07306L18204Q3412R52954Q27307k70770K71491
53233A422944k83735j516423k8508L07028M46264j29675n0235N78171J57770L55705l90515j782679j319206L8811
53219b194283p10199P01788J333331K360899J630608R4997K00935j040230N52057Q04777r07665k16611J374428
53206C984832R66974j397779j115547j334361j297045L60078J010936m91177q35573m26238N6948n70557j573305
53193b661814J82900P98364J538623J448913k81907o23597j4811J22280K43314j347277j496980N09038N64676N94442
53179d23836M06319r08315J28018P02267J093888j273126j559345M33882J45488P29285M68786J161854M91454q5083
53165A511536l91111l53283k60683J17672M36522O81453j557179o48412J113930J745734p86448k594551j377138
53152b361958l65296J140478J290369J431416k72495j668159j581424O52160J985323K73657p63114J142361M15946
53139A319264r61097p66051p47746j35574N36760J258564r7402L29403J58634n25772k88137j244603k39881K83457
53125a120181J619404Q17930J31991l08486J42008K20719Q40047j249785n68157j929N62238J103552L42412q87367
53111A644396r58464j498500O24862k14211j233268R16418k06685K13121R96503o29529j539703o81846J354133
53098a212773O92001R44909K09190p30989l44014n1440K0659k29890L30528J881594J456268J209260r13913k309363
53084I52027j485552Q23808L40524j924215k99747K171468J76131j313016M40993J032296J492971l71283k403257
53071c66852r63979J647959R20902K038552N14884l01938j151230j71016j515430k003386R82352k29466p23322
53058a321970p25891o12048Q76164J04030M96045k08933j115569j981781R78759J615945q30025L61027K047170
53045c17077J814631o04438p34285j135759j13779K083386N38835j644978r54761p48811k25924P49444j070969
53032b364485l32554K259552J079196J374272j073620m01922M17023r93127l85108L66736L63025N53399k56309
53019F06078j87893J391226p47450l59280Q45666m48785j019512j719260r7780K76738J669629J8251q15533J244677
53005F56772k08583j493348n51111J59889Q81902K285499R99971j169192k778826n22780O63734R30975J028273
52992H83175J813897n30044j689646q42998J38852M784q5019p35060l51788J420893Q86629L40604p34487k49625
52978B70167q24840m98250K16563K98628J69809q33638K34923n1703Q21233q68969n6420j546367j983441J905013
52964b747292K482515j375685j023948J201178O22504J500616R20418k130312m60974P87281P70621j89110o86326
52951c28514o71989K96273J64525m1869Q05539L33132j093750j270410l19835M46875J087310K86351O31839o33879
52937c08402q15089J027883j02215j121803o19151M42535J171568L50529r09981J238234K62438j427092j589690
52924b400236M28589K553748m6436J79467Q20990j870621P03110k15686K68262R20961K624245K9363j602112l91065
52910B002579k67820k97396k12203N23221j374061j773169p3309R5533J213750j26002j931993j52915J673900R85210
52896B85325J077941P39920j447025k095427J334005J466120n57721j9291n01085k83961J053671m95713l63920
52883A92839R42413P0684j71234j035583K59742k01563k70101O26726J81440j380784j244669J151302K094008O04714
52869A819934N31605j294290o19291P38331R2093j173916L18132j005558o7632l56216n41088O12325P16904j016293
52855a244960p55997P1848j71799k1138Q01373K043191J623675k34183p53046j291579r98309j554342P49990R09787
52841h25489K27034J054089K30147j165163r08353M32594N36407n70460J010910N53761k604360m20747P89682j31786
52827a791734L79889J902394J173585n22225P6653j124337r24145Q22723P14932J024689k216961l103913M55710
52814c132740K079315P65680q70314l4666K990267N5738j720161k29795q15570P15431M08584Q54345n19204j585973
52800a039063j658647p58303o87202J362522j04477p20453Q97258M02178j44744J513672J194050K44065J459032
52787A959888j251241k132775o21598J885347J639513j828450j845616J124751J318610K8951L03681j33577J756118
52774B203602J576897q78833j904376j757578k57225O60012R30898Q73690J075896q08432j825575j360047k16944
52761a688015J937547Q98767j016897J98692K76760j226952r86470j23505L02312n65842r21316K49797J356675
52748a308447J492574l38069M61503K74064p22819L93569J98638N40402Q7978j44205k003029j995897O46404l11017
52734b728351J095203L33577k85411j12321J525700J798089l86045j004054j005391Q52794N49558O51309J11229
52721A395886K96316N67354j863510k427630j747374M63042j25583J420034K256077K48534n44278j51674R78084
52708G65278J094528J116598j257433m54439m90604p66308o77868M6589l44658R89009K520782j72976n14091n08288
52694A346119n45787K025362q45206j888582L73722L03458n12017j222614m0991O76255k81286J089299J157832
52681A635564M54767l04216j280100j460932j305625K76550N13248J828594J857090n8807j072712k43015l08133
52668E32273m96579Q93524j539145j745963k28586J941100J587970J055354m40919q13442j451834j397911l29352
52655b433510J41987J12421o476J704328p94197k0181j271682J987212J973908j513329j707096M98834N15949r93785
52641a805617R71268k35108m32835l00596N77961m99175J18836K022658J896001P51973K44690r81538j711575q54679
52627b37736j716719k85527J361392N98589n77758j244860J073512J240503m29194o07531J226078R63342l59026
52614A005065j034463n73108p99407j118136Q49483j0197o71356O43347J846187K08403n22497O04693o41156r07385
52600a120527J074982L99971j366662l25380m83112M65093O37158J91000o86358J312791J024943l71274R02123
52587A654748P84209j169035q13555o14788M18745L18715q08671K41867K57458L40378K53899k018797J59194M45816
52573e49817j53524N91394K55518O11836P69484k91117L87242l98787j243108j9685L99896J231552N2749k22794
52559A420839j419497q92116O55471K005019O99015q89567o98976n10988P7950n1981j007740n38661N72393j552084
52545b130923j424900J358093K56225j459268n06208M73112J998889N22967M98328J172192o86790j516042j882140
52532c326465p50855J449644J113957J11915J17524m43690M70271j325206M47938K178766l09244J48336n85056
52519g02165p37660K488081O26793k021400O74311l41929J37279O50172n80418q87760p95682o12559J291201J837430
52505A025694Q02340j12664j194927k68957J0955n27641j672310m860K236531N35887j311920M08994J75445j171075
52491a068508k75276o39043P65592O02298O84948N24437n44264J024981Q51716K05159m37498o12277J33640j77794
52477A038111P83410j639587K4731J774534M12733q81158l38890J537632K73080j242817j757189N17775K87984
52464G90349j406540j004328O29697J365634J117489O05684m20099j234476o6461M74879Q64673J267695k93140
52451B691056J00375j87396j895097m36218K72022O04665O61543J63005l99242K2853J256964q13350r58875m7349
52437A034956q97394L24203J23711m4725j588900k92072K69166Q21014N32277J022539l67738J949146P54152j152953
52423B487382k811026j256212j29733m74335n08981J220505K64999P60220j373058k34735Q24229L94102M50609
52410c86034J723390J193460J90059j282539J87814J282974q72178j569129n62361k18207K70550n75964j305864
52397a924029J78011k86727J400105J050129N68047K436916M5918k508601j149408q48544l66557J655138J342554
52384A592952k24515p46047m34649m18584p08753m85439K33193R94789J369449n13236l47932o03959J249114N49421
52370A505804k0047R8462m66349j208135o27282r04683J112972K57781p09712K92397q98970O45469J172280m532
52356B45455l363061q31927k13635J514299K111598k02579J066103M20986j825162o14135j21345m31997q43632L0293
52342c058739J176407R09530P16734Q83224n98965o40128J04103L10057k30325j47734N9311J291786R16821p70831
52328I21251j20200P0490J134019L30526m28002J41477j723688j123225l4132J111882l19698p81734Q3643J287635
52314E50244J80346j88676o81653J060214O81674K48609l50412r74019q65655q36721K61300J36139J131354P5162
52300D27906k451110J6076J781315P53220q28696O46031N72359j53822M41434Q01792j18686q69430n42441n51457
52286g5509N95200n05990o16431O06980P01301j281333o37171K54326J32525j69890j311489j198497J277941J670801
52272e57236O04463r09166m80376M26961K34528k74553k31005q97916M64715P8375M96610J65761J269900l91261
52258b00l32632K520676k39568j146961r08402j76424q06281j015673l36604K29128J355826O14026l81624l73473
52244i98186l49535R86870k74002J95108m56447J107354L00213q95435k10272K07561K98970L09691l14694n01080
52230e93884q46910o82641O9393N81483J696869J34167J30616p7074J2787l18373q23301q53425l90812L72652M10155
52215a178298o82729J208074K456022J73542l179461j873356Q37491J486421R40436r29608j020152L18205J379056
52202f4357O19037m96318R75746J41350n03247P25648J73026k44738l3852r86920L4989J319310M57481m08140k00561
52187A508454o09230L76532J988J324829J513649m87836k142142j792931J048777J060904J60028m0350m25374j78902
52173A318396k292867j587260J256676K023460j10421Q13964k06900o81147P73063j664557j139384m68003j012405
52160b977385J69203J381604L9511J197902p98514n94650M26209O01607p3187K46265n32370R18859K027631j92852
52146A839833P73420m24194q83703j03283J258605Q14116j12332J90076k68563j822777j625465J048537k43508
52133D40762J08973P72994p88155n22291p25216K05639P96938N58312N34232o90445Q7956J284226n07372o82189
52119H74364J201352m16270j175987l12200k7177J357004O05744j116065M70646J00449M74826j361172j463795
52106g88281O09112J605351P85663N31535j709543j814282J374838P79137o34305K61226Q18895N51853q67508k97099
52092A206592M63370O08872j142485j782938k388828k38106K016743K575291N52828j1688L95355j383701k37464
52079F33841M16529l97210J403610M07199j262166j075307J128789O56920j165016o33746m38642Q45672Q20689
52066A341162O12663L96128j259939r75675j18800K84034N73289J117601m81994l51417j298346j976229M16470
52053a721053J957242o82084j764451J390059O03302j05464j036082L70686J025154R594N93539p92113j33566k87852
52039e73089m0555p01741j899149O3902J131533J758388Q12481o1828j121633N79309L46356j379440P21049n53017
52025i17434k66790J390384N54181J09074r52682K78795p07257m35946L533560o12594j225203m11123o23537j060967
52011a347539J221676J778786q26769l66882l58027o94187K32129M80851J35378k63565q33682J305416J250790
51998A714375J391251M35898J55439r39208k396312j588292J94365m9288J372541M15043r46935r94544R58024
51985b77643J502209j158416q43493o0882M37032J177515J379782l50047k20317r66895j573224n5969K61383N16706
51971b32259M80774Q10350M06516j58144N96581K59794m41779j904279j291832l67060N74193J47717P05599J525161
51957A111332K54898k70278j206478q4223p6179n85898O89869P00993J224835r55422k287102p4976r077O37470
51943i30236K38807N57084O51886J438904j341613L09558n2918j161145l29488j793680L97394J577724k39619n34918
51929a212260J297969J337823l31259q806J193603J08802q30463l30399L12697n05694k017438j282524N53914
51916a714035K357606M44039r84463O27684q46607N46738R2701l39360J127296l73400p72792J306691J417950n21494
51902B368554o98436L06395P79805M79844j94894q03454j383083j433395j108152r76050L76419J123015P38802
51889d24630P87927R0751j31400J620056K39123q45720q27527R33874O6542p60265o56934j165802j687185k68474
51875c029664P62201n64969L86705P9717M35192J800475R02204R12456o81187j232317R64650J60040n07618p52319
51861c64434n96299L32067l75472L71839L43297j426523K45188Q89182Q57679m33299j606278j146095J232512
51848a676636J958043J065630J60281j066004N91187Q12l97087j290977O7203J439261L68080j221260q53453M98291
51834c56629K58627q04047P82684Q0595K51966R7288O4775J200294j349475k289141J421417J724338J732656k02560
51820B612788q96608r66191k118485k186424J422886K162183m27308J30093K412683N80504j304902r20204j728590
51807a227575l23241M50646M50961l87990k80088l28187J004659J457132J7414p84450Q29675j2672n5505j648766
51793h37987q91846O4708K157641P54335p66533J111771K93039M59043J241671M7494j241065j888490k059285M8278
51779a507226J179150J063097q54275n43602O20270J4963k3678N03569Q28391o29070r83804j962146K08602J379736
51765g06023K474222K34860l013096j415461P26532N68908J24570O25549k89463P0999r22637j21815J202135J775845
51751A335125J421021o12184k86644j175679j209608j263016O87639J156191L67190K91453j06714n66276j348665
51738a310167l30838J022733J025235o26807m758K375989n71173j496862J73370P42802L35712p57482q3422r08019
51724d13687Q68241J581360L77394k77241j341752L35692k7825L10682o93779r51580j649609j52777k59192M31004
51710a863069K662466m36099L3485P81488q84782K37654J391933o768k99156p81359k420367j680167N84664K142735
51696e37342R10047k67895n10516j82197J726634O9124P74459K70808m37511N190q83533m12701M71836J17475
51682A113878J830144N06070r09086o45475j313963l87173l75126l94935J515536L4465j123442N76215M16980
51669H44088j647968K20602M23809M37167J686715j129907q22749p39819k496448o22071J500964O76794J518845
51656a49978J359580Q6914O79217L12651j054141o05603j251268l08316L40423o16064r10716m18033J137654P71106
51642f26574K60880M01509J284634j07123l90302R10977m73344L15043J16670m90973R37146n33359j103424J69155
51628F70915O33530J375707J153179p26386m85704j042642j105564N2019j263387j23022r9524p8718n8742m59843
51614a558182N06907K747756Q26260J465350N01525l314607k419053O0305L00063j275278j750756P33994J867131
51601a308585j101172J375540J293679q26003o45323L02360J12300Q66363Q19111N91044J55589j858157Q06090
51588E82836O05049j060776r94281j11758J94880l68704J873268K66457P8422R39159L70006J209750K81488r22072
51574B943724j716160j982095p03560J959779J524505P32718P7309k11614m29840k000696p44775J4018p94268o56739
51560a987694k54957K009145K685267q27457j569269m98701J187655m43021q29663m35760K10936k78125J97849
51547h33795j05349Q75396k05667j522148o15032M4634J976467J604741L16779k029822j543037o31734j405890
51534d074457J65815J906387L94249L49697J873308J627897k76179j028656K46665p5265J168292K111822l59816
51521D029759j637658m01153K17508R9953p77243j189393K56824J810762o7303j140061q26664L45151J475243
51508B195725j501961p06614J689340l7315j093973j136814r98102J222002N56494j544014Q03523M22001j057439
51495a187147J247170J416207k34472j12510K79312o00394r78035j198405J52066K334879O39241k22072q63784
51482F72056j094657q15150k81653R1601M15532n09113L29744J996511J225j64582L5427q82580o07929k78032M18534
51467f73066M45974o3903J79517k31010Q35409L7205p50477m09949q43009p4631j39203q12997J231583J166569
51453a01988N36488K33323J374617n74279p70858O3254l10779l58913q80361j103299r06046J044477P70418N86831
51439c97115j030316J05368J485406Q94226p54276m87005O54726N23591P17710r74980m56043q7378n57071J292447
51425I29290j089729j640599l71922J54373Q1737J154120J46718J96008p865O34858M88077N42556j416398j706011
51411a904787J35840N48054J120646J048134J181252j291368k075829O65299P69982n92662r52734j400300J113839
51398a634634K65717p13937K061559M19311j110671j52015q99026j96466J574204J073883K18517q22600j669660
51385a585818Q97765P97752K25017Q4243R5733M29836j28817j704118j694842P99848J123230P36041k83433k34390
51371d41953j4511O25171M99232K5432l57373j931487o90355R92219J059260k72286n89445O93132j758621R67719
51357a193866J752699M0324N43508q50507l29087J453832K108742K57995o26589j130401j571088L54140J020908
51344A830610j51522q55041j556796J115416Q99286j394783j736501P47318O76968K70517k58307P53198j16255
51331B24108r43610n48662R74814J309399n72678j7556r26159p08398N63003l54514q20865M99869J759686J57504
51317E95941r06000P50163J63510j673817Q8238R98287O89258O52676L388l32542j573881j010489K58853M4147
51303a252268k54975J576418O7005j902318j287709M4991J509764J318638J102977m6786M15567M96192j285145
51290E02351m60197J981024k74531m16971l42627q51885j681610K15695Q87841L48873J327125J218180J25224
51277B578492j821394k54541M60338J21473j97888r80132j671441l16037J718661j66557m22744K11311j62026j59574
51263a062059J035503R11375m97203j030186K47175k3097j43994J098275J741291j598246j685020j660230J764396
51250i02020J329417o60877k61988L76928J622969n140n39768j80579P57532R66991M893M2891q77028Q61185j262303
51235A273103j896054M20684q12569r16562J48734P12334k21515r97612j97188J903201O18804N49284r37466N80089
51221B27267J623355L67708j156139N94410k29313j015936P5991p55673j714m73918n49696N81374R89764J686613
51207A964093J524496j020845o54812K96411j503004r99045M93290K55481k20790l16797L16134O83966n86048J36888
51193C69418l00703j596863J3425l86204K028267K446918K70921j388886q94837o17037j636j225468p12320J777941
51179b17064L99656L51030K69967J425967o5910o52801p23336o9871q94284J87268O6621J141640l22285m03322
51165D93276n26287M03691J763999Q98519q34006j012751P11921K34474n9127p82658j49199l2695j335018M65491
51151B39630Q70584j72001j056374m07871j421933p5060L82900P59781L5254j016445P3941q91545p58403J455815
51137a981727L883176J220356Q6688r00582q05546j196389q09494J210544l6865j099851o25731O8878M60700P18925
51123A93082O5149q11373m55123L26466m28457l55083J120210o30508J106475J025597j416531j229420R15623O09507
51109C5614l38414O26661r2509k049702l4797P66855O27218M02242N72191L02284m48397j567126l69211K43940
51095a323151N60850M27952q96399r72813k94674J558563r37369j410194j269570o97095J979644K756307N12059
51082e890P6512N9549j06818J655006N08422l66661j308921j004667j75338M30548R58233J55255O33955J173985
51068B683170j249814r77594J519578J149138j217250j287587q59646j722057L77847M23288Q06248o12775j302959
51055b270413O03032J675719j91598j71839J319879p92043m39198j06715k55378j105756k54012J203993j066588
51042a850917L00914J770748Q8381J001649p08553j152106o89160K04549o59011p47387J169858J063050K17049
51029I064P67886J30630r07751j077619j273371R31332J435415j794466n63199K48068L23436Q44662N19088l08046
51015g14871k27338m91209n64005K399590M74688j706132j612414p89390J72708P62325J116302J000893j300377
51002a479230n23199O21470K06055K69358l73359J044870P0922o29172K715536J629777q90595j605752j44889
50989I11792j983726n50910J040242J465310R83448k70813j147236l33663k59175P46088N73456j38205j949859
50976i13251l758054J506158J943830N69670o01491J381578l47784j099234k52706M21214p54000K39364k26661M7923
50962a843444N73179L69782J959992l46476j177800O7098M12487N9975N63983k94486l42536j98537m8380j156626
50948a401789P30789J850754r27634K78987n4680j119521o81196J137026P46217o15745j56515r23640m13273l65675
50934a915895k06943j037191N63622J293424J38176J246997l21352j196499K80071L29416N20657M0809J053800
50921G89092P57196m0809O11691j68920L33390j507093k527440o17227L91929M52176Q54636K7077n58363J423241
50907B20576O32811l51160k97840P5570n8000o50939j224527Q01723j70904k13614O36583J218926R07915k58389
50893A268731k68356j441567p38706P10724r7583j387744o71975k00603K215207P51428p1233n80315j502576R22751
50879a091817K60964n97400k74820p69415R96913K64639r6514J271j95219N41784j76786M6611L30793j022643
50865a781639J108804Q10850j004453L77796R35243P7279n1553q8237o39678M5284N70799L87439l28251O28920Q9327
50850A137930J82364k34328k124614N40478M92024j320344j8211J496144L17017j843266J74649J189929M64944
50837D54716k208730j24572J975411q88471k165118l78383K127539J434506M50515K61505N41018q90029j311704
50824g21797o59581L84684L72537P9599P42587l436n79534q83060L44826l13113p86129Q55203k37671P7118K6096
50809a301671N39846n03583J17608J733367k27006k55841J180004L28219q69049k275649q02359L38088q1863O30139
50795a449750r911l42023O90844N33628j34348Q7517J468807N47303j556481q71650J95691k08382j564395J55826
50781b457324J327414K167557n23935k59313J488265q06356L52437L95555j991507o85825R14246O85415j034958
50768d28329j45439m85059r55294Q10870M2631r63700J432472o14895J070109J799760k10973j096776k36104k06489
50754a87216o56998M01877q4631N34866N86073L18925k04661j81879j704159k476514K27699K52445k0091J468552
50740a725712J345414m3399Q88649K94666K52079J257677J443964q01010k473567j253221Q16926J51961j00926
50727E3501O16577K3958q38013j03439J319968J493300J742433m34881k801887j482840j040008l21138Q79635
50714h92834J053440J02591r70405k73384p0978R48582J46615o07643o42052P44778R90559o25587o64392r63276
50700a723986p08481J158052R34795k56995N8183J208147M37029J954290K149530n94323j513694j186694n75526
50687A340327j288526j357335p90399J357778J250633J091746J49073j460715R84654M26687j637697l69079N99147
50674B96294O67038q33147m89678O28759L81949j380281j442463n02315R41534j8085n12427p66887j232383J050126
50660c211966K345163K82503o81643J289723q39373j418572Q71386K97206l48747l72811J327383J284379O79400
50647A504031j285999j919088M75201j105865j178439J613272P8510r11657K93400P59907k85234k47480N53904
50634a655537l16697J063573J075302r11392Q75311J626457L9172J80980j58652j440489p92462m67032J70516O97631
50620a3319J559599J01540m46946m55573J13060J170590L94210J45138N10589j411218j75728O22661J79117l71617
50606A922103n47062k106077j277537P98340O23149J104178J106345j018895q87732K420891r4953j163996k88628
50593E90126j629019n13919Q81970M99048J463350J53404j143688K63553J60873o66006r66808O65162J657402L78660
50579A794108o85354K5930K041401Q35820j201880k425029j936705j45372K6000o6439J113468K330067r88072p65683
50565d7740m93060n31046J99446o74399K33997J83754J497566Q02531N31340l67165j45634M90143K35729K01554
50551B117016j421978o55607M17234J146781j50775k805513j047379L46042O53783J147786J775768l13059j092030
50538A18069m92534J035930P6412L14021p37178R07469J263304O34913o62649j067520q51882j0921Q26377q51805
50524E02006o84292k28446j064785j09888n24769q51076l36768J517107m8042J017097p04876j862426M54411J910036
50510a014711O7756k78051Q12720j473630j506671N03770J102668K52790R01191O78583j359467j176738Q65382
50497a624408l13156n08R14901N35088q86765n80425R07374R34372N88686m80825j139133N77952m71082q40992
50483a878921J238657R28459K88516o40170o10818k047947n87341K092194J845496L40484j296403m20246J066870
50470C18830j6317J223019P41677q01412O94018k46250p87322j514868j713080j6720Q20114J149596Q46427J440305
50456B138017n33480r79671k083516l652600m46462J415004l60243J130793R83700j53567o361o99038M34996K331042
50442d81386J106810J36827M21652J52267p00380j511236j299200P89114K389185R50934k24291J087992p30271
50429B088017k10734m30097j844664k87631J380141J99330J15178O49860R06166r25971q55568j9085N19046j833221
50415e49233k573944L22685M42392m75724J24101J344189J312652J624733o5364j003136l72712J454297J304529
50402B889465L26030j020997j484581r40774L4691J048945j193j490093K64812K149444L73252k622050j196083p3862
50388a742994Q37276J299814J52467n54536m31464J42697Q34256O36295J283975J598326j119199j01816o33308
50375B201789j427031j270992j279775r85067P57304J686580O94535N71715j81403q17171n66330n30076j71006
50362a316928k27003m48223J906331j39057j333369m59746O06567N04365K79989o20763N60865J071878Q29535o97773
50348E16668m63397R46695m29327n15314l72051N24404O86240J175639J250239p91081k576212M2213O95738M51205
50334A141659K140909n90603k657605j064596M85337P06704M22569L3642l93405j209229J235082N40284m6987
50321G43761K150219k53832k498822o49442m01923m89708j83004J234138r2455n67123p70243M49461j37910K28315
50307a238568J779135j78695j060666O47552M33844j736458j150398M49894P18698j13400J414437K60311J466613
50294A692299P25279q25502l30343k109840j167600j19513R40018Q80773j106297j330689J038787J673052J515145
50281A475569j90580k09535k57045k91174J2669j20234L82052L01299m1117L5017j136065j472222m59465J459249
50267e11582j279797r03774M91957N54656L9523P98144J039057m75512j024309p54936J025464J253753j250956
50254i98312k01493K33107m92656J400419O70631n0640m34502L3460K03662l88885j225466J260052J829618M18906
50240B257901k667376j421207L42242J85716J639229J139855l85757J295562Q37842j409973r71421J19426M87520
50227A449559q13445o12295k73895k32765K08840n4624J336356J282197k69705m87736n75396j251314Q30780M49333
50213I85890O46110M5892Q9591j38496N50319l34613j474939N98154K581234j056441j129590J01717O84516o26003
50199A523341j785250N01662R61037K20333l13622Q8037l4006L33521Q43555j483611p15935J209793k96616j17857
50185I34382m42853j078033j13079J483455J16554L93494o09801r00618R90031J248615j89750r37651j213164N10056
50171A91638O75598o47433j966334m23439K19537N3744M55655p36359r80521L14121J637184M41091J048072M51415
50157G33969J33626K80272P02621j72906k21131j011705k071337J101021K210238J340910j324258k402514l39884
50144a041078K156439q38353q09497q8495j571357o65146J260595O97275k085453o67444J802972J036076Q38006
50131B4540P8388J56251j63704j802260j491050k2295J960890J774756J050427P34061j230429n12182P54671p90879
50117E21185n12248j408055j055733R34198r57966M65974J162201Q24781j09787j28868J252953q79072r54767p59
50103h45963o26038k12446o35313Q35658N81038n18248n13612J274991J24811j622970o54812N37415J354898J221733
50089C01142j760543j197145J525486J408856L54158l83042O43147j448855j782649k54775j72577J282083K497590
50076A012876m95886r92877M41200J780451J099226j372053k632166k63322J188799o77236j000226J39663M35882
50063a335669m52530k12667P99750J070254j79661j157483o95720N67402J543234P89944j41407r03153j068475
50050a376181n00709L15014o36983j579940Q58055K412577J124872L44908L38360q9690j45097Q77222j301228
50037F41180k234161p66802Q21174J497126m73150R84075J78094j178132N371l2370O65923j47780J166864P29028
50023A856440l556273l32418K81187P25652K535409R56385N34296N0009L93443j538354k556554J304904K232856
50010B886982m74359k84933p43262o09080R09428j855138j230627M17189R22492N80132K03083K173545P04021
49997C599473j025496K88284j571189j97670J020691j252754n82863l73035q39855p22924r2840o05319L68781
49984a986716K345792J364036P1873j562956j582231J409789l45035P09007N15187L2837N8934n71986n74505j791714
49970a907688O56053K929549j649376k29051M41690j018695J351113J403957m45679j55329o42928j548082P45532
49957f8934j16519p59441K00677J141775K68948m19971p12599k44535N27472R02760P68580k17837Q3282K5738j43414
49942A235982L07936n74514r67345l5986k29850m27374P45994J488775n59139L22846P81728o1902j293744k118928
49928a385521o62382P35507J879533J195060j944561j381273N35423O79825J050927m252L98474P35806K008160
49915C840726j437968j495772q03640N5336m03761o25736o75643P72170M2325r99159M92102j100209N82942O2852
49901a693435m63330P50104J671362k39604n83670J300127J58966j515127j043110J672177J51214k98006L33519
49888B01187Q7596j148079J70265J291644r80855l14577l1058l80601J90766n5377m43555j312769K74664p41441
49874c192190j060924k82090Q04804R75316R18957n70795q8436o11931q06705J429070J636833J512703L47779p06056
49860C06335j383258M2327K40255j49552L4286j437143O6729O13291J039833J340573J86578q66624j778654p87949
49846b532973O31900J842972q8567L12898L13555j262513j158065J705784J225168j194747p9911n74777r38269
49833a797545K67970K083556J839982J39273j115454Q35615N60523p41243l59064j142985p84346J049831m87332
49820C48781n72889J68397j145847m45744j009618L8486J856739Q52697m40782n04654k321284k442647J381072
49807d237293L586151J762145o13456p80526J222501n89651k7641q98629j731169J665012K287695Q33954j199783
49794A279310n59383j23369p5453j98931K63363P94082Q0522p58788j15087J84071m67654n03666k06307J469024
49780A061734k36722L48023O8141j227379J47152n65872k58580k130398q15133Q86769J833569N56239q27250P78103
49766c81604J89477l11636J55503J63362Q24909P80628j287504R6840o92377p12806J820003J697402Q82831p19567
49752B505461n02286l40918j103047r41928N02567K80733m01217n12343j53231l30843j40842N03543L4074J32396
49738d67881O66434J996868p38066j013913J63364O54385J60155j023867N42025P86478q42361j057547j291708
49725a465634n00279q31307K80836q63046n80494K584488Q36399k02790K527833L33462k15491j194562j462090
49712g52675J108887L71388j186733j869415P40724J928452P66988N72173r86624o41263L04741k40132N09130R82310
49698A607951K25079M8728L20483j843965P1274l60111j868778L38841J3650K29759m82877P31918J675106Q82824
49684A589882k93446K37120M52251j52273n56554j743156j618978p6512o89048J244J478219J287932J036330R29589
49670A882600L13100J82087j643354k077350J199036J414262K39691J055320P74890j52531j373343k12427K63685
49657A865666j208330K2368M48745o88574N2085j084009j191514K69587R78331j28309k55631p01321Q2739J195895
49643c42272M30420m08468N45513o95347l90220o73805O18901J116409O49600Q98702N21086l31924k70878j653598
49629A4119m67825M74523O91923m59148j944065J31790P03215K93002j06130L79310J50090M51921l81135r86109
49615a054519k46400l0656o31722J56682K535017L72323k065065o31308Q80227J722944N11518p45795k199144r74420
49601b400318J927389K225313q89677m86077o96415L63377J243268J842792J59200o69263K82750j871630j137471
49588a06762J179329m18596R68085R98697r34764p23981q21220p99871q94077p82973k61986n11758P80921Q64060
49574a464896J328444L78807m25307J485701p62407L65166J889869k52428q48178l13075k25681n43839n73665
49561C8511J056879R23506o53670N84265O82979j259909j295121m43218K20549K74596j201664j047470P61907N97380
49547g60480J296467j672189J74238J651803j249626k61397M73688j103215m3826J202753R37428o93373k6029O34536
49533E60778O91369k79331j012282k25775N7724n77125p10275n138O42126o8502j41850l03018N41220N33692N0885
49518b45502l86770R78248j64407q69347L52105O2370l13956j445470Q89280J671007J098654L97539k97527J07560
49504A833784j83285M05805R3411j725573j660875j489797J657919J71310l06747j3433L65075J05329M72819N5922
49490b18336n48196l83365J713486O89087M58699o67986k055301j229086j357843J19922J674117Q42291o36510
49477a599021R27647L44706j816674J02885J063339Q71425M82746k236993L43169R61597R36350J487335n24178
49464A344333p91050l4528l015j945973M41310K884968P84701j112766n46893J45744j008069q15281J02936n86281
49450a139864O14632O12151j00819P10942M33734J112723p08623j195699n65343J231533O87273j161963j490364
49437i59687J02301J10035Q82864K058228R4659k333611j787020N17790O02050P68225k39751j242121m85887O49338
49423a262587J497184M39457n10182J413302R05347m98914r71487k031837j573809M77546R09791P86229N32252
49410A12292K41828l22010k32803l58249j18125K536396O18361j322237j265107k66394q40978k54960K57448N90327
49396f24211J384609j062660p30221p25879o16305L11157P49049N66821J23584n64141J118052l63003n20874j4660
49382i68682n84714j27678J706522N56668j56210n70216j81222O97483m2519j575153m09758Q61074J099341N46005
49368H50941m30899m8250k397525j940882J298898L340061J163824N3073l10568j432179J91016n57706j24906Q03790
49354D58688r06612q21289m12360j27994M50810J315909Q96704j083293j669246J483247K408146N2146l39612N76960
49340B282204J97471Q2094p21508p82146l881Q67495N88095j249153j239779r95593P7948M79585k58509k90675
49326i66352p61692P43698Q34202o93670r62654j8615J324904J704898L68517J12608r10445j257461K49061P30651
49312D97650m58416r78310j401704n81587Q03700J198896N08815M79637J569114r94289P9392l16728j586366M07292
49298g72904J60116O85692J19748j06742M42032k405018q19485N36850R59076O40501O10057M77822j562009k34460
49284a268724O57005J021716L91135o53712M86978r07156p06980J81629m20596m35074m5748M53506j44503q76376
49270b266900q00755j023145N64593J040344N21679P79821O08936J079248j182749q68079J52260Q95532n21238O6427
49256i54026L143096J585789J61137j008505k31403j114968k76786J36205J50416M42157j890355j765932M69042
49243a154133K60920q4349P55494j63114N86687R0207O32033m59132j390631J804834K24012N36383o38844o71874
49229C28493K16018L3105J44177J364240q5380k068093r69580O05157K120017K9188k98087J370981j137373j71395
49215A481468P42173l39227m07991O53100J087938L53205l075621j902993J393973J967690j544551q03476j658026
49202b052338l87095J025522J073334J052987K16980P57886n13919q45633j488303K13444K050769j122359j773661
49189a792386M14637j25741K008833K873683R31124p79007o72210m83427j873287O65908J097078k17110M22237
49176B470332Q78901j175530k851739k50691N10046P91740J349198P30150J32787j065440j111464r54322j801167
49163b347199R60632J262105J36966Q63091J410089j597831J75222J088712L36554l6606j78276j15275o62463k26272
49149A069449R38328j94420j222384j0705j936394l48696J487160j48259K37823M02522j169166k51737j842801p4428
49135c063708K161446J934273n52850n7232J60887m6386N06768q37821l10212N49926J437743j219371j880416k11596
49121a428549L41481q09502J67526J266521J337431j598045k222088J088459K108021O07838k334740l39829J341173
49108d74303m52364K61342j90850q09540J5441M90979O54485L29410n31364L37980N70695j523032j184852K99497
49094b206476j188711L62299K771672J532358K46586j404425q86968J075145P47507r55288K94935J336695Q67908
49081B593237j878749j787445o58995J226898K890698p02906n43038n23299j607482l17459M9034k0031J262689J9632
49067B784J174091J80543n50489J142152o00116n09111p44046k52664L99101l90318j462953N39712K117895K45368
49053A291949Q15849j14434r41716j43172K0510j027101J298474Q82220n01388O72308Q83054k18637j285104J13996
49039A746808O69016j28851l13978j244672n82230p95038L22887J912664O98186j223505q50294K10847j920495
49026a498655r71992J86531J469624J078996O08534q18115m89449J91409L19677R13944j036069r60988k6376L73448
49012f59481j809878r32407K84208Q97112K97966P7637J358377M08192J9924j042250j227687J82687N94889J341980
48998b08731M7L53174O69973n36400n15738m82143M91052j62159j245919J680609Q83830l73728j500263j289582
48984b235978Q45338k22550N1581p1185j034974K206405J093455J010517l29614o10717L09403K49009n02892Q67925
48970A625723M41743n03638r39510j378681j16508J093239J12578m63095J777497O97378o64013k85156N02852o29513
48956A270896O19343q66036j492672o80333M34206k24328j32936R89242l19831M46041J143441q42952Q6114P06941
48942A137136r82176j637405M66007J306506l5644Q87370L30804j51631K8126J507983j236411j265782M26636p64338
48928A7181j021932J696012O04161j210849p04201n83329p7073J837013N19223j284185n1170M06183n89945J721558
48914A278647k38626j715257L78086O65339m20805j19396J309790K17232j045015k77214J278094P09189j486350
48901E33714r84436M41627J773273r9591p31863k09363j251229Q43090O40416j42289j67858J046214J020475p221
48887B704959O87405o55651j509575N6990l53513n61632l57003Q33149L74022o70884K4726L11044j391071r36752
48873a443786n85384L31528K9655L67812P17251j87876O1406J053748O34524r28451j062324j92008M17736J473271
48859F87102j258156j045794Q68048L89599m28872Q94930N77431k81632J021144k115r15464q5589O69028l44666
48845G44994j349122r43031O14855p44164J25083J293206N11674m3222L72571m24284j96633k01776N33461k78598
48831A5014k126677J27591K481396L98363r19100j156666N44965J440721m8244r06015o6274n9151k83626M81733
48817g5970L21819J099886k054817L50084m27622r85271O75718J287753l7705M2887N75276q08240o3245J068984
48803I69537q82614j112709J132981J653836L31598J448624J441914J30700k148743j410516J33529j746932Q75499
48790H16704p11504n71670j89170L24603q13091n039N46844N96297J072591l30245o86158m77772N41570L23394l3451
48775D03903N54025k34374p06089r63185J46049L49005J086320R09804k01208j787401j035740O95830J232902M61975
48761I11816J56472n5141m62030J74314L80275q78662j76296K70208J19038P02308l25212N20050j980051l94413
48747a037324J467719P23044j95132r92438j273785O59284J516477r4920l50833r57797J329898J354806J267455
48734C416454o17545N63532j681133k245662n00518k28872L08003o51610k48856J394932J092753J580762J658354
48721C840594j30348k360442j709648m51326l85285K7836J645533J282314l43920j379380j474387k15230J192786
48708d60903J580242P51240M17562L27126k121460k886669m38431J465789O49715j486612J0020O77441N64087J13281
48694h37572J67976J249088o75948N16739J129717J21432k79947k22549K23312j094012n96687R12937L03336J526448
48680B444270L16442j013241M19544j023034l16917m1095J468745O54010j957125j364819J220681J741900p22240
48667A827121n28945k4774L54749o43588o55639P05155P1331r02014q68751k45744k93968J046582j269216q49517
48653b277218R28063o04803K24283J131274p27374M45522K589748Q28278j117360M66964N21272o7190j935681
48640D05778j733908L54689J219797Q50680p45575k57214l61721M40855R94511p09907j77524R67016J537087m91579
48626B292985p00298j846093j224099J343445j75298j000354J96105J381949P05468K7209j86135j835267j537068
48613b557451n59845n12844J236911J002012N49150J92525n38377k7345J347306R68569j98443M45481j722815M71814
48599I6648J026569j83325j25993k01947j685079J72709L91047l18239Q34678J283303j85146r08857j261472N47655
48585e17449J195025n36497o51794m50902k05671j48629O24528K93399Q21522Q85872j846316r40874R41314P68430
48571B31958N04157J35772m09177j262655p59457J003692J220082l96632q37836j205109Q19864K137086J163507
48558B345252K88214j942058o55906q94242j181151m01776J190326O40093J086622J167052k013587j083689O49745
48545h05105J568321j4130j550764r71890o4410M7830m32191J377686M21611j248237l73541K034482m07283n01139
48531i18760p54709q92462k40752J67763K63810R19101Q41339M52622L92495l72481M6182n67071N58510J506496
48517A402083j72568j045103j131860J154865Q47008k58440j014447q51240p4488N33994N50609j306426j966944
48504c332957J287183J730879R4175J35011K41347j384493n8503J111343K57485j160386O08983N33184J549917K1604
48490A634772L7261l7673j381262p828J804569R3612j4397j52203j468941j9041J304989j124965l64050N33260n6561
48475G81542j600075j878402J087010M49859Q58754J212263j230748r95459N95650p44053K42394O74484M46102
48462a00679k62103J38164K9082R05494O44419J24307p90202j505970j013005n26516M42872K44858j224511J53724
48448b740066J108767P39074l98493R56341N34312O65923p8349j625009K66621P72631m89156L7036j530229r1962
48434a872559k66778J616948J934779j603009J64253J891471L102m18353M64829k99528M72025n67509j709781m1863
48420b31973j086276j248261J179126J74514r22116j27948K60505R27634N40542O82997O12322m88981m29764q57651
48406a015330N22234P98721P02875n99136j90604J468255J350910m43172j125707N23845j321019j416581m38586
48393a183295j032612j140326j13393K0783Q05829J298502j355872j49614J937984O92565O86872J30490p93215
48380a95302o77073N05497P55871J91104J508133K48207m50755O0719J356885J065238k545037n76288N39390k75999
48366A510590o33030J67200l18620P0668P39620P08035P24047K61642j298060j645297r7159O6986j157695q72822
48352a773895L59229J50621J578128R91741J57720k87578j107356J66400j67123o15769p36744J552437J038490
48339A306301j671061k616666r0043J12185L62189P05486J746539Q94058o84746K1085N71547q71457k364803L84145
48325b195241O47488P28456N1164O27163K67532m01367n13198M33911m24295N11481L36065p06089L63857J97116
48311g5957P2745R45811P69212j0976j468242J4503J488312K35911J048113j471871r54873n39900l35514K54662
48297b8064O87488m59030j25093P95920Q46874j56423p50996k35416O0570j67533N64518L65225n87464J923154
48283B733730r29779p13794l0919p65075k159o10747j053471J260238j73454j159948j26340j9931n08593P71429
48269a328813J630972n61259k096741M96594J163766J43892J389822J057572Q60401M59725k022787l156126j925974
48256c888956j586012K064922J206319J462593l9926j691877j94631J08235j191990J969700J649343J160618J546272
48243B574610O33778r17517P43748l87836k539453j752814L54946J342577J339419L89893M55782j624316n92986
48230A9831K64486k62129M94073r16M73878J077434m42162j057541L04829J98172M70135j27183k35417R88644R22784
48215C088918O3268j792753k066150m71089k31584N76306J234576J095242j349245n96081p685J444603K31487p63643
48201D56170L74098j352785K55322J47706o89694j39559P48206l09528j9714P66581P91206m66799j158797n00493
48187a098080p59771P17703M4637J846918N81104n75076j006312j254494q22724L48964Q52537Q33071K60998j87508
48173b18033j403061j398030O77251j13289l46570Q79675K250143Q53349J38164N821O7664k71492P89677l42203
48159A569066j580386j7936K018421k98790j024929L00183N51675o03771l26716J81265r05784j361413l97449J50937
48145a745627j157326O77666K556777J21451r56446m08842M77513p07104J457965J264534j512996r49256o50670
48132a532361R46952k76181o1860J12030q5768O81930j141450o85588Q12470J656676j8594J3133q03964K59048
48118a23527j21904O07972j040218q17438Q90382J081063J489379o53329j257770n04531n8648k45733q27919j210520
48104b792741Q15545R93219K04408L81317N02473J544378j878981k406430M56749K437392P90256o37631p84050
48091c74096j954344o15098J383725J298170j726370n98006O78041N5372J866873n11365K42749j85190p52756k49480
48077a441775M24808R87188j438358o56953O86806m0199r3770O64582J145393R67044n39623j44874K107915K319137
48063D947321K52100j297483j232918q03350o08376R2472j261129m02525n3459J036307n8273J0531Q30882N57042
48049B009142n34999p80736O957P917l1421l02837m83864l11272J35026N11485R29762P41024J127322r80869k00967
48034A841670J925403J127481l16956j994232j300848m7998j74197j357903j04664j016871L33256J163599J348555
48021A426295J526577o11189p87443l85726j033812K19498L64143J370691l47778j560921q95186L08272j381604
48008a788183p88497J366066Q39465j271579L64354R39996J561659K5877M80059J55843p28900l12556k68711Q4692
47994F59585M75819r92332q68279L44244n76485Q90147l3182j1993O16738J64251o24598O55164l83213n6174M37060
47979F96752o66821j313835O3588N85960m69342n91160k66672j92756K85942j28615J23320K41775L84979J248862
47965A977q33844Q28708J835214M72532P68888l16293J04760K04431j412205j163206N46794J554822L26826j037605
47951A881799p55597M72124j2390j40730q3822j015287l26662j41477l77335J704683Q95811j184105N69238j091154
47937C95096j051307R82757Q28244j9573k12376J216123o82132Q1416j947393j509000m51587k19419J131162r0428
47923a548417j83986Q75355m46401n05646J604031Q74512J643980j254484j235370J239616o52199j420376o51155
47910a660540L80020J226543J35085j183349k53847q09071j63842o37428J022863K059809m15411l57345j375853
47897b032366M58445N40943O64922R31529j310318j674065j303245L90824j165469P14884K990664J285605l73854
47884A18499L80980P37229Q83075j071169j444338J55875J293852j48817L67914m24890m11529r1405o13952k96406
47870e65082P2865L74764O33745J231432J112954j508801k091584j042457M1815l80897m505K133r78866J377789
47856a724695J786525j59178q21712n93717j98257m0722P87774J118469m42163j124533j6989M90423J558454L1098
47842F50777l06072n14790j144214M74014N69855k3781l29954k78241O27560l43145N28767p42025q99850K381103
47828F50004N55356p68726l8199n98766J48589J455746j72759n10889K33749N74989K12072r39077p78256Q125
47814C1958J853352K88371j244671j17798m94129p08152j221813l29033j386387n60497L65790J19408j90994J579501
47800b015094J546779K53378N08078P88971l73466L14270L0180l99234R62848Q71094q66490j888019m39156J24060
47786e81801J55671J78290N35709o3436j35037K95223p47870j156418P18432N82483J007677L92815R08981j594880
47772D95839k282358J50294M71452N1568L62555K27116k18024j50425l35397J487112J445071k57264j506876k4169
47758h3506N86731m73483m8607n33363O01307J573081N99383j255890j304363l33034J290399J44831q39620j445184
47744a521318r48018J962002N04432k86802O6367m33592m21453O93670Q03989R25537r61792j344450m67263o96803
47730b125494N11588N66179J54567N4414j409224J8235j7589k95392N86064J127656m59422n21722J34152N06765
47716a169223J195613L03751m14397J01167R026J098231J534515J146936j231651j475856o14364O25935j36018
47703I73665P99250J006901j851806m39482R83815k78956P02698L75946j138335m76045j62976K299609O90694n90452
47689B894526p06326j271352J516624P15803k513783j102453J018588O82302K101944J54401j289490p26014J2354
47676A487124n57743l14177j885574j785230J373172J199210j18333j066613R44250Q47077j10627j729771r8654
47663a815889K247366j255168j887907M42607R46809l33150J24201M40821O45838Q03830L81442l50268p52897l74957
47649g37322q49072r54439P9296K98464Q71233M92920n4875N75011J82316p2067J280695j284373j441800p3001
47635a687014L68073L87124N05370l11308n18812j40687k77833o44558J93606K533695J78265r52204M3449K15422
47621a07412L77981M61214r8586q48562J506929M08549J41519m27522k009286N3259Q23110O1457p69654j902837
47607b329841k09522J883679J844287M61226k99486M44914M20858m3409j343501q41462M77931O67678J48224j268081
47593A3495L06479O24100j768508J160845K066769M12652o85207m53665n78100L80717j483194K71197L02429n99212
47579b9203J15041l18283j343952j536871J373346N38137J756994J970256j129789k163575l93131M28208O02922
47566a29900m74595l14746j635440p59918j9133J463251J609886k63676l26191R2774R21687k66878j667717L09988
47552a460608J349779K69673M9496p05784q27559n33797J882254N40882r79993q91061m97149M19219J273432L50159
47538B38943q00747l23543M06174J432051J144310r66489j822392l42721J959074J721567J136865j26309l63403
47525C293380j198855j702582j78513N47692J409640j629578n31510O81777j57046j154474p31078J049426J274154
47512I72433O57170j866190o53370O49430l49969J194858Q33537L11940j342629o88231J285057o60838L8889j95058
47498A87029m28982N75934R56429j060747N3800J56524N1541L66201m68311j064966l42712j070501l40969J066474
47484a363256J332525q73705r88019K00174N92115N54249l98797J016010p51155q92414j27081J614096J098279
47471A013021j424593n09275M75413L23115o09852j93084K1458n85738o32739j077870j292365j5692J152887J033604
47457b321710J368772p77615N5339R19113K96368k77922N2925N0452N57904L07567m56832j467248j37289R54536
47443h75640m81568O86510K233764Q39622o58885R0380j079997k126069m59174L661559R06531k267300J24509
47430E94242J141127m99576j380422O12741n49696O30556o2128k93651L00223J081906P32890j158524o21943R2605
47416F20350J309565o33206j089633j800698L50943R68030k99002Q84448N69347l59129r5129l09302j333968k029882
47402c247266o86763k61366J302382K842679Q54817Q6295j064149j371510r92844L17692J421816j67924N24122K7936
47388d14083L01322J927394n84067m44364p82633j802723J128960K377749L84560q35265J137405K66054j819876
47375H40433o33138n69670p50850M09142O89095K32932N94015j040609j371471P95753J206702r56860j062561k5855
47361a642942J433002J310020l34032n21272N78835o72880n47763K37041j87763m4300j391474j97616M16427J167776
47347c96941O47576J566630J858087n7625r31229o00814k290185r66489j50538J362247P82443N79501L87855j770561
47333A9957n65401M76082r59866r56045j586601N29504J370086J408144J829820j824065n22724K0599N14167K77128
47319C0785m00990r88055O43042J938901k31519K78952J635443m97160q91916N35058n25328j319633r58800N71226
47305a79994m44772n33638P61530J197048R4545r83579m45147J290800Q03012l62031r09509j049376q59892K42883
47291a378120p32412k615927P78617J849909r4637l68397j266734j56449R28913J36574J577204L11821q84655
47278a914293J317371J577913l80814j510433o84119J22761J119704K765979K30856k286062o98066L65691N54226
47265E80714K88985l60117K101190m08177j695864k95785R52648J54447O6900L90129k7083l92719j368443l36379
47251c49554J90945l73906J51738j604038j978268J180638M76663K51991J055652J870098J330211K45610o13187
47238A834593r13150m74814J042087Q83417k49550o87597l31564j043255o33983j495628r95651l98902J556176
47225a907821N17577j84244J507945j42052N3896J918061m04453l46509L97683J06405l14933r72957q70538O24863
47211a7077K183929J456373j085250j300362P4916O16535k95505j490323N2016j037118o34517R84974K776531P94553
47197C079675n31617j067653n48066Q83381j130457j043451K24030J34598j547116j352368N81923J258181Q25505
47184b33435p996N5596R86327J050963r25841l16766p79918m63943P24349P28202n33907N49670k54151j512837
47170i33687o32193J508684J206712Q26791J029159k63209j599651j976944j64709J315359l00380J39718J126992
47157A282642O73602j604389j076558m17495l41534j511522J7053J582079k11819o47366k74609J28082O47905n89457
47143b343386Q0517N1021n41097k9332J373266J327901J061567J851504l00353k621444r86387J808105L67303
47130A099185J028376n54622j995806L00506J455850J334883p28887k067750j686099O82353O79428j039854j713053
47117c205490P65408K635504J246705O09609O21011Q60685k16324K76741r30299k216313j756557O82978K235822
47104A609480j260183j190290q3314m4439M83939J581938q78042m3179O42238N88650Q60139K29595p49309j31357
47090A615866q62588l33449M75954o48752r46596R52472j107123k37066p8180J618342O13831j146203j333862l38286
47076a755640J428794R63257N05610r22846j451124q48942J119232J397832J206861l7362q87325k18044M1759
47063E42062j657608Q97813J070080L45406L14585M83384j79250o82228o95262j5617l54730o30950J177653L08949
47049I24287l277621n30189J696929P22782j013248M83802J169454N34672j068676j098484O17534N96899k60592
47036e02451J35083q1490R14530J542413Q47948j560533k29563Q12159k96626q03927K15573j101855j040274j18285
47022a267298J371557P76268j260657q85081N94220J381571Q89495o5813O51961J81383P01591Q7274k049861j485516
47008c78906k24386J886885k47072l88960J168835P0480M5625j988674J12211O6155K10556J195933O62600K64163
46994B455445P66559j296891j730209j241382l11475j646260p02425K362935P52243M11337p66723o25003j89089
46981a760938N61484J83833K138946J315412j260486J06037q13933j526124J310515J533825j450598j065359J0407
46968g16979j608640j460765j83685J529527J138334j84527O55128O79940P75777L52772j457665n92099L06349
46955g66533j483550k435537P70378J880185Q9843J97454J88385m52670K46305j56432k72525J110596M45880j35786
46941g74007m61586K46328p32962o15185Q47998j04463J102012J624733J028077l8896r65733j683068K43664Q72248
46927E89160k82361p25530r29869R96672n28193L87904J959819P579r13688r7363n52708p18513n54779P17796
46913f44074J423615j011388P4177K74186j258933n95989j802778p38177R53811J788812K283520M21646k97134
46900H71294j816234o78777J745271J246176p83478o3115R60627M3845j160010q91346j415704o01224R06169J397623
46886b38883R13904K045539O35568k3478J456292j115274j357345N61148j003830j082082l73163q21586M00779
46873b411J616019n07185n81462M0403M48594m83755Q68175M18191r42886O89556O69650o02213j065433q36754
46859b71511j48433O10140P98369j442201k687972M68986L260387R74327n16344j95120L71995J421161j073442
46846A570342k573859n20204M53968K191791o1942j566832j060508N53925L847359j448131k161431O11366Q29841
46833F65685o21016q18441O38613m76003J76172J466875J37340j447500p76464J134009K14950N60368P8241j968077
46819a035248O19630J875197r37991J80325N85790j012033P59705J578943j045318q32944j174665P6825J538413
46806A176629J478881r08377j817985J376941m56401j752279q61869P30473L03464N65208M08792N47364P22603
46793A513444r81137l15321r85971m87809j428715J588340J868266j392876r25950j37176O15777L33233m04246
46780a140141m84565Q72600K22793q80019J857501j14540j437741o85379K162086o27446o95369R34680J329172
46767A313632N54806r52180n30636Q0002n00500N99937L24194J976552J988174k369273j069538N17416J636425
46754C569011m45469j68493j755982p80658L74011M12620o35380q20933P45068M07705J143456k10437j262291J85493
46740G57721o02207j642410J10109J061076m55008k51707j330840M55779R25641N09272J010643J069049M81887
46727B099005j526607o88468l95030l26055l85818J52965R83089m8473j463336j738991k4188R68262J570680n18602
46713a341567p90416O85509J397484O8625R9365P49982p89597j465889j664521J825912J195078j211696m04296
46700a646027J966543L85190j95757j327229M01402P8120R55844P03144k4886l89221m90525j368790K231790J374862
46686B654460q57025N5113J82348m12300q01532L49647o52145K78518K235579j008630j394376L63477j064964j34131
46672b05961N19958m42870q60064k13606O2544J477439o2417p91256J073278M34543l96965j49230k79943O67053
46658H32503n2478l01287j356959P26391N88676n60401N02370j116876j034014J698520J962638J326840q26149
46645B389774j551594J92035k59661k062346n22885M1307p0394o26861K55736N38148J979040K114528R36558j085937
46631B267448m56399p13393j147657n15654p40808J057038k9583r23464m93347k32657j409553L37078N34138J46612
46617b320201n42451K86151j586091j542387J244614K958982J715695M69770n6129o46089k58237J367724J024047
46604B115398j272053R9222m12193P54790k87186r12804k31657N66839Q85623K7887O89174j388380q28540K18460
46590B4580R6742Q13566m60486J72214R75251k146155k007232J329754o1049K61793R87876P2196Q92061O15191
46576A566302n63562q92226j208997o5932L22497J98096P56677N76187J078457q91224j369988q58326p59009m61036
46562b572084q9051J497935K28586k35805k5465m72169P18596m45439r8033J970684o82368P75848O99984L6876O5963
46547A374058P99218j335936q32994k40689j207795l28657o01024O22025K74838P11372O96751q74920j19943o85866
46533a749562q62106J370436J004092m61988j10283j378241J8247Q30703J942069P42613n62038p59443l46592
46520c22093K001208J63731m98647n15504r58337J473323J053326j058991P07776q40501k620049j108002J338938
46507a183822l02969o07763J018664J35321j086824L18319j02366Q58064M20700p09963J016014N13988R77607J57436
46493A422406m90090j448950J86952N48031j633096j682955R54251K871811N35289j058113n66580J250432P08815
46480A598203j735101j98626K16799j51966m53984J38730K691M40520N93329j17702o75206N56475J293899k45502
46466A262559j104113r39402j491712o37804J620636N29472k94566J590540L18291N16606n11103R01389j390045
46453C70748q83297K093838J037758q39354m81838o43445p47051P67482J458339p53929k183696N04694K3282l16476
46439e92945J285437R75104l76266j139858j139401l66826k10919o43919J46661o32490j333383K85407L11983l32347
46425c763762P22542K141081k92156n96220r8113N31294J010085q22629R58398O90099k025734o09130J221761k63567
46411a196051q05406l79003m53065L197934J553399p81294j18180j725485r74052J90692L56532P73142r47339k98070
46397a606246J133772M68666o71693k4589J065123j432591o32937O82559J03407J109983k23505j482410J524287
46384A3826K057734j40112L43621j283077j270793j589576j884792P56901K61445Q08839O92107K76986j199317
46371b156208r30070K5238L8886P03421L14818J69435J12492K327256J063609K53909n92223q66004n31020j002768
46357a069229J608821L48588j047457r93442l1525O15718k188491K2334J917196J205111n89817k59858P93895k03319
46343A28525j3283K32326P42150q43861p53734P86503j5090k85832P54249K365365R60541j730514j316680k57219
46329G53446M44562J89662j851987j354480K156075K696595q32471j684387j595907N4217k46924j161928j68021
46316b601548p4976Q39477J490306P26150m82605K84347K46886j76680j179621j012442l51801J69257M48047J435536
46302b39667M98637J515983J299203q52162J387502j369462p46686j15303p93120M20344n06114l53951p95491J82006
46288d68281K75823O58487Q45952q034l51035n49071m07611j176002o30308j10729n61829l84475J435857J43026
46274a288230q07516o02891R18228L97416j146725n4358J179678J374262J495967J378437J386647m24008j709393
46261B097514O89180j375397n35662L88451p95898j353967L49095l9513J025541K76305j246022k67071J8583J45592
46247f23269j48213J391179K05136j167365o56583q03598K17614M36644J072415n31008l79167J145975J564544
46234A724304j741314l6636l25732q45786L32821m90616J451366L70333K74726K15859j31050j58636M09840l49485
46220F99994j55757M40334k06505r82123p52117q19838O57571J491175J343790M11282j026578j034672M16937Q11189
46206A294682j233435m04724M8428N92928j2805n34775l62765k79634N82675J284643O82872l48707J79216k84976
46192A203623m12478m85047O32273J189169k9502j090144J23325k338305j019286r1237K42076Q71368P11113k77552
46178g70604n44626j004852l02552Q31909Q56785j112873n69035L042386j060891p41557L58893o9854j271081N26323
46164a831629L137155O35281r34988j95913n39042K28072O12600n73200M1131o3610j24851j47183o42459m34389
46150h33025m84418J30388J416162P05909R3819L0752k63600J61012J036565M47919L43631k62144n47834j401892
46136E73244j265598J243633J150962K215056K105362k204721k744226p62974J02821J01749R32396j25594q23364
46123D98746m61868l85799K43092J476522r22329K08209k6320l64365n75595M61438j413798j651867O83689J580868
46109f49377J180732m43489j620737N34171O31282r4909p96161l54349J004824R21605k78883l52345n71659N23842
46095c65453N22025j3858j54811O38410P81118q39122k261506q30286K84889Q03983J125426J699475P72142l78344
46081A784088n68967r63423q95391n76805o37046k57391K89731m74292J65199P40324N44424L02492j418049j118431
46067c083537J210488M87397K9532M48329Q71752P89400q71810o69221J8888j098648J33287M00418j578739R43478
46053a968986K072823J27239j293698K62591N77502j72974O10589P37075p2740j51552j24268m99695N3697J700003
46039A857606J426472j575468O9661K70749j439827k62931J984322N59342j223465j621456o01627L61088O66765
46026D71231Q58529n27149q26929m1687R62289j076163j777562J058095Q74107k43005j058498M274J693962J699997
46012B071491j089669j104858K15427Q10561m77294l55423J222125m86941m94489R0177k63350j12427o28105o93552
45998a296327M70136K30402O27509j118588q78696M0830L82934P97446M17404J331537J795101m99937j181940R46861
45984B064672l58979n54388j531001j43621o21002m98638J069060j222843N88943J115061k3864M01463Q33663J95062
45970A313588l08430l00723q71830l56723K69387q12778n35800Q38551L62083J820665N99114j314861j405444K39923
45956d63278k54929q0623L63610K75838j47015p91407L13923r49560j539778P2350K532293K545322J72039k49588
45942A799197j83748j652077j218713J220242N36935l8638m04857J3836j44958k40698L05224p87016j5007O20990
45928a89288R23239L88660o22796q2392J26209p61019P56188J549218q68353l7888O48894j600250k706096q75984
45914c351658M75312J215632J642840J005337K70731Q26109p82620K03194k50486j260015n84880r33188L26530
45901a197162J376518l44484r47979o03521J434060N03324N44974k6011j477889j038970n89541J304302J380586
45888C18207q66493m56548R18736J405845k33997q71379J035754M69705q89230j231782R55337j492761p0587n14325
45874a523518J661959P54902M77858J132213o29229j631783j56875N82779O70935R22410m20325o79669L07419J18993
45860A588069l67917n83069o40292k12329k54588l75898j409587o62736L74405K80765L27365L36393j745449m28194
45846c773062N27251J640339J434786j73433N65831l03166Q2124O74353O7481O82486N22429j736526L8991j15360
45832A34524J657626J137175k76044p72468p99185J368732j369420j660784j119178k088523R53405J437204J14812
45819a282124q55945j141947O54037k87614J526746K035449m26410m19111j172929O0914K9263Q06968L56115j104377
45805a220965R08089J534372K29538N65266l82177j744163q70023j247840R7375J141937K5454J79947K76780m43810
45791i50220P30247l50235Q15264L30927k28753o61027K29716j80197J20189L89444n06646l61597l22976n63883
45777a509747M42695L48600J159136N33221m43293k030780j917248o87787P43935O51683J072345l62299j829893
45764c829432Q23058K664824j060200K66556J42317J03943n93755J71150J397118k10260l15076J129734Q46413
45751A536390J321155K79797L81711q3256J42054j721980j415120j993485j52916Q96657M47538l2854o83923J00149
45737i78083r10751j639874J947515K124895L12965j399519k270758L73141J829029P00795K81181j299112M25538
45724e03038n70326j338060P5273O47271J33464k04637P60606L88564J345068O66354n60173r10648m62274K11828
45710c20728k05426R0158K294882j55975l38551K81243n69259p13107J256769p29483k989562j736695Q04282K161510
45696h69942P3869m96253J107449J248060r5588o50761l77654l32517P740K53271k76985m30637L18889K70910L53109
45681A02960j847783O24756J231363l12447q95409o23375P85006l14390P54597N85117q57261J174706L12311K59761
45667I79912k57552P63838l27206j569821l01075j69506j452560n46568N88917M60206J443191J003431J62355
45654G77562K148716k66171p37551J54625p89894k66909o89116j071475R39723J077694j313775j266253j375383
45641b678207J117775J281556P11512J063401q78721k01675K183371J686034k202617j087189l33243J107320J668669
45628C437986k36056n40596k21597n11837j046933O32470Q10424j160337K90698J12623J25617O40158j007014l52503
45614I73103q62027j90924M94581Q6086P79610L61447n57588J03432l00953j974375o19622L89486J019748j43727
45600d41723O2455p13179n92763J265357j78985L76391q4079O70114J597631N63321n90839j870414o57024j087476
45586a681213J203223R33166k75489K10895K53238K17487N30462l69403N01807L18946o4055o49631J25456j292843
45572c7954L16536J494430p28665j264357P68221N55600j700751j007718J146706J751313J65652L97831k244824
45559c87980j167684J50370n50258L08030K38448J12946K94860O14977P15582n40566j566928J99350J895163j982423
45545a666113k14068J713161o25747j362053J284186n94636n78209J438540J928939j31010j628514J678094J574629
45532B817199m43049q24824n65962J736650q48259k495669j749750L99944N14312Q91501k43040m21836j87156n24421
45518a944360K054486K952795J75395j059874j254267j326546p80443J0461J27486N61101M94298P03359L74154m8137
45504A039908O29585l85351M65750q45323j78026k838813j740460J256371J588575K63513j079401Q53520J715311
45491G45159J230479q23948J22909j80779j320531k18422Q31794R46609o72644M45060j92549q61531K46148J587994
45477A885748m05474m22029K4448j362199K32875o25856m62252O26278J56584j041361k87260N39356J779262Q04056
45463A442176k57541J22723j577331o28338P75850m59973P3580J094551J870031q35844j463620j574826J039034
45450c79528Q86894n42012l6190p78919o60662R51053m9317J15822q78788n06670J264045j92878n50030j156156
45436b513336J294252M22785j32083m77162O7948J57732n03161J505158L1172j156942J94150K75125Q69944Q12597
45422H48179m4901q96980M76092Q75344R5278M7175o72210l11167j230236j02953Q67582P47355j764394j156049
45408b221885N38757N07135J217285j666831q5174K660401J084822r92462j284680k69943k10286J286839K191415
45395B755393m21666j894983j26042J054779l55807j430462l84525J611608N39277o32459o77156O49272k72751
45382D14478J64293J26990N53106m584J23133j60740j051570K74613K86785j750909Q08623J674419N70523J266161
45368C295321j286397k330041l3283p58082J022379M33021Q5675N57309j17657j147198n90797N74887R44537K93882
45354I43556Q91913j996334j906643l49434m86466J291549J616924J008981O1793r19529k245894n79380M89625
45341b179339O74169J797285M60965J58091q12988O320P35415K16846N53949P90964k09123n62991o14767k410063
45327a395267p36659l6614j068385L89022K028262J346164j128064j930816n23931J420274K68978m01224j065744
45314b834004r58511R63293R58523n60553l18109K88188l57519J631133J810503P2623j137303q03607m92361P37248
45300a000456J206410K43448J60162j492569o3675L41477L29622K63489m19882n67447r66748J075288K89814M01531
45286a99536O75204j397069j61395o6411O07204K208Q31823N30944O54013o51435j364574j550735M34579J283254
45272c71926M51642j066478p25993J661649J697586l94592j86728o65947J55855J68605N18896J917494P54222K08807
45258D123092j384300p06667m9754j163762j18246p82344J427917J906140p9202j704922j815760o3973K54636r27425
45244a084570j38445j1499j1053R80329n62371L67871j05270J231808M971p92405n93126N60757n31745m81440
45230a166188J754988K38107j520447j472070K48321K022485J718538O58233J550628j106343k387802q65211q64762
45217a191523L06853N02267m23361j308143m77365J449089J70280N59430K024535r78283M35135M08631r47830K32278
45203G61993J068219M08022j540928j897086K148959J854822O93616k92545j848829j472451q23556K02005Q46931
45190A09172K158906k68464l55515r31494J50015O47592q32139j055584n95111O91927j081177o535J369195N79554
45176E80342o66541m47089k06926o4342m11634K79686m36875j154062m02326n85283K65168N63514l89354R30780
45162b144942j562233j89194K026874J749877n05788J101120P59347j90781p15050K94327J95183M49795L55882
45149A624417L21819J78233M57571l88827l173400j205717P41999p4049o98282j386020P84672J144906J29886O10991
45135i31801J334255n94446J56565P15631m9335n92901n75536P05871n31118J223108N22481j073568j770786P1619
45121a389961O38936J79010m0210n80169J39426N24532p9929M75906n4693J426227J430383o13615j406380j954129
45107a304666p77303l7313K34852N22514N92645Q46811J296512j89983j254871m28209J313175P4429k45832l58880
45093B83881M83548J44399j630713j092288r20611N69639O3679K54950J00747q3661N01674O35762J164329l44578
45079A30757M91584r0982K65039p05710L89064J118894j21322j583085j552421J621259J250430M6255k30381J09068
45065A138449j70477m45244l37043o7412o87963k6693p09483J488099K036608L01733l33505j748434J01036M60953
45051A000624n83566J090806o280j882680J592169K607739m43842q63588J257268j335843o37997p52511q72758
45038A69541M42302o73306p56055l68699j811746R93430J080494o01605O38022m98552K57760J490421q3227j727929
45024a449149m11608O69207K394541M52304j113728q93830j077007L48402p16453l91688M66669Q6496K31829N70123
45010h33892L17136R4408L16798j781904k071074L81506J214002m43770J086091N56440L72666J673726L21928j05618
44996A098443j31657K78356P5509j595071J344203l11002j193162J161529r7655O79881K59640M38288n03880J25166
44982A628588j469656j285126p48123n56881j19159P1375R79264J697941J571980l40748j137338j24393n11308
44969c43584j953295M97128K29117N71519J551557J283899O32465o35575l3691l99780M41970o87657j185883R72653
44955I40843j84284Q9003k83188K81360J545432n75860J696179q10406j483383j684424P56795P44306j111791J33452
44941E4034K028151j032198k328782m32612K31702K123757O7291o92764J124575J9489j504441m08269O56060J667145
44927A573138o1387J49282Q22912m88806j579582Q20937l35300o36889r58139k57529P21347R69379p60777p68043
44913g89457n72067j99839J381638J472853J69830q67785j372891M50262N92699l46337k40559l6852p53657m853
44899a117015j297716J21121J338732O85826j00208o96954p31599k06303m25355l45249K53J268879J254857K27676
44885b3055k06930N19906J205462O4903j400761O12N32581Q86110J698221n93536k443249r85637N0812m68217O99278
44870d63500J027702j72301J5544K41218K25558j399056j581306P5989K25232Q45866O70715m25017r12474j439880
44856c065710l33430P32167Q25067J834724J24723N52355M10701j51926N60847O04007j514539M97922r23263j544340
44842a390695J000956n89149j704302k53027Q95517K67482J97150J469449J59412K37284J021939j323518q98018
44829i09520m6421j5295N50621k21703r85265J50842J170223K25082q5025K15851J03303N45643q14164o93005j16736
44814i25569q52485M8134J057420K91676j186631J491766M71001J070223P9243m60644O78279J2063j382359j168561
44800g76444K25256R35042J044256J165665j519376k276928o92032J01348l43587p70121K218722j24401K16561
44787e96039k62396j257117J295147P91333m84266p88969k78199j13568m05987K047666L55372k467316j147954
44774c312293n54993J219447J716212l37216j02197j615453j91791L77795m81114M94625n08155N41713J061537p2046
44760a763929P29836O82542m2549n5485J76170j091456j41587Q73518j66693J155304L39756l32143j149604m78539
44746a264859J152476j77394j968768Q23272J435293q3547o04572r97269N38548J425900R62389J548606O71020
44733C461095j397093q70059P38498J045395m33695m21581o55227k062316j454279R87679P35413J71782p6782P38209
44719E07039j25059l06449M77232p43919r86333j89072o14549N87208K53878J499809O00048o65897n01552J186166
44705I78550K02573j286683m13214p82708m09276q63124J541397J148167l47527J08934J609793o00381o51065j49646
44691H5790k6098R51649J535902P03521J87685L75155j745385L00180j934507j61948J123791O58988M74837j55649
44677B373911k71681l55374j029107p37372N20844L32230K391064J422918j124050l143792j567544J42999K69052
44664g75902j389306j576176J862071J823834k05258L09717J94021N00833J006789P62555q72668n08036j825230
44651f92756k00015J082454O56871k27109M14867J145842p65390J96581k268385q08190M56334o70369J522000j15968
44637b73233j475939K73405J188053m8947M28935P57994l10514p03554J323202n1897m37372m8398N04854q7630
44623A038959Q63205j7085q86842J050166J05655j68813K12331o22700j003039j69657m84250N19273J478399K34413
44609B150015O23719j661448j692703J21040J587635J09788j205843j484837M00401O00673J28131o28727j43990
44596a096146O54946m18207n16568K19571n17643j233666J487310J725759J208212J172431Q41533M08332q91027
44583C044837j469525L07739N77802o51358r54816j824442k71329J122288J739892l18521j582844P04868o42797
44570b18206p40931j637256L79891J847658J307507O56539M58050n49862l11762k67736M33699j9726j05034o44315
44556E88516m12395m66792L09152J077668K71362k042310k053228j11657O06870p05282J428741K945189R40521
44543B376355m26825k1777n49812k69722j074925J28434k89422j49312J092774P3662l9379J91163L7623j355074
44529b76237P66195J54088p102O64966j621151m59722Q35561M6248n31311r3580L3948M7176J87832j035193Q38238
44514d50044l02637q65626k00464j048677L82291N68463k03942Q81473J739341K47839r30161L23883J42773m20075
44500a35563Q10224j016273j422126J51143q1680J074436J648403O02461J74584j401928k372628j3121O16375m28041
44486a793734N42069J206454K39625Q76146K14000L4051M18340N08665q89468k401824M04305Q11707N52552j72274
44472E50614J417746n41923r50233j840109j183427L72213P19417N31739j723356q21963J651794K552618Q69820
44459A604950m22288L09334j57875j590289n93394J160574N88932m799J20285J290279m09764j296457l35157J615916
44445A880247L39084j497896j692631j087447j62148L52557j168504L98407R32456n36781Q60956J379171K040390
44432B037861N91966J02193j210967j040226o21939r69561j82829M5298Q40002J83531p02149O60026j029629j850847
44418c147270N41311J419131M73743j70951j565864j117155J110474J552932J147606R59578J147892n12567r14621
44405I24239j729467r26436j229614J72786r359K12404J81665R25852K830683R00714K98609n96788k78562K20423
44391A897149r07732j679602m13380J943127J386074j268662p63135p38754M12344O18737j251088k99300r3402K5911
44377a131713m52891l85690J015710O25744N30333o09868K81672J14151J113699l26857j714228J51658N2951j424277
44363b159606m11958N65884J528393P3336j278987j093791j23102K11555J52206K45868L12386q08510J300793k81263
44349a766796k45817P76221j623334J04656j83270l60969N73678J560384o45754j341728l30501R17170K981274
44336D15214K111370m39890j04265l76652j054821r92325R47269l34875L48253p12484m36955J137380J04411n11549
44322A00081j476815J434O86545j061931m74366K02803J064323M28068j334888l27690k31563j008638J46114l36165
44308c622688J436694J323810J243938L17542r6041K23230k318493r50899j62729O00243J554723J889417O42187
44295B080934j39805j887795o68170O47463Q24227R45309J184693J758802n50656j913450j222330k158885j823164
44282b922827O38198J805446m41706N11945l10987j028520J115713J989538r2244q33712J134134J98980j208773
44269E55185J6917N25835L4170R49576p75947j072782o76538o83776N95361J575192J567294k86464j110838j82977
44255A030208L37204O2881K87259o49055p91304L83706j289464n63875J667386O21539O62418m243n5740k37690
44241A461230j412819j682061p2638R03081j115963L79468J111997l96279o20670K55605Q31290K056536L90162
44228B088939K39810N42394j147605j055985R81249J320524j754428r56730K83429K51927N15071P4011j70900K34332
44214A446038n08522j12860j98767O7203J079191o54373j354421J558446M1930L38553l82317L63101o37007O2422
44200A108617m51291q51934m54549j121327N24548M96276K124561P7256j283291J012488K18530o29315j300302
44187e29733J187634N81315l88672j31615N61081L11950j312012o99922P72403q85417r44069J16655J393608m00722
44173c67516J28145k40383K0124K286158j892761o09984K35252r08274M77450J036039K09567j099458j446996j4038
44159b186675K244687N69447l99009Q94882J036030o20334j006198l01634K29749N28776J65821J568734n02727
44146B221549J33083n1374j938355l38826M03514O78603O32464j60524j066682K05207J18060j590495K41363Q49103
44132C36690o64237j03608n74051q70610K038762L025772M1592j4385n89999R17827J31205j147765k235162j857786
44118a565755k8590p53948J51040J197302M26311K73126j8024J111674K3591p53579M43142j037234o43042N49216
44104f24770K013536J078103n89953k57822K12414r37109m29035m13881q21055j61842J340896O07066k02736j504931
44090f91119j967822J483393J131816N17586j445831J41614O46209q2715K49923J428735K12003j316630k128737
44077a821575K90192k1506q74814N78079J154431M99508N57981J669822m1830p04785Q26297j083318j129529M26005
44063C24958J152085O54070j455191j403053r69539q13469m06996J195545M37472J747161J788703R63191j476382
44050A738555K16109l64771k045134k13346J431286K054308q96872j437753n9085M94331j178162L97140J041416
44037A178022O39930p38962j330330j119348k68613J435988J242453J74181K2825j025073j70065J01694k4141
44024A18561J369600o80972n57618P98266M45755k79221j498473q33099K96115J205483J015793O16836J26987
44011B144013j682545r0688K58453p58798r33286J166676J192757K39835J03829L36807o50878l86047q04270j813659
43997a677801o49934N35352R61239K153029j7772j216359o34265L55469m58046m10457O23617J023248L62098j79470
43983G69948q57656N43827P05553n77264n91639j81043n05658o39252O13675J514531n20214j71614k13665j76637
43969b87108O43615P49291Q2484K31080L9270q6670J68845O88672J95111J029035p70593j104690K13562j598630
43955A93274j317269O7062j2923J13783N1888Q83624j07546R67970J687851m67581J08650l57221j431607O002K70498
43940F56455o68560l42443J566920K64130n72057j98421P6157R76809J613504j255134O18226j194935j312996j40037
43926H7618m12538k045621k87615J406971J679398J626219K05063L757J462879j396119q13552J028630q58646r44981
43912G41463q3557N842R0892J5047j772533Q8784J375559J80496R35713k5695O024J80157l3231o91935j02406M21564
43896A332184l91766k60670r71138l37501N47305J88550j148154P28035j30848p91932L17478p34316P67772J206823
43882C21822j071381j334807j23933Q64660J295752M75296m95774q32269O53882K73493l7054q4755J098231Q82154
43868A885317J71104j439474j251766J53425J544825O76681m46654n58193k361574p91175k55051O05811J802812
43855b63912J385582o32329j35210j094884r7960j053201k57745J30488J00723L35495J211688j98306J385289
43842H15718J999160J89702n02761r74517N31412R47179J17119j750553l57046P84001l01631o04208K08880O52299
43828A754754m7100O29886l22982j373408l6788k34716j525654l03515R62624M2792k24733J347917o31623m82533
43814d45079R25060l27499J003829P76289k320889j424434M76396K289061K010247k03188n44957n81598j223529
43801D09709O33870P5999j491953r34179J911183p8532k505814j165987J945731K511695N67378n88657q4998r76270
43787B29175n30777O51248Q2197J431790m34306j228027J21385J056452N0794l85059P75131k89585O28186j801627
43773C56977o98891K037667M88155o59703O83063N59677J166147k04422o14128j396817k331773q19075M06156M49281
43759e77686K71449M04525J010048Q99147Q26305q5454K87360j75381n45569k49162j541115o22286p58864q40242
43745a696925j94444L57901J38260j731163q61282o44647L01305K437055J352727j6482o49667j547621l72091R21609
43731b205465K78149j478773K79892K61899Q71902J254778N07423J160345L63753k118330o31049J616142K503950
43718B664616J76886J29581m34462k246124k407517O35323O95769J339938K205694Q40363k89000j554583L5840
43705A792324P02356M62639q71275o54644m26604j466930q42610J433319L62086J110890O86378r76232p54484O76789
43691A234002Q65809J74977N72393K23481J5461o70711j53560q81304k75256J205185o06748l00450m56972J180621
43677B126928M98236P9775j101365j720115J323172K137449M99422q74847j854675J66k047097o26029J442398
43664a16582J196010O22260k23340k47638N29724q25851p66049N37252r75634j068117N28256j457269k25371J478037
43650a014312J308958m28614m96757P03055j92016j942615j440457N79186J599821K633264j21761k26414r18260
43637D3078K5279J497022o37237j003380j276282m30146L69693r55882M01456R46772j189999l02056L638732J631359
43623B758409p50542k27629j593829k308475n55950R3707J346741K652862K49086p98142j966644O05618P02986
43610B08198j170373l27650J363354M09522J546577J400604K04404j619514n37578n03610j458461p707O65298M58599
43596F31663N09271R79885R31393p25380l92311n55162j810972M67379J063194n67774n06405N85402j570467k35134
43582a195418O87881P77336K59764j936944o55495J748367M87548M97579J940122n70235n05017R3299p77981j666632
43568h15826q79912j82383m93415J743831K312099P23978m44379k607751l03668J568600J099764K73034j163771
43555H30201o90931J124138J033026n23565L37046j75450k24053o33763j228951L74923O73495M10393q44715m65770
43541c976J294650R3460j292608J507684J897987J37422r91054o50468n77751p02978J810805r52663l219155j722397
43527c371042O68189J300601O19698L39288P0155J804930p93107j899509k56095K63145r05005O33877J249176n63225
43513h38924k193567q35699m41408p47242O10929J360955k47177L15229K178411K30245L22637J38832m02627j421162
43499a970568J253501M87929j36220m17295p58730M88279l1613J261912n24863m96303J124454l23235J58749N57334
43485F73331O86357q0440K97157p27277J48242M04021o88515k53979o40718m41838O49661j74566o35585Q30168
43471D6019M60479N34735J48793R28778K59626k025000q60735r35084N00610L51287J048352J026523j188977L51416
43457F46822M95587j529694k295064j726588L72390K171154R11302J26728J360141J027168r05842k367515J6255
43444a697156J045973Q96537J122698j108452k97431J488423m39752n7392j114641o09804R96728l28694M6224
43431e6739J769974p1840m03364j936571r77927J094439o78818j009446J027638J784012N65798q12470l87664o21914
43417g14892P0212o61995l36283J040416k3570j306353o99628J258975m70250o85611L64430J476739o18038j534790
43403b840638J92549M44302N79117M53493N9259N94038P73826Q80024J133115j266730k459434n40588J148485K99471
43389e49711j87940J267283J207494J058793K53718R24493k65013k74811j296465j379796m45404P3759p52715N97575
43375B31260L91838j17816m07525R67118M42429J143403P14055k513552n74746O81571n69068p98265J401066n9474
43361I32294P4110j86206N21794j53350J11469K79770j1366N58366m96303l87726j411817r04202n53251j276269
43347b902687M58361J959976N79854K5270L30542M17723J189244O2387q61791j542712j194199O29343J652797Q10871
43333A614979J075077Q2114q66181l79900m30960j747899j718722m6591O9206P37734Q60810J496044q24478L73417
43319B94650L52527J479165J03845Q458k30550j265598K76193j244202K29650M34818o66661P15115J374856R96606
43305B858872P51893r83737j337099j504213m05209M88861K12096j140822J26419j29196j50322R62065P97009
43292E46617J440855J118012k04319j35908n36879p04059o55617Q55482K20906K12647r49012K22724J548201P94754
43278C774404j391530o38008R5489J61336J11082j81909n97826j172749l99402l43564J790285P91871k01142m40604
43264A357733r34053n30464q25770J944723R04258p36997l96672J538176m68897j086381j18815j75723M26221k57142
43250F40197M88555j569432J112056K221394J196673r69881J409795J95686k112130r15742R23641N15154l67748
43237B768218J04328L90451n80233l37229k182359m28316J625937P32000n91391j046013J653379K249241m39164
43224C918849o74603J637358K20863j422647P12796Q80129j793727q03336J70825O01922m57295R3195j49153J279095
43210D214271M10876j499917j36592J464919J487227j739480p56232J156522J179624J601694O27011M55867j263108
43197G202682J629733K173897r1267O38990j13706o91588R86518J213569J354042L388407L708773K333069L516336
43184B7249455M935688N700337R314613J2724705J7908341K6053787M1204228O4024326R5841038J16632551Q3369000
43173E04958069j7988265j12297444j20844972q4418774n2884912l1203012j9163299j3997855j1021094q349576
43163C2788866n110254m753191l343938l52739j488420j253224j592644k544135j665861r47257q00617M9622k016547
43150F969661k35306N79712n73247j434445k87961N55876J025610N99953K06568L01649L71673j400964O21854q77034
43136F423599j51007K184424K71286M61691k46674r17878P38806L371600L826564K705919K525327L223224M311167
43123B8728048L699286N476047P999928J1546211J8897238K5527762L8928823O1710223R3538762J17929607R3480392
43112E07462327n357755j09266644j28207940q8527690n5669903l3651707k0643683j4518474j0475834o873806
43102C4268891n151839k590778l042565k495786j546489k940739k428913j267802j015751k247794j509233O24623
43090H655825K159010j236597j788247r57690L002m67121k351094q90657o23400K149272J265078J323673o8307
43077G172747j49625l47648n99434J958927J648743J067205J227388J086688K353249L009691K072828J876615
43065B2377374M066780M948861L840258L892586M780896O570683J1379421J6195540K2180155L6361511N6584339
43054A93178404Q6533027J14386910R7311110R063085r7184951j26879276r3729532n9437734l6146575k3416029
43044F3678439j4636154j1401060q602176m087050l318157l638437k942843j871022m39284k261453j659468k63441
43032H557894q14214l99384m30639O28759m78208m73501p27893j352090p12145n96667j200977L18190Q56041p97682
43018B377484j369877j557712K34368J06004J774117j87425k39351J464543Q986j033086m44104J084515j34339
43005B084123q58425j162067m28318L81386M87085k49295L76238j55244R38434N13092j001192o92766N98198l6644
42991G94605p31287N23983J02332o39082M01750p08378n20772J503652Q638j494149L1785J205388j29645j71826
42977A76994Q75128K65299J68291J193188K04325k27256j169873k42512j617244n53371M23979l67810j362367
42964b233229j801490j200895Q06789J355123J073093J547212M6582K68451l85483j902656N82566J531978R77692
42951F65733R17188L59360r25112K52242j630930j268380N91911J495669K459179j25911j683273j123792j894638
42938a910754j78394J760159J229955m42510j164048M60171R98132R1761k58564j562095o94162J538843J056545
42925I25039m40412j478213o66948m19568R75747O01162N7807p60732o96242J078738N31433M08302j261025j437920
42911b582832J632490O4241j369776j719851J022885J913483p60678J81523j86385M46526J430005m35629R37731
42898E73733r2469k33023k20049o52767J54751p07440j611689M98937L86533R36881r2031q39903M06528Q18560
42884f73448O56583r24921j75986j030840J085619K964195L98610o39870j080284l12792k31727m80796O1409m12419
42870g96667O53q82168J411949J047671m1727m2706J182438n02521r69026j685311p03465J472599P93915n394M7053
42855C27293j429764j971155J725246O76516Q11247Q85149n21661l08091j086335m02205m23305p7304m1706N79209
42841a256866L19660j200875j91455J006320j308783L45327J503471j77967J146043R24601n46114q05606N5882
42828a86362K78504j1393j250010p61414J199750l82595m65609n7463J07648P02384O36885n58051K066398J097194
42814B415866j214617J1043k09448j279587K85311P10411N35949m66241L22182j714288r03969n65243O0465J059928
42800i52238J434599J199446m72814j633752p0002J871253l69777Q56908j095699m21533J63861L05873j89029Q85589
42786A512685j30206O91849P47923o03644j166776M440l37458l25310k29595M15622J52805K24553J527492J410100
42772C894480j441179L35914J443651n62612j445755j224057j579447j120432P92986O07588j559619j52064p72694
42759b783240M66709M95920P19551K652761J005755j221054M25563j927069j234984J382432P22977K66123R53032
42746A924476J656237Q38889j429357j297930P0176R18773j804617k384618o73347R58075K59014J914178M51628
42733A401577Q04991P06183m27837j276006j149845k2197Q50785Q7746j031184j242608O51386Q87262N45544M92788
42719A278585o97447n52672K49613q14479q71245o53826l78197K007205j30880J931508M03658o36556j75515j022332
42705f2580n45662J18573k71893P91780r25799m56306J345243Q74211K93432j733524p77590Q59392R47545n63865
42691a07043j977620o87953M33601J673062M82394j609766Q19561Q03226j111302P49185O64053j221790j615593
42678b705985o86503K01306N12946M24016P82129J907091J150840j310831j705146j593069K30214J188912Q94775
42665g09305L07350j094009k86110O31655O20292o36131m3526L93304M62591P78552r71518K81348J92730q02703
42651h75480j479747m22876Q43381J994528M08592L71651O95850Q67028j97490P4837J56466q36765o04718o58110
42637C37147n2497R29386j160771n08558N59173r10118j335012R3518K88577K010845J665205M1231r28981l87101
42623F42044p55939j332549j389637K51483n87020J761648K417149o151p93567l84724J63091k27456p59431J069720
42609F8661M63877j846271r66262n23210J214926R72792J86122p1953J60292k15588J51822N01215R54624Q81043
42595A932090j654098j126441J314120k11656j847891n3867N7840m46848J23545J921480j14866n04607L74809P04110
42581D67720Q66105n38175M79195Q40802j714514N37273Q68820n9712r23566j137362L55544J776357j822233j459860
42567a463606o68983q5350N74246J185165k58815P59896K208049K045992L87298Q3699r83996j572668j084510
42554A126417j756956K13176L66842n40651l87204k2748J60122l57988Q19840j49052j740800M93021P7431J635243
42540f3307K008378j336044j640372k64136l49516R3759K121426P17481l93846k78849q85706q04149Q10366J073085
42526H08570p44267J2410N16070o15157j427897k6816n91361O73123K408921k19164n00927O84963n00064K13502
42512F91906j45889l74691p20133N08906P0523p60131j512355k36737J044843l88204l27316P54112m4016J780486
42498C41304J106105j032792k548949L49575P29083k05154l21875q77621j64951P44816N27461J42226J16696Q69232
42484b24844P87477L29963m8983q2995j209383m9525j15255P9367O65161P11075r46689j299852J37565J178262
42470h8656P81414j515896m33649R00591J244898k73864P99025J247318k74077r81283J143231l34210j062982Q9624
42456A241484j774976P43869O02894J87470n96686k58424m5501N0970k28763P17932L77745o93643q78668n44889
42442a099186j97342J306943J37014R21565O47427n00109N93244j115077j083538k33242p68060J685119Q20239
42429A114997m51496p97070k175393j1746J300881K186132J186097L65705k297582j195138p98747k48721j570612
42416c392693J804795J723126K46313K97725o1843q89084j813406K92912o72602k38468Q36065P59666J190813M73795
42402E57114n37096n43761K28286N67190O70534l99134j830382N39689o66002L28767N08067j82463l98827l58470
42388a516488k47344J387361K588159J288960m06817q89022n63045j493783j327069r29502o65699j45111J174632
42375a744768O94778O66173M50803K41010R7083q56797K5627Q69899P17635L21709j299524j467256j224461J055334
42361a452755J327834J641384N51274n40925q18462j727646J65878L73471R56408J641594j107712n09689J410882
42348A911536n2918j064822j427120q74852r11891K19212R10677M94850K29565L77838L66622o06600o98916q13398
42334a940217P51837O61686P51178n72725n19551K94559O98110l72881k67044o73715n04793J063277N16567Q04874
42320F91162j077035j17260M33666j77239n20374k73317j31391J469797M17481j453618j69017J55577q15874k04035
42306a771477J274798J092677m31243J84466o64547J360445J702321j23094j139464L26071J08600Q91110p53221
42293B057442k60094R319q43419j053795j242124p17604R05249J532860J684698j13091o67019L65180J225485q83780
42279A999307q36730L50424O82836p28214j532478l74773J4651k35748m68266J190530n29758j273912k22647R38119
42265a026659J002262j73054J61705P1428j33798M25136o50716N34126j021762o9153m82510l15233J32865N26765
42251a018598J048951J086505m82431j933094j629866K441958J426723l05089P633P96955p7330j066494p2391O39453
42237H62885q84318j89485J150173K35978R67718L81631n49266p79784j275417K26455Q33288m80753j649423j085858
42223b236176J595329k01221j95892r16602m93852O87899N44676k51201l37511m79160Q7249R09833P76295k133649
42209b643983j944011R97191K058349m82498N77222M58503M03184q08377K36322J713111P92485L33604J51259n57712
42195A284649q30813K08712j223785r39344j015422j259967J994902J319884q4377m96119O20418O47658r59804
42182g33408J21142O24519j13545K34029J415157K419495J59890j154300j792742j375911j6520k46384j36450J60833
42168d34195k49009M3182o4635L98501l71555J473205J100068J029523L83277J64472P88662j529043r00117j771063
42154F1273J41986R116k97490J451350j93989j042992O50450J936137j735045j319251K57196j786283j385069N82330
42140b670281J895595K476418j510052k408919J6069l00691K37302K270683R24957j068268M58537n28820k23706
42127d31176j52419N79243J337729K81638q35149k586601m79950P41097N26437O09945n22552K73984j052403L92308
42113a317869l68658Q33795J466706Q03993r58809l52591l3537N3682k83200O95972K31454j040583j60116j81557
42099f11318o44378J147606m53143L4214J96971M76851J058231m70392q86959j013325q0192o63138N34799Q88433
42085d85740j039616m61780M48230J547227p1024l70824J518904m99668j303249R11715O74933j104843q19192k16858
42071a271785J91654R83178N7702P40475j193438m38339J299319Q69430O28782K46448k454705l190193n81736
42058d113208L446407J581141q64790m19520R4326j67737j778353m94135M0853L76737J723543J76861o70507j64466
42044a232848M52179J413954r5659Q13467L24969R11355q37590j654826m78179k81708N55367j22159l09274J083702
42030E42750R53333p90291j274573j34286R99903j135503r77395J7698P78403m06038p30264O57277J394046p97524
42016i02464l22774K84333J43288L54318k66430l94277L07889N87630J64375M25815J4650J370487J772058k098648
42002A440250l152522k61925J28195N50010J136653n73683L22908J954785J135837J022236p01365k319141j999735
41989a317497R47951Q87778p05660M26418N7703J341217K48050j545258q04024N21470P02098Q66180n51556j321710
41975b46840m35138r06580J373366N03176m61022q61154m3634o04508r92177j30792O19445O71041n70971K15727
41961a870061J017105q55361J226691Q99970j115908J41543k8015l38859J232624o72845q27077j1767k24486J51938
41947a274508J70936J431063R85464o18827n09618P90779q84279o72941J141107k33636l243892m70161J023251
41934b365262N90455o96839P13432Q67706j4445M18713J823099n60299l69570j590733j305277J492765J116852
41921A20597J32351J07359P07631k219623r45633Q02545J197205K064775K19715j738434j065240P7448N81030M37150
41907D78876O86021P16364L71551k07342j992503r00420L96492j997205k526758j8913K449931J764929N87951
41894a91026J889576J280072m04555j124321j25480p1403L20894k99517L69140Q12483j457240q84138J013078n04550
41880F23013k196352O98271p65611R42192J421797q9829j272737L41208K920403j119783k279770j446582n24418
41867b748198K48273Q57605J910014J266037O06947q7696j645780j81519N65078J253742L44227j196488p97631
41854C94611j308148J27796j856772K75180m61940M00450K62258j145495J091555p71989q79125J143058J584766
41841a143795J013647P17344j655260O04379J606658Q6979j368056o05136J153577L06346P4847J4701n88764j74429
41827D3038N39246K70806j074891J64802J18475k25914n52977K35861J76925K02484o4457j279054R11349K037911
41813A503604j77955j135479p92732j276818O0781o39306J77381J966870J911851R97242J40716j049609j225980
41800D60566m89276p4817n79356o48056q4789N30358L007j419342J193084J26372j48176Q03024K218578l24040
41786A567137r91538N77832n01150j113632p70675L13550m00478M98296j412674J45106K757559N80711j681455
41773d31411j232924J4198K73938J511205q53406k39016J468816L0559q85865o69318j168373j578372J421035
41760b338934J229290L45066M31131K0943q45069J80375j31439p66527o10608l25709J330138P29998J41178m23902
41746a034069O15176J18136o92231o06443L01578J011535J013028o48012J03153K99726j671264j80891N9742K423
41732a308413O20789J857568n60315j769912K96181K92464M01289J90062n44361J44189k32587m75155p60664J031316
41718h17549j75290O87355L35643j48865n201M85704M44530R55080j095497j866607o63481j05699O19604K069374
41704G19101k37401J089617J774677j511107l69223J037188r42590m27324J296275r89482j652683N00576O51935
41691I39559j53981j275227q51879J02813K69882j6198p34510l79980L00985J579120P24073j485047K51154K81870
41677d47366n36808k19943Q11085J581532q41382K88247r14417O43931m53176j901320j40442N16703j04418M09192
41663a308582J286867L75365O66223l50348j222977m4739L72658j919155J00286k97728j083347j87687J809108
41650a804056J639073N2676j769217q33964J15284R53678K411084O48469m79411Q71118l24596j175805r87964l96912
41636a080543O43263N91328J48095q78547j153657J137042O567o23774J65379J831708N24092l29351J199755l39756
41622A841601k189758p18527o76655k160895M45722J585925M07887L45080N13272J090330R04613K71110j157862
41609E01843N04638N13773k071767j019908J571762J028805j722023j094598k02037p18287K47085L31322k13249
41596b342641N62002K76274k66783J484152L011541R65576j181115j433194m51468j210514j317776j62716J3748
41583b052914N44606L09866J05901N30603p5154J94125J337729J094820M29130p63805j777106l23458r51055r50836
41569b347548q50121J344514N00014J77877p99872O06430K276235j403846k13792J650838L32222m59368r82274
41556a68691m80420j3528L62698K37395O56796M17816q35145O65358j52340l03403J10524n81877J018525Q1554
41542A015262O81499k11400J215108J136764L86121l38816j440945r83382l69333m55264k41189k132674j052290
41529b790539O41059P75348Q18730J39793J388715L48904k394655j98300J294242m45503M26734J431895m92062
41516I44361j547531K01787K95221p09772k28695L77436R89671j231454J139981J171548N61991n56540j449274
41503d1270m08612q8981q09028n73718R38003N93555J065814r03413j886572K1281R11074J310575J655671K93786
41489B078165j055006j290516J117868R75543q52016M42186k53002j63986R13380k36597j239982m52866Q6219J4128
41475H3518P35171p93601j461209M36015o63597R35894R52259m20664J00832j44675P18140J149286p4971j706514
41461a54116k89571J174903O85546o71740k9302R01866l66628r38661m25837k25398K82729J465197J202565j495891
41447A115662j964167j95142K315725L59679N44217n0025r96234q97147N50560O1015o72080K63741j26029j092742
41433g82967k88190J019971l72975p00974O5121J321648O30665k20217J072633r12082j044573o82030P47113N57809
41419D10952R42911o59101j76830n4328k14306k17709N15319M5762P34124N58349j011362j83867R33400o9535
41405A553779k051659q82131o15498q62587R82373M24582n02286P14706J144124K752200L50734r43118n57385r63635
41391E44199j388788j457601K68489R48967j007353O1843J673616O45140k09523p57947m19465o35254q16576K52256
41377b297997p52736k66975p15886p54930O30319J268233J230032m58158n52253J246109J61253j302743k402N22796
41363b045338J91092N45420J461287J289017K95193m43138j433371L12738R46514j68787j296540P44897R62185
41350A361169j503006o67072n06568O38342Q52448o24573o23033l6001J412831M08949j065583k47750N55272j86138
41336b30713J143510k07979n92917m07288p72124O72463N84959M55059l29154j695048O9494J043524k47185m03651
41322i17050K20512j65513j236103K65443R37580P8770J025466R80538l61965j268938J25822J553288k305973
41309a068123k251434L93539J270492m01620N66780N8368L71521Q17177j041052p84549Q25056R57116N09640N1347
41295B74258j59696N00328j160085M5067L62680J638460J089712j083713q51965L22551J81241l75378r10648j097774
41281a224962J96166k73738k3526l40026j24822O34225J40198J279020P47494K87155n07046j184571j146552j47175
41267a688160J24098K454635Q49423M04157k53674j414870j345836P88003J088243m10082J029382M31603q35914
41254A221008K82400o35431k550500j067325M07720J393817J251486j02674j051181l10924K49318J183163R669
41241B80546k116004p88600J064716L28319M47364L62189o68908N46580K36736j28241q21962J26525K01261J29748
41227g99731p02910m45297n45259k688367J739266K961192q81092j159538M12964J575855J622585J751593K428888
41214E270149m41415k916767r16684o04800q9079j73176p18411K10404p8694m4148n30637K99665P58512j48255
41200a23336o97632P70175n01182j026977J320995J148106j514637j029617K27077N85079M42840M21709Q68264k8032
41186H62832j55333J33667j80985k068497J65271P20933J32218L05610P96273L94482k17289m05826k81958j162203
41172i60805k785431R91422L601900K468084j574010m7083P63571o23419r14158n26645j656704j200748m00286
41159b864312P21829K187566J835046M25663R9136k55289j752319j376447K47192J134670J376800P81859K74519
41146B835913j790681J080372J00429j677437m07153J16568m21533j313788K28464J530754j057656p68420R69321
41133e74847l94885N58686P13874O11576J074499r80668q09521M29848l53358j209314o59724n67402J914760K790363
41119B543887r06547j411223P44854R73664l4734O9494j220388M3545o40191j318396m48258J275813l7035P90499
41105D24984j48605p2838R65270N06779j054687j016291j075067k2447P08950J103005k62131K37826M66547m62844
41091B98451M65661Q65274q87308j632327k25567L16725Q66531N61558k0481O08263K3696n8946J401772j85963
41077B397339j98126l98242j190119L76714P56074O16449k388090m75918O21832r52536J738121J784012K88097
41064B975607j283452j899627j523610M69283L20286J734378K77300j36597k146586m69302J451366j41637R24321
41051E51730Q82535m66309p75667O33831K047257p87477j931273J28723m36274j049059n40940K76064J961400P0440
41037E64981q47654R0595k3220k01989o22327l31943m77211L6118N94903J382122N51516l38701J174354J917730
41023C469274P76751j309273k226838m48278J39819k086744j99854R57231l18743l60640j17953N36732j893213n4761
41009c136490J031642L87083J67307M42833j351396n80615J49297j6036J592887l24003m21946p54797K59551J214490
40995a340193J91894K01811o9905p79792k39421L97606J050136N47910J810295L2507m19103K67278j557708n52933
40981d59618J84763j254657j200499J409455J25599M2501J020548k13539j261284R52693j522305j117348P47813
40968b545878M14824J925380K812704o93753n3283j48404R2767O2530j040051q63951L32889o55555o76352L60962
40954f75171N92929J299405j25692n06391l04630R5384q18997l6306J696023R22503n21406o12858j229162J22955
40940a01414m56176q90549k34881m75016r12302l1024P93344J499279p95136m04294L74378N99137N59919r46698
40926a421433l49528J128455M10904k46786P44505J653937J48905K61042j66837l93981L44735P28315q50685k047978
40912e6430m01934J022231o55236r82740O31530n14748j994480J326604J204931q42634o03641J684807O33991q10872
40898c58621Q65364Q6168L79416m57685j74156R76137J144606M75786J056024J26310k253876k799920k049902O54541
40884b329808J09627J919436J428386R4056m83089r35957Q61502q05173n03245J908588J75228j11527j218284n24113
40870d14373Q01250K19586j56015N33089Q0211j505156j249433m92385K216183J437150J298289k537236j227693
40857i96533J316598J244223n44787P51073j39035K45592P68526r54860j42465n4569p49037q48288m99278m13544
40843a016384N73660j548000L91972J154849J132000Q52155l57545L80240k92427M5289j409984j580431M09159
40830a265447P15581J45222m88127m69310k69662J42807j04198j777358j432733Q88720K696642O99998R64761
40817D46896J352692J11340k125552k593031m15640J014264K237735Q86890k99224j361128m93192n88406o64501
40804b490857Q57833j78090l44819Q5857J708642Q26887M45915J212775o69020L79952p79129j84396o39979j265787
40790a034216o5346j0681M57483k77364L51190l9479j721342J62522R07004J88243J18030m55099j480066j68347
40776c067468J944336M68355J363180R06048m18702p57017q78839j066123J167619J339067n55180m54492j59050
40763a68266l62906p96698p1178P06325M89065p06351J2324J805574O85953r95067k42997m16399j244273L66193
40749i38701J617313o47129j670307P98044P34228l81683j621130n13168Q85723l46832Q77242K033691M18069o76581
40735E68779m57291J3221m29069Q56541m0938k42264R12707J262097l51726k511235n10802J146664J620745j303055
40721E34374j049947k79355M29094r39330k3001q16445J26361J221862M19854o69289j533716M8025J915061J812558
40707A196106J08067p51004j216012o96122K163717J245728q0313r02147j190108j502185q19853P05840K92577
40694a445709j011854r49929N32101K459584J036956j3400r1198j204519l19813P22060k13927p08969N71599J495671
40680H58653P98439R1810J474883j417748j850511j5909J90382K79545Q59552M3509r96572j220628J53650j013053
40666a763998q71501m57350j396445Q61761J353064J735846M14167j112512o34009j82700O06059J396183Q11714
40653G60279k321691n36620P44088j69934Q38727J459422J276528N30079r81260j727259O90497p2799J41264j424423
40639g93102p99979P92094J172386Q99914J414899r39184r58949l32960l95195o66229j840162L96032j025289P56642
40625b319082J786042J170530J255684m36744j073443k47551R69290k93913K66760K00042J17042K05800j689753
40612h9296k72789j417771j55996J428477M30433j746221p39388J95442R29273K291196J442847M25854j037806
40599A684255q25269J52519K00728M07627J33063q3295m06592j10248L12902n35314j132092k190369q59253J041635
40585b209703J006129j03109l37239R33480M91448K085353J956209n9589k51588M78309j93629m1896p17346l538624
40571e01795j067923J785173o99640n52518j044609O04748R61756q79639J180118J110147K09790q17778J342054
40558A629884J528777K56170l89888j556609p54826J100165m81940q54624p38056J239964M16749k69585k67418
40545H58763j11378J223833k01776R3802Q7470r03192n36018K53819j424061J21655M9427L84835J94231j463856
40531a372446P43879J32556n10293P49290l94458J32977r95530O81064L89046P94569o86552l42683j63577M6181
40517g95977J820862m2817o52372J136060l58635j83969m15023k22221P53515l27868q24426O83540P42639N34452
40503A847760L98778p59396J106305q70259j06304l35141p45470p88146n08102J487626K511533M52122J573792
40490E265098j419438j696981j71252J90055L35254l59051L52362k30632q65548K03082j03979p29510J231242n3809
40476A946893Q3990j98554j198028j039113k11356J490615P39788r92705q93052M02311N10889M51425j622387
40463e29284j469018L02590j84888n27538L98868O69599M7514j181506p11534J756384K09216o76254P41729O62669
40449d91453m53663Q52043J393495L02282q22765J049076Q79103M25514M93555j288416j614513p90175N94167N74109
40435A102359P61907L03268j069950p26257O41277Q70386m58587l64048J099413K222518P86655j132057j641147
40422B395737R5013o24426m28645j260176j432485L93176Q00742l97046O36484K655099P77564o0125L03363j611556
40408B242719k230057o78021J528954J042214r64034q92665J89524J55028R14352M88345o74088j198434l17599
40395c93762p85027K71610K018924m69337L1249J084895Q54166j162009j206246J18807J053822l36658j666386N8138
40381e27814P21644N444N75457L09991M54570L52337L87469k409M72954n53413k403983m05353P29333J512653
40367A628880J021791j375677j811933P48035Q87021j634730o96707K53996J704963L11981o42159L7131J107323
40354A539915o97955j546504K80207n30127p00145Q29538J205168N0486l40580l4037k49086K98344L46294r32373
40340d80855j362310J968306J633041n92004k53548m09236k00608r08566K33187J94388J089274J5421p77729p85164
40326f36403j77396L70614j01765L95716l92159r63335j584873R82165K517644O64798j588822M95746L42384n46865
40312b22551J078196L75743m69395o85482q20984J0945K875263n1609j478052M29040m09888r95591K18699l20638
40298d66304j316193J04822K82530L91925q12804j48748l05583j04623R13673J872926m96533k078994J535148
40285f28758K056366P94804r97139K78142O90816k179766j900299J369928k75624j680778j917965m6243K637482
40272a799034K984831K206073P21725l40853l366262k59504J03700j049197O74970M47125L20934J35921M43010M7711
40258A271150r38739K09560J985924j4183n17571m55757q23124p76004O70950J002295o91378l3486j269744L52281
40244b7826n26648k236r37014q75953M25248J052933J025372N81056K47232Q70487L71870K43548q12693j851225
40230b15849o60531K43236K70921J146152R28338j026768r6558n09634M67141J059348K24998m86809j462823j164938
40216a283776p30021J269790J796841P50757P87875r23216k042938j137408Q18699K38570J18752l23509Q52533
40203A92949P52141J12391m22165j656261j072876N13449J638178P44462k41203k17616n17040j75212j107935
40190a456738j944218o15740P91293J201626J410844O64625n05814l74003J109274K60378j73613l98089p617o95292
40176g33084R46662M12996J17389M12370n12339j926141o07970K36858J348530l48189o49370r93634j347811K431182
40162a212551J912970K367j55336M83036O03651m81586m02715p18645J055931J247320j404183j461515j299479
40149a830735R01510J570470l29119N926J228N33250O181P38452j190698j394615J385023m4628J53077J130152
40135A635474j55714K07630j985887r91316O40549J40132j296220l05650n39642R37018K059486R33248q91760r21143
40121e33795R85220M95634o32405K54072l52863o2760M69460k97875J62652j189101o21653L85874m3880K77319
40107g04101J832841J792591m02871j902799R09279j356358j442643R27775K076346Q69684o4300p08985l11054
40094A515405p69462j081065N86144J086917j415345M97175J51037j655045j116142Q14935n19943o97692J512726
40081a090355J638416J327629n77816j131766N07785j25186l13128Q19096j347938p8966L96131p92399M14548Q49600
40067D95651j037905K471J199405J75055J58931n99491M36310P4961j407328P92371q20195o54333P76095m30132
40053h38134J439071R33772q46345n30952M76594p58215L18187j275356N7543n79866j244725N35363Q7211j07418
40039b333270K525475K408925n92248o13909J144431j132631r81628J436887J135394k78327l28591L73465L23397
40026C087370n33724q35625Q69758l84571k208521m86303n64595L22573N16161k33745J38766P60137N11568P91397
40012A750646O08155L47964n81262q16296j09817J62858n59751j021518m49648R11758j123243r87948O798L56511
39998a504793k82028J350606Q77651Q2698j46765R04052J98048j413558m89665j48068M80507K92503J874413M85322
39984B560923n68499L3665j767789q61840O3353r82530m46326k75489J116628P91524j56256j035031n35011k27807
39970b290485p02334L130J138701J373028M6357r30427n93930N82492K01489J109478J702602Q6561j214542l5165
39956D76955O9700j045368p39648J079523J98004J48171J889362M97719j143291o63263P77832r78945L78230K76891
39942A221872j357769j369838J959987N88489J700075P86849j77832r59246m14802l61797j94167P22853j683886
39929D60788l676860o70118J493549R07820l80773N6593Q07902J017472q01434K69073J101944L0963j117909l79091
39915h80081L03328J146587Q76918p98939R67718L95126k186741j67567Q82571q5517j170494r58932k54162N89944
39901a340241M7434N82633k92660o74574N15653j73178r90337L27151J090433J876n51903o73035Q0506N91821l32884
39886a791305R83841J073636O69295N24372M18750j212797j139882Q18062n78824m18462N03254M93059M75026R4914
39872I12939o16000o55336p86685J7275J39186J057594J38045m02438Q11230N08056P2989n7351j138346O87211
39858F88369J122234m29967j941694k5169P74979p74069K92270p09564Q03730J585799o03200j831807N33888J540161
39844A025960k33378J87790J476959L10641q45847p76356r33207M96777J793961J03555m43586k2520J155487n62348
39830B733888m32883L69386j546658L01637q83068j099756k10000L09157l23834M10867L61472r2907j1425P52490
39816F38366O03612j56809m29765R05902J7956j078602m44705K134958j0613q11338K9385q98746j272351n87947
39802a360697J730642J69733j109805J432617J402696m48073j371003m21573L5534P41794P23521L02838j198312
39789F29912n44977P08307N48857j047633l74115n32191o39830n10007l28683J039030R19670M10958j482864q3075
39775a286641P42888q61147K09395J063659p07087l57749Q56482J944650M11552n62196p83163j022227k318914
39762b670498k28617J460139K52241J84249k71965M62761L3638n12054K99526L13033j2009J225056P40741P61741
39748B037982j05623j162022p16834n22827L22185R38172J568106j49563j866275j786854J149278J825158K83671
39735A814554r4352j559162k152058R8711J41919L3408j059223J279657J739492J137635j063554j283162J035387
39722F9252K18719J949Q85523O22650r56333l78514R08668m90419j622760m50332L04333m35990q12636J640420
39708d95470J999424k65271j120383r05314J16168N66866J68936O97841j9958M79345K082305N18881j147985j888347
39694G87038j51644J81406M83048O94173k85803j868358j406368q5323p79724R21496N61865K95639M04252j073362
39680a321665m35391J425330J168247J095204p6755n72482K96065J03032J87207l89299m51875q65084J76220J403360
39666A742114R08769j982752j186774N91720l33462j96627J44432R619L01503N1376J006385l44556l18442J074415
39652A467720O00715l96002m0955Q71966o87376j615398q12237N61380P49408K352303L38213p46871j024918r56446
39638F61502j409439k10045N41525m3183j220362J140444Q70741L02998o41554p66396L43654L59305j409727J184374
39624b96163J247478p62673j073468k52426R25783j71602M5378P77676R28077P18340p26616j55661p96956j439476
39610a032309r43843J283930Q71414J8939R07382j52315j737859j509446R60063m67776l80537k64343m40754L52306
39596b535148M38656J13387L31351l0147m10801K05016k47625m88290M80689P44766J276214R53272N50952k440915
39582a058623m66580J269304L05599O31473P11218O97975p77943Q1752m80411O22266R95989K8840J88960J68786
39568B918605q89116l79067q00314P5660J433205L85448j085028Q5524j180459K99881q61329j50033j16057l57494
39554f20574J236445m63214K92309o98762j038907O99739p11973j554364R8824J147461J189677O05048j16482k16806
39540a51579J399274M83245q60788j359266k066332Q82419J791018O38045n82375Q13841K304061q6582M34352p0522
39526C568811l69128o29238n53057k320365M00026J201345l382j349238r54833j208900K07390K575498J778300
39513B343229r99036j528467j350986n57415P65543J797424J599494K01625j7547L29466l08615j120906N80529
39500A734338k50073j280507M00827M63232j323183J218597O93657M25450j619525j641215j522536k2807Q50503
39487a873242q00939j434900p38115L102089K180124o57952j68802n43117j546310p63903j82448j64995J033335
39474b559175J836345R03248O22693J09188P31872N07225j516365j705582j58343Q47805L43295L22412J013129
39461A297747k107357j440528j22052j63143O88544l97533N22144L90357j200668N52729N06162J032548J326651
39448H85601j76226p99978K09125N43447j682238J01351J80508j323716j66682P1082J371229j66954j413668k83747
39434b650866J094225J032422K697933O22619j871708j26849O77189k15671J161689l28511M91499Q21903q54691
39421B551183j753322N87046M99968j076807o71574j10238j55506J009756J155063q05379o74227q60773J143209
39408H38399r41716j259589K39970J104075J10980M76948R91145N15349P3128o05821O69648j55793j571203K25098
39394G10618P63468R2760J6925m83891K40601J037896l23953j042851J124024M55051o78356Q01562j71920j183141
39380A358793m36368L22036l46392j09790J010038M13262J26557j573258q61626M85671o30795N0214J10601K11117
39366A30060J296528q64994k398742M87968J780183J01052j00487r63249o0236k56027j088466n53315O34825L23455
39352a531445R42985P88426q22486j717004n22920M1161M0465O25450J014017q07302l61205M21047P04328Q38360
39338c46123J725505Q84739N31369j466096j235180k63676l08356O77925J337999M9058j181306j525735k02679
39325a322556R66373J91992m32294r94174r13874L17054O30132R31806K13102Q50566m58484m82620K99310m23200
39311f26867R92015J38743J88069r98137j155562k91223R51035l20147l02421M3085K131213R73018n35559k89018
39297H98244j508148j565380k11225R88553K321136Q87734Q57965M2242j229368p64870p0826J440589N2609k42540
39283A896715M53011n13042j91148l28276O3399n02037j40449l55640Q17144Q93094o34680j366252p22060k94951
39269i25172r17127L86339k95936J61394j157614O51741P70841k52938K008009J608141R39056k37036j936522k18891
39255E84285j114808j630381J215936J147796J147122M47828o88916L95636m39198k193733J35305L95240q69978
39242a467866J390103L43629l36372n63744l0073J393620J84770o80146N48804L17385J063109O16206j176412
39229A603013j038173p90594J78424P34071r7262r68819Q04618L91675j495957q30519J293914P91845O30495L04038
39215A510769p17503p20416K53931Q32006O8368l18629j55947q816n74395N56853L76852n0248R1060m84068k138153
39200a478336p65926J318127J756787J636954m60176j316666Q83878J161342j106244r11629Q73661O42030j38844
39187B094958q60681j06456N15491j064819m32427p80301o10529J018545J040185j96892q66612q15452K57000k77094
39173a085084r93029P39257J707908k84286j118814j268510M3002L72626j787n95358j43716k64893j88984J251919
39159a829749J635263J370624l52283j832093L9558J385465M58077J001498k8908j193752N4740O71706q77875m74836
39145B7435q67316j608139P81369J04100L62766J855607N59683q08308p64810l6713k59279k16153Q36681K07028
39131A73951r93740N63355k44072j63122J248701j18778p53642j0995P531P48423Q59865m06205j016688K98560
39117A93144P17830J160739q19108j685777n47769M35988J77400j729521K24430P72637J915091j4089j168646m20606
39103g88257j60824k31750k35327K02252L7555r50058p98664O2540R18173M7003l35568m96366j12703q80692K81042
39088c441644K114430J056288j370276K01579k92336N36524M91542O9433p09224j54917K74684P66874j30511j245234
39074a832788J165600L65944j167553m35305J132138k44511j931723K20049q69509P61036J099772P11654M58044
39061e67152P70427N90035J88669n46981o28588n36157n55065Q94751J385405J40638J18611j460791q09455K4133
39047i91520m60330j84002K01526J54043N7292J576546J9527M09608J195007J94573k110112M1742o3611N39470
39033E79759k29901J282731j55688j206000N50990K26697P61496P07777m83223r66717r23147o74490L44406O13608
39019D28298K9043l24832J675008p5215k075080R81712O963J30320P27718r95093p65921J423097j131870N5709
39005H9857J736707j51075N3074k0433k76758l58894J197078o00011k34592M9832o79000K18646K269862J35806
38991C430099j666915k60592j716285j916333P55780n36470k3772J140546J607250P89669Q39253O6632m04173O74852
38977B779541J023132j349198p81856r71584o70164J523419J30071p30085n12143j15174p31574j58845J695422
38964A130962J149359j020936j743729O16898k82422j497367R34362K91149P21788K30414N880l09411j341716K95157
38950h19612o29141L75402m9218R90548J178968r57704N60539j415456k189535r7593J433389R48536P06727q2120
38936d6270K25533N1855m02779m65561P28242n6507q86357J06715r9119L63873J298088J016630K9200J66606j832979
38921A97170K85988Q03158J09051l62669N9820r04049j020408K9610M5586J939250M87266L59856J669378J252396
38907D951403j170347k416638m59861K19199j195177o79528q79772P96815N34570K39949K27190O13768o55589
38894A25982j202280k38215l02357j82073J197479J256014n72724n74857M97655j127713N01888j682551J23075
38881b180677J674203J712228l45827K12503o37408j348507J276520R68286j221002p26524O60142K491059K35286
38868B770282j812999k79816N46900O40188j177975j721044J036389O71021J428404J804319q48369j974389o97674
38855C85237m50851l76375K58529j347192l8311L73753K08082K923737Q08753q74567j622169j071002q31663n7180
38841a711219Q27441K33380Q87179J2478K23168K53042J71951l79355R96981L54441n71826k03106J037959j34334
38827A998180j358931j96269j081406m32826J545079Q17970O1342j278862l08289K78457Q78695K32775l05710k1172
38813H29033K32840o26487j898327N15593J387953L71838O43655J487961n78137j301565n40184l60398P18381
38800H82156J264767m02939j552070Q1670O92735R90432J566192m27840j661767o6020j10660j477151J640226
38787A419731J712280Q26624r93047j186705Q63925q44632j955681k69115j390601m00630L79125J419444J991586
38774A572304J211637M0359k024847L86533j94144O90965j528925j405318j223761N46079N40637q38062J323538
38761i03005Q33046M96945J64436J436900l49443q85352l71238j481206q6426n84O30673O00960J63707n49200P56850
38746D57063P8905P5594J092040P54244J074709L0711J96453l69813j060430j503648K85665j558518j951285r4587
38732b492897O17223n61455K50392K84932r45146K9942L93149J565114J540773O34997K46776j332625o1813j054212
38718h84850p44015L4925j358632k66237n13428M22545J810193J026236n86836L88782R11544K06584q20055q6653
38704d59897J29314j516507J507290L1833k10398J252814O4670j316666k05293R09566k47326R07515P26737j087818
38690D85834M97014J75312j786713j026275J321040K34752j228389K74443R73719j117673j30098L78636r16136
38677a864534J176170L02217J14898q360J913916n13574J56702k079394j284456o7205q40571j172210J231758
38664b934643J047835K77138j3762p86961j17620Q38993j80206J180351n82823j72810j32531l45108J251686J394166
38650G23705N19813j09526k27973j907355r31735q87480m02052L30311J087895J104305N9646r91474J438203M41062
38636B47345j93717k14713m05362L04936N36879Q73944j300001j110070r83388l29016J131852J376684M78174p92144
38622c78597j98743L97153l27746J81739l38151j263839O44576J497408M98405k109393j084257O85945J01481J50846
38608a543173l01794O73417J531865O45535l35077j23785j777966j09420m11516m51657j6428n25066R74883J411582
38594c58600r5790N83856M78073l54588l26911K31620m08696p62487J325377j441878J27290K078095J029419k153587
38580d8807j878403O5177J187825K435844K50386j035905p95063J020563K07467j325026l7407J622J72746P01150
38566I22169j080658K12836P68246L62785O43534Q51199p18707j727729Q0614K07934N8763M5869j486745j766516
38552b626406l34719N36440J155916Q83739J83773o11692Q0096L86598R27519o45530p52825O04627k83350p79035
38538a274849p7163p37597J005449J908137L36596m83484k09079N81817l80581q85763J146867J529384R97777l38184
38524C119327j391606m06682N17851o30067J7075r17200K69896Q9465j038321L19347J98539l2022j039545m57176
38510a381119Q09928o7675K6599p15588j406613O16694n347m22669Q63676J663600Q98161k85501K22188j297909
38496d81575j996622R5410o35507o41043o8108J45972L15808J562574J59223L16402n51777K77050K491026J303582
38482B292415j071912j409874J05912L55645o46666r93753q14039J316113K260974l34700r34765k73572K75566
38469A27344k156161j736963N71218J816648Q07362J087005P70544q38778j787318N36673K072001R92843k123993
38456A38425j122103p92988r57548j013147J094149Q77524J727008K016439j5022j705398P8463J410384R0683
38443A826869j432770m75963J355318m00033J009349J78449j23810j760847k724431L45728o9795J254221J245039
38430B27324o4452j334134K49610M43345r16413R85241Q14150P34622L55782n36781k40828L42098J017911m61697
38416A615778j864457J243775J178342j98336j140524r56083l89779P04059M07048P73845o59703J31356j149826
38403c04505j248370o86116l31755k27423P20731O14585M20691j202410M03523p8884o84120J253398N61403j07719
38389h96971l25957L05450P11761N02825O72106j27119J734873N94117n03641j225426n56872j669566j472355N20888
38375a735887K32344k52642j04426k81583N47752R11073J462044Q36328l33768K79242l25866m50937o54456j26465
38361B753l9380Q37616O34014k0264K41942R23744j175870p28052k128665n12427J462354m03631Q5930j02581l6521
38346i59038n48453k66800J679946R30114o50424K86461N20939j071918j3968l94504P66521K31782r22082K51989
38332a59435j294149r02017J286364J867404k91134j355913j155701j623962J140489P06014J027362m14439K06542
38319i62575J196811m6076Q58026J110056k45955p72231J101283j27603o28447Q08546l39977k143555k665498
38306b857195J072507K681443P86803M67173j743618n19915l81363j267308L71520M54127j04789J012266P38615
38293G10266Q57560m5492J9822j445065P15580K147484Q44089l04857j37628j404298q51447j288470l22167o87251
38279a191874o6705J28004R70667K59186j343807l8560K01681N90492J990402R46932n65196q13312L71464K57364
38265A696738j187621j120923l80381k20311L7672J826844r01677o02671O96637j44576L73787N23925m05670J173021
38251A364794j707538j142377j62973J185952J453267J383364p91075j7988P63389l76000n34036l37468o68796
38238D12515m35845m75238K55186k89764L6079J15155O8139L41946M45019K428858J546574L3749m93069k572534
38224A416770j424150N23197K49341j49499j43226J69605l63691j590696m46036J504822M35729p42359j47940
38211g08133J224714m1240n29067P38140R50840P55136j804495n66774N94700j62327j853032Q7872J258528k0516
38197g5654J394276m14105k264080N92029L02909j509232o5803R43698k44748K84579M65208O15611Q66477N28198
38183A419363J526300P67576K50086k72112o01749j153313j347638p71606L38739l76048j30724m231k73569J6885
38169f12041r4203Q92546J393684N34061p58322l25673j004200j167055n3120L85539j013312j69412P92046N1728
38155a147734P62268R46856J380313j142262j405848l36411p76461j535308M18273R92741m05003K16088o77800
38142b710288J272545N69485J04036L0819m04307K50634J477904r57078m87706k60064K50302J08754Q31745m18067
38128c41286q9085O79355r12659k90797J894591o10868r85200j734746m38547J081950N27523m06986M82794J33938
38114a010023n37023J476111k74466k731292o73340J127586Q86884Q07532M10104k85618M98706P65487R06313P12101
38100B079062p73886P7952J190807l65708j207063j080652J40367Q58177Q59196j29131n15978m10431j980829
38087a258117J388341Q34658m94295n39159L64560J814266N59839r24884N08961L58626p14718j561962m74785Q19146
38073F80477L43905j439417j924676m03989J427092J627580J190081L33709q63739r32503L60246j091930p9930
38060g73094L21724L62540Q54292M04245N71731K69180n66171q91590K428432L34596j843802j906647L92743O39991
38046E98170l24896j57683J561994m89892q63201j4883N6335p47729N5194J054800J83308m73408k33634k66419
38032f1944J82831r40254Q93911K885385j54535q09778p54772L70452K91181j556880N55895Q24895j648563J98910
38018B76734N74041p80908J343739J214885j293291m25463j899635m57268R8824N97895m42798N41387K173900L13504
38004A835546j292398k39241J379019m54287k250708J275270p34736l211104J14949L008894p32618j095897M81990
37991a915321J309438m32193O02519J033783j450916o10259J345757J382474J008231r91047j793493p73678p03688
37978a988393K76572P38726M42864K19489o70790J036857K1225o61008j811548j088664J004716j180100K49344
37965c410710K204048J091304J838802L65107l008312l903j36815j318635J315061R40586j159863j007740J433110
37952h57960P51593J193761m7439L75783k44217j362121j297588P80675L78769j439987r2220J114784J772889N33183
37938A559905n01062k88391j191552M904p79756p07452N28554J649545J469108J21691k487947J115027J452029
37925A944603m93238n13225j222063n14100J164606m64756Q80280J680208o75676q09046l27913p58749j50135
37912b59204J726513N05508O33007o47056p31875k28348J62453o56428q66701J130891J307085o71863j094643M54935
37898G64274M02474k04576j465227p99552p61697m93944J038060k36761M95082J101621L93198J770930P97240
37885B801122k312617m91596O09306J53237o04421j69041j361479p53941P94627L77266K85937J55078k21585j662041
37871b400148K5353M70899L57080J080037P0656j257722m73312L94118J505053j0314r20500J53315J157670O00349
37857G52534j419935J3381R21598j143442j364188l84208m48942J125998J196895o14083J003615K9092j13777l40201
37843g85663P42016m19364J148180P48071j883094r17540J116558J56198j26281M34222O09694n18318L23254K033005
37829B660938r16144q42767q38600q64197q41654N78912P40515R51615j72214l53155m37554n96574p73645o3634
37815a768158j38766k39225L79368N45471J5287J474335J423985j517561m0610J082513L29180j300268p16550K62885
37801b08114K95441L13292R41422N38276o8329L49380p82036n38478n40418J165527M72934j002341l41483N26692
37787A121765j320503k474440n17171K2007j031516n35414J477144J441242J244108P88323J264187p01856l21579
37774D56297j77589j71087Q11641L12952m73859r72496J406275l62071o26562K63285M97713o01846p0581J059043
37760A351115L00346j3694j027851k290051p59628J393400J379776O72110o28960j38203k38414k02836J05311N88783
37746D91204R34259P90513j490451l7616j5024j679498j305484Q02522R1327k363883m33626k06320O88804K335460
37732a397813K209767K35151q64294p05532j068838k12145m43553N82806L052282J462367p42607j715948K74738
37719F66381M05988N95852l35912K37307O59595j964962r60878J40299k04352J276606j09329J01803j411295O05406
37705b97491J592998K6672o46323K60749R001j453396l83850R34341R01627j729545j017103K29057m7318j06407
37691a726988J03659M00517n95938p88322J764784J007047M504O85663J552169K46266J90826k64762k315221p28299
37677d64095j00892M48162m09267p06139q0643L60241o24566j94585R13641J089129J88268n17979j55409r70123
37663a224257O74289K199486J846873n14329k738796j551414l5521j642062q60574J428752J115262J140560J651064
37650A489333J544006Q68936j507407m0553M86326j445191N36817n81416j432825p66774J061276Q45668p24451
37637C33745j089415J972413J451058k65097j554188q64909r88053J42198J35689R74016P73935j2735J128194
37624B136851J137634j331304l01761J224142j374551k995240m91878J162657P75526l91927R98098N41926K57810
37611A347983m24086j911156J36934J93066k86143j215415r5983J216461J426317J93156j00791j639751k111566
37598c270974M29921J001454Q79739J436866R91317r84333L28306M49903m78798l02856n4227N25594J31107j028968
37584E4051o24463q88131O68633N19784Q77052K28673o53515r63915J82266J04985p41756N30173P35974m52103
37570d22292j175536J270410Q89480j238698j582612J503911M28359l86286N52140j047318j215574n15697j506991
37557d446704j070526J082374J257827J79395O27349J780759Q26597J205292q83366p05015Q06092O21080m15504
37544H65650o65691L85118R64296K91329L15304K62405j014905j310403j359104l82443J691843J230306j297442
37531b3737j132367M83401J680511O6461p67594M08971Q6937K56086k68724k092232o89898J800541N99317K09251
37517F16924m48166J351936l05077p84605O81043q3791j08319j683068J406418J007129n56574N29088p57251Q61592
37503A727279J212991M08946R54467j308132p66891N05904j005422j752372l7182q37343j000217m19421J316786
37490a000607P34589R67864j706638l36460J347156J80989J65950R64218J133295j031790l34843j004924j806855
37477a728056j121363j05218O09590Q57642M21897J674441Q82471j521238K32149J291193l18814m86235P7003
37464G65462j005017p05204J25227l03910J171355K2511k47123M52408o31095j834540J5065K526840j201426p0
37450h49517J069652k34665O29966J41049n09377K77187k2683n23177l05174L15296k1305j146244k89847l64658
37436a833497J706646q21478k47240J49574o96441Q56004q03709L23857P60254k31715P45735J106023j11280r12340
37422i607M11913J204169m74955k275805P74413R59859Q95574R96891j524682j266798L78154Q39328m18769q31128
37408c41443P7491j041329P80384J6604j258787N43002J662081L28437J386067q1276k540555k98035n04482p90395
37394b062236N1586N78344M29626N40783N22389L91406q95541j390136n89579J228208j95569n27223J073135l90268
37380a235075j159986J101380O23744l33044J353671Q9998j398753r01858L36338M62431j320359J611976P12092
37367e7445N08096K84582K72110n73438Q83580O50400j092599j288294L32257k42352j497707J449486K964000M76347
37353C069023k093620j305294p94466k37863P7068Q41845Q60606P57864j451157j79146J809037K48584r03538n37226
37339A61717j554358M6237j84353p0674m1817Q49545R77224O28185n18836j067823l59661k046141k15074Q74742
37325b521087O93157N19028J33836p62359J656056O58520R42467M54888n24179p94843M1422M47387L03029J45320
37311A392642p38964L86705J451724o2477P32561L79205P72124l54622k439464k061069J072844J119786j786611
37298a35616j258735J830568K00182q47364Q5701N52469J068477l29558k65474J281216K33742j962163o71282J74058
37284d3779j089755j089661Q63412J050918o75857m70960J884316J374758O47137K43984o01904j76256J426051n5817
37270C286587j59242q86271q52879P9282j404285l66028j5244j371520r18792J307713P01418K9571J255669L96108
37256A082087o10805j260777j177214k01416J127628l23038J88590k94337Q60099l84267J8130J038371O71655
37243G34706J517606j278986k181216j804500q12165J63290M43139J267439J235219L7591J684463P77951J78156
37230A962693p75991Q93107K07618L55757n78503r52444j388696j56589J54601O89684Q92226K48255j439624j690144
37216a578050L91776J056200N25842Q9182L51799J493769o41872n10236p10708k62910n29409Q62588J580134K06662
37202B324767j109793r763r4286m05671J77895J11058q8918J310582j68754j557595j394324j387299N41594N57738
37188a192769O99016J91337R86274o92482J71533q28012k73618J64006m53655P78823J409204N26760l82051q72257
37174B32109Q45060J13156k241196j631178m9511j641685K52581K178570K475379J477010P88946M34977l92734
37161B841484r25199n82188J187457K67394k85858j38551r76551j110628N22134m24654k70750r19559p59303M97848
37147a076924J261990P45174k126905k585703K56142K558724J085241L71105J174914Q1731q79510J003635j034780
37134H34834j632948p16003J026966R52187j012764Q3719j98692K273292J219357l38414J64794L28902L82836
37121C368066j039124j890072k37745Q83434o0092J914497K75695j229696k66839j102311j616871l16387j51588
37108a469033O80670L79094J289081j98103k115730r15123j15389q83381M13458K439489k45011l14746J087861
37095C3137p22350K22442N66834j64015j912338j77718K034341J838944R31145J185256p42403j372666L28983L24185
37081B373777o39568q19520j927051j425762O12173J127598O72213J350790l22400n42865Q23787j87520q44678
37068B50974k28030m56968J42155J464116k148094K94679R65731J018443j65588k145217p20265Q90333N44479
37055b93252j451199m59814q63627K4979J582522J159192j263491k87521J110397k27152J694885J629012q16900
37042A538031j705767n0618L74209O23759M38912M46316O33618J81370j829373j516345l99531K74173Q76031R6356
37028a8859N32435J629189Q05846K57579L68139j465285k11298M1580j767460j380382l28344J708180J096167
37015A267487j194406L20318p37419o33089O45366n21937l54604R89893m19868n60877L06842P78065J136486K76556
37001A298813k93466j44556k36146n50568j66564N63035p68044j523123N82727k66304j200764l15909K071885N17561
36987d31423M46497k16618r18824o41390j68928k56323r94341k51560K022952N21442k48331k23823O78266J337039
36973F54635M67772j535445m91223P94727J173570o31277m42302R11186P4139j251130m59684J37078m25525k21784
36959a245263N79104R1575L98985J224687j510911J68598J222195k15905J53388j249351r10073J35313j31413
36946a289071j304820M50345J108035o12221L53593J76024K98649O78902K01255J465948J050419N04922J125809
36933D207789o05750o28971J51853j032530j15086j058950o14894J061640K59679Q75987p66263j608945j53454
36920b7895p66380m83934L43606L86162M38019n74082N06470J426598O80221j288880o04858n5370j398338n86527
36906b005188J154231K262161j329430j573973J014764J050407q67052o51347K194212J122089o18642m85771J192793
36893B459254j031945q51964K037358J039691k994137k032687p61506k07956J490103L52552N94615k2098P1162
36880A42442Q66351K74060K76116j745443m01299P41924k01293L55430J103828J06485m00084k082516p50726j25629
36866a840354K91595j524211q59183R53200J110848J544059Q19845l33515l0194p10938k18749J073117Q40040
36853A115560j798128R11418P12959q11807k05461j61633k22718q09064o0814m48673p76608Q14124J041385r3727
36839g93187P6040O34626R65503j736472j020384M74315M82672Q97496k36495o15240j14894q76614J628723J336260
36825A102349m88918J0751n00421k409520j579155R4068K60391P15378J425677Q75566L65542K34052j026911n57028
36811a478179n42136o43618M25581O64413r0222N84976m77323R64781M22115M94494j159432N86974J97632m74582
36797e24526n38021J010784O23665n47035m93279m68404p21228n84979R16450J259960J010176J28972j059490
36784A3045j135890N78700P11396r66889j83986L6741k56719N31215J868410K123422M27511L5396k433840r3555
36770A254957M63351k107833j298956o54787k45680R23197R00296R02590J310082j084973p09606j808475j038199
36757c194036r0029O74181M40915o77326L7457J109730Q42178n11403K82597K07116J064222J04232j066082j200090
36743a976338J453099O6460j100697J14758K409537P3173j251435p34315k18449N85601k33652K56009l72263O59213
36729b69299P34045N29389p63833o03213j263871j489147J342707J771207J255956J12749r05127o16354n62457
36716g27248l98588L82159J012749J49069P32908L79205J87897J91774k485422k28724K256954j006574j076513
36703f30354j005774j014325o28225J55314J466727J562255J075139Q99761j114467j229235J25011j817173o81045
36690b836391K15211K22677J010996J324412M50393P68712j691553j39940M07673j124584J100286L82428P86956
36677H77276q33093j379352q14786J48765J406363R21801j238726j236256J294899N84470l12854j258744M82789
36664a357448N15963n3386J120558J878662J8523j933130j059583j247300J13549J129311N53161k5354Q68229M6430
36650E68185r2691m43405L68911o89430p58958P83346l5070J852237Q17065j522875j303049r88110J98966O13706
36636f31172k94854j52930q46001m1170p04171N27471J928843Q22106k413569j612928K428845J268053K19191P0338
36622E68052P34918l87630r52039n83498j358215q96528J140004K129803P5182K33181j27713J037597J708452
36609C321566j775422k114231L24384M02111r12543l2851j58618n94433O59184K15643r26202q01767L5161L22005
36595b036013O9565k22575J879447P9398m15703J55826J053261m56176o58223K93602k82546l97614N62193o00337
36581i75895m12932O13951J416435N93264L24053N50445j018474m00838M85913n75983K29141m23257j626844N75047
36567f45974P06589N08952Q01530n80478l71548L33695l82740m51573q42681J994329o74664j294787j075812K47012
36553a728150J361790j249876O0919J594985N50217q872k95981j319734K28712O60143j465666l31657K27219Q24129
36539h91822Q43733n9998j007626j108245J77128j08936J606808J433005j127101P10795N61307M05594r79155J96244
36525F51731O74940N23937n07966j806808n70730j076885J149237J231570n43044p88608K4732k6914K62912j13762
36511i15658K03993R86955J82698j074063j673163J005128J201501J9073m51985R9328R18239k60002n82332n45679
36497h85967l85563R94841l08392j189921R38450M68393M49155M82039L71367l5793J58126j020558j1194Q6358
36483A11341j044204j205294l18972R32551P08849M67644o14585o09022J96752l55844J25105R33280O56648k98737
36469c14488J238119K105554q78401l038506j346424r68476M06312P63694K004610M62026j591772j97427j55827
36456a511006N80304J078947K433060J542587j300299p57243j798063j360883J065641R79496P7210R4028q77433
36443B46346j396657o2835p32157j233253P56339o01002J436518P65813l14339M77531R13206L6525p79468k69315
36429g56748N64649M63901L37641j501995L3025P02417o28924K42987K185907J517865k305244j374429k80140
36416g99088J551181Q56812J51638P70180j503772j345063q05754L45906L25222J064252M9693j332627r1302J223422
36402D60700J100768L33262K6029m32188m96603M77683L13805m16562j100804N29480J069809p61625q17134j268203
36388i81583n80440J140222R70341K54937L74162m20432L29506n9496k98247l13846j74748K65937R53833k040525
36374e80379q65941N57573m78009l38996l61575J256337j025116j20095j263159j314784M14105J656642J138027
36361a325370L68910l95796L36172J461109M23924N75472K32132J57206p03063l00615k60214L68898o20360j156971
36347h38566O5624R16796n37925j97411J657176k50780j53622M19493p06358k28111j030634m73585K15414J113400
36333b9089J790921m79203n02872k59258N71635j45203j0783Q49000j98715p27056o87864j461187j647581Q44054
36319b093201J260809J695481K83182j111425j262607n9977j103024r45589R57689R32755R65804J019724K91382
36306H31003n89906J483257P39693j041252j220329j058005r01549l09222M43534J393096J56787o68921J578928
36293H37114p45669o58740K72952M54353j28220j21397m25679J51725r44352L55839L5573L99115K316780K1455
36279A820849j019829j232084o50682n42609N71810J269704M08591K53699J42217o9940J121593j092413L11792
36266A292698k03956o67689J66769j99491J936141n06681m59499j33038j059698J003271J296989J00357m26829
36253B139344r34007r45598P4788n03403r18159j670807o94708o55176k73714K307778J172083n22914j341461p80558
36239c546512M01464J221205J521800M07457Q6528K080337J359756J26709j045054n91988N75493K64387m86853
36226B374729P06530m01668p17157O67321j377119p48136M15549l12420k65731r63047j105115J001334J472856n0097
36212F97829j272149J63667R22934l52490K52132J11004j438177k79248M43408K071224J027924l92714P94089M53375
36198C202808r03908o25005p37838j878235m75242O36915P77974R63848K31231j24499L41835K69731p42358j13283
36184H23974j21945j242541k84304p27204o04847J262691J084980k00407n73988j12172p68698l6412N77890K12100
36170g10883j92180L44742J40516q177m88212j736552p37798J558313K086686m4922M48632o53263n17069p7173
36156e87340o32484P73533N43684M71242M44016n30796J49850K79226n6269j184352J56145N67632N3186j272541
36142h25268p41041J254840J371108O2639o29982n74650p64381J88439J944913j303402j728738J161451J292915
36129G08843j918764K10791J412314o2993L90638o80366q67811m58925K38571M1298q9817j391915n18897k79029
36115c266062O75146J600699Q41300J46397j02936J030253j047287j005835P1168J633178q35607j483857K001285
36102B57842J464542j320331J324391J078246k06012r60151k203976j638042j27952R158K23914J043092R56086
36089i9193j06200L53167J188510L73000k62482r2914k720k74296j313431p63873J995505l37165r6346j550665
36075i89103p89900j604123N52082K391042J077315j616261L90044Q94585j59522N15838O30051l60690o06260J75315
36061E00413n87541R04825r39226j565298o0736Q62551J32365M12615R9127M69590Q80229k9009p83494n83889P0143
36046b17335o12763Q8363J72366p79924J72208P24763R76888J400749j599848k249973k76981L93189N02677j73088
36032a478709P93501J173526J07159j061544r77999N59630M68398O27899k44909K22697M91191J504366p81334
36019A403872j480512Q5400j018862K97538R95755j221831Q3622N16999Q86748O66511q59919l03717l52988l66804
36005f68188m43841O51166k72283l8222J479442P16923j182929m73348L02755j39631l36998l26444j425483p76642
35991b933723O82743r3475r34090q04898J571452J807531l88758P83578J170447L7109q10138j85514J180934N57725
35977A640923p80509k004946L71220R18851o65123j515251P8612Q61696O75850P88204J880276J032600k015480
35964A266923j090771K3938K48394m95039p78445Q67167K01992m88396J218386o39560r80123L99784J265346o53330
35950C66266j396307j976318O09304K866062K125399N90345k550523j247371O79637J692107R71161p42888o62349
35937A324525K45282q95911j163175R18063N05768p35213K82509l80788n11852M96128l34112M36647p1171M84508
35923F01208l52915j701249O60065q88757m05618J341094K008929J411677p48838r53080n01574R25604L62040q74166
35909H84420p46741n86670r96236n05714j48045O9051n62527J296344Q20984j210256M28386m78109K01358Q43863
35895f89892o56535o58045J04016l03731P68023Q59275J397853O3913l162846o01972J487575K45495q91414k45812
35881b284097K100763J267500m61130L14098L43268M29323J294434j145406k103690P99722O48614j577514j067253
35868a441368p60048J74512J604006m89274J85103K98898m59474k49809Q17666J204107J61053p11409n55898j9495
35854b41430p21593Q596N7631l05295j73748O93502k96659k40450l23819k02632o95710L56092J182864j177036
35840b079687J02127p84376P0254M96800L7437Q77104J28441m17282J866523J332146J14628j806623j178133J489110
35826B48469k81643q55809J094725M92194j845063m94840Q68791J62801n96435k18793j21463O76330J118320j42913
35812A04671l64939m48049K39790M93549j023311M07105j08979m26969J133249J300362L94366j463148l88207J13161
35798c7349Q73810j583242j627611Q24783J251313q08060Q10773p64387j945678Q05579J078622j29068L76026
35785h74489j409172j832455k084398N52011J067426J658597J769296K167511k67180K28358j09514r1295J042476
35772A817172J041703M72110j149384j210875N44825J789535r91461n45593j041552M61009K50281q76031N94806
35759A156545K57785m77227Q17030j44925q46690j268432M38055J258190q9106j603304j284412P54997j29454
35746a160948J092697J501448J45029j121201o9611j177896j351124J4452J22903J941437J009430j246617n05806
35733h05807j69684J214357M03244m59794n97619n52853m07275Q36739J016975o26106J374493k22183j617520K18298
35719c94735Q8088J989729J472221p26810R09392k01503k650532j957119l67133j100657L44015K531048k82420
35706c46416n22051j223945L03136J418949r66207O16421J390336k94046m97009L16181l57047O37452k61262l73122
35692a58630l32744l66262m32407O88305P22780J537951J322837q8862j384453l21834q13305p06023l3599J268295
35678I02049J023153K94408j812280r62086j21640K56006K93498o55307j463535K419590N96283m58905N91729p0884
35664H32079o11076r28535n16129N38046P70501J270362R38065n56226N20921J182777J000333O05592K40425l40946
35650D946189P87179J45372k677286j91439o72880k654825k230124J327480K55765R90340R44628j75068N94828
35637A390159o09323j256731L51680J422885k5516n90923j136148n02178N56890k09186l22711Q70340j95721N4794
35623b01689O86892L11368N05906p06816o03381N63731O65849o59858j420934o66447k87499p1042J266016L57541
35609b60363K94526P81331r78260p98719O44333L1431l1695k95710R26925J504184M69061j53559k19701j064691
35595H49093m03903N5284r11803j84483k3117r0662j91419K91958m17918l74443J152754J81173o84292q39897p38711
35580b330386p73241L71593L32230J211331J62190j537878j232253M34007Q92226l58781R26492J690852J781005
35567A569387j52782o40559l17674R56031M68172l44669j512584o27667o00422k297685j287173O54815O97714
35554c435096K162459J114832N7922K85763M70681L26317J134516N58780r52704K58411N95624n05879j03456r39843
35540A028327L08178n64441L4369J086056P22331k15454j450523j689328n60723j116046o70899l21117R57110
35527b452160J215079J348801P86515j502323K95029J485970Q78251q08677L09238O63360O943j171347k58968P63900
35513A559611L34265r31655j609936J42751L14659k433433j291218l2424J6598K292679Q67959j366768r19675K95609
35499b760978o9526j276107J733039J424086J589529J587878k88982q82339l15118j485439r8544J229162R14675
35486A301336j062380j31533J488092J732673j723127j802529r82218R91570O70599l75352j571867m93731J656421
35473c02046j89916m65873J117029N94587r76806n10235L47773K52713N15995K40679p00238J74156M54447N81339
35459A133604L04099j097567o51143j394j307778Q92357J767367J016113R31041j360984j684693L86234J90734
35446E17990J459934N12998O78603O00475j393906o28424j059236j033024L54613R4684O93216N88241J84608o16379
35432I54393l81947j72982J599137J722387J66948n29517j621363j570716q04166p27187Q64682K192848J19143
35419A811660r44353j308942j47966j79664q99267q5118M54721M4734P2521l1960m43976N33730m2892J13850r78182
35404b031104p52811K10770R45787J041758l74498p07648M04256j19427J134806M37022j549429j622966J05276
35391b878208M64142K77260m46381n99046L66716P38523N18933n76589n15361K169211J126669o95957P65624O04093
35377A319629j213130j801898p98633j264684l86049j86250J491301Q43396n55427L2345k7260L24630K046591K88150
35363A12711K8032J030071J554497l14005p33990l34571k6732j052220k066117J279340J682902j157471p65240
35350g62793L70915J3941J620829R28467j47746O72335J071135j681097J68326N90289j41986J75353j630415N1946
35336A299499j527970j347934n23768j82282R27113R08706J248386J362102J252436j193226m86586j494888r49773
35323g08185R36661j48056J163366J93588k224082q1459K457640K372j051301o1888n64658q3298L74138L48741
35309E53579J276407L51274n15057q46140K66435J329367R90409j587871l363248J484376J87005q07703n39821
35296a220988j41694r59904o580Q14887L1911J561638j64820O86244m8702q71832j133068k63748O48091N85355
35282d83210q96336J366696j335678p23290O80073n29470j32682J020190J089428M62256m88133O37225k81610r9969
35268B85490J942557l08725k493888r18476Q89177j20882J377461N2551P71210R89330n60835L22603Q96586q44954
35254B279205q25047k24392K28713p111J472874q66930j458217M27907K23857M83810j53383n4496o13621K30894
35240A144063L60970j329357k99296k31526o20015l37828l33157n33372K647122J504714l79231j005382M45323
35227A033028M59267n48156R81467Q35157M2462j903411j928128k44778K688958K219068o6311j156613q35532
35214A576478j713359j653652r39768L14381J270038M82148Q24938j139626J58094L10387R37255O70640R92085
35201B090039J71375R5371o69787j091060o35086o15779n00371l56012J320633J418576j650968j017792P44269
35188f96592J89685k11797J74319P41359P88562j184725N06708J105717k40308p18183o0059l88384J333729Q0386
35174A420417o53239J89717p65645N49385J764828k52592j738693j170322M16318O8648r23547r4828o65275o34368
35160b489196J211788O47414j74635J001531o7767M5931p54826j036455M55767O00151L0159r7435Q56513J252380
35146A481320r1579l3665j145006l01946J537674N41914n38811n83164o0193J102490r86631j365336j302408p67891
35132b513232J664746P16139P74748j47725k39129j403889J07817J57274l77544m11659L77345N3707p36219R7812
35118a879809N49160J058488J56893J21498n1904m63524J242474P99554n9028n22255j94410l67789K10224O43782
35104A243354L07534n8440n15828R3084p8503K40043n85149j006099n75704O66387n3630j379785M11172Q82156n1468
35089d60876N48888J95803O87807m3915O69377j331246j775663j43682q44355J269342J009414J769580M46190J2286
35075B008950O44963j824549m18736j05990l96302J22143O97637l33367N43178q8093p05697O48217L02604l64836
35061G30122k86789o76060K33910J000638J935254j84891j284890m02267K81893n43960k76750K75805K15713l70933
35047F46795p76389n05032J226P43520n66719J79626N44898o97968k20136k9456n54527l24193J06131j40370P23634
35032h68960J591269J859565J01173r34665j682600k85024N97690K3369M56820l08565P86J60341n00241o46748
35018d35790j28478L95469K04974L87887Q80144j015295R2584l69511j265089j780565j015554p89997J602529
35005c236692J659726m72817R25026N10895l33620p11714k27743P68809p96330R25324J054417L1168j96516Q51080
34991G51013k79124J282384j030331j148888j55338J181476K014192j067932M09132Q0392j922543j104024L42271
34978f47320J275485m84767n40110k93819M26668J41582n90341m41085R55533N61601o61417o72298j42080N0773
34964a061595J246420j01705j19501k0105l80709P81237J421220N14773Q59116L23486j84205K20263q93008j041053
34950A564634r65077m00414J682446N14411j132852j081170O73941O52801o09859J80137L62687o81654l205313
34937b445282l96335K119733J548187j667471j505819J196132K197704n1348n47367k47467N9651r80291J202007
34924D82034P87247j27796j642219r46635J728343J63371p2370J574629P0994n21314J53348q08424L09109j513841
34910c63524j555037J120942K65181K32821J13116j205812M16427p83689r34895N59182K813737m9838q64555J251806
34896A015862J447185M60865l29246r49703q29719M01877J404867o70237q47051q17043J276928J460687m33240
34883B592032j166635l91391K678517L328602L898875J3095902J5800025j4437437j4831613o122686k058512o24853
34871A760826j266737N3098J57466R21286N84968j26906r59937q23468j934417o5552m8741j29688M23799l19990
34857a773993j00843N83670J056623J778012j374397j160632J014481K01871k043641o23852O38871L45112R36052
34844e22666J022842M92345j33606K94485M2375q98768k662404R57779J284776J188150M74843l62956o81546j901303
34830a405654J61006P67036P1208P94040q11043q10856J024949K39461l71378j062358r46033K21519l95784Q29960
34816a693927n9335r82402J151948J194100K3984M96639R7066J463554k85360j324011n30466j274764j52177O50876
34802a224275K596577K157008j251300j109583O46506M16137k63047j9691k98239r43723n82732J400289M93950
34789B017877J285525l74325j351506j518774p49584J37692k6933j47503m21849m24863N09644L46670J69700o12488
34775a160717j78850R64230P08670l20587J198060L83257j005644o24955m58784j62623J560857J042535o23000
34762A322449k225549r27542M15166L328m85210l88843J333377j72194n34669J66512o13940K11956J038433l66376
34748a223102J481968L61764j261480P30262L64621R13242M71246K18181M77461r13037J16948k31332j464747P10890
34734G52885J31057j53704J240062N43784r71126j057251N38987o97046j851590j95093Q55455r05647j023862
34721b793089J002610J949332N1465J046316k34924m18158Q49710M91380m32669n56050K1340M01422j656845k463252
34707b741412j720535J661475K495871m55611K59273N18300L62958L5605R48997J815518N47711N80188p13444
34694C594894j768690J3812P0355r73493j179362r77074R87806J033721J497488J75483m81196N95304J15517l8388
34680B666177j578164j02157o5222k90578M21323L57873j132053p67587k78403L32701J272459J325094p53308
34667A408155j134738l39740l36779N52301j88414K7481R5796q82917n20701J61078K50319J083981O95250q5873
34653G85199m08104P91590p2763q47491M43790M56185J98546l22632j200210q8467J078090m65051J06944o22332
34639a66706o86553N82739K46910J242802J43355j32066l37660j339959l22742k389421o20581J632444J185740
34626i61698K76198P34109j5118p57178j41083k36856k65435O05708N3273J084130Q32835j092437r10128J362125
34612E68445K67906j275042r46379j75295J060047o04973J318551J60871l02726L89714J002659l45489n76490N93872
34598A135671K167447p00622k446554o60443O12548p947o20051N17906J171746M90145p958N10481O77643j155877
34584A684135j460439O89932k18109Q07465o99290j447208o71849j61307K74172M92364m72495l48361n0492J463596
34570a17886P16468j431870p24442J321366J46571j599872M53178J118875n4164R01694R74425o06065j40290n39992
34556D17996J123982P91222l1951k73972j210608j098882L21284j272629j851806R88838J059277q3637J744258r9159
34542E24213k408416j311475p6978K681273J454066J186086J031292o03698l91320o36759j387702j436767q05464
34529b181649J499997n4094l63086L70583M25970P58993p89353j753329j15859J792448p1128n53608q31309Q03453
34515a061971L98614l5927m94390K57947N04597p4688r29190L45465R29690k4240l71572M20408J901129j67147
34501A598725j268121K68017J157545r05659k279668j244363O36380P6272R97338J714412K64048o75126p40484
34488d00684L69200j05567K43162J152171L8961m59376p3239j139708P66741R9031q85931J54285M37040P0099L52493
34473F18678O13236K004710j289525k570556K97367J041664n87433m47846J001270J28221K89788L25101o56440
34460G68235p48023J641148K615598j125646j620099j976870j188985J217742J569932o8221N87698l40659K06309
34447A538159L28615j738003k272235m93683J445330J552006J878149K209920J50730j310559k248282o23802n26874
34434a10529j124826K63522N67359l87893J351553O16929j579619r76004R95381J124614J6208o19344q2133l0426
34420B4792j080926p49990J23520J207672P68384j043686M93021o99740L77396l1544J012348Q47591m56883P54900
34406A546855m40949o48330l20608o69786p1891L44885J399212o0238n73137l73949l11077j05486j090805q96619
34392b271923J492804K168258P02065m77420r39045m85773o06620j578273J071231J853921P37712k02282j012621
34379D52034j394562n75791k10599R25416P35571L20194Q30643l0191j354178R29264J114849O49704q50159K76878
34365A819073j157083j816035J72492R45832K84037J83760K38543m69092R39207J66214k10776l86598R2993j605897
34351h03330J48815J32671j386920j05636j10062r21140J024005K061652j01139r51683J7305J726231J793294K99204
34337B823267j344796q51714n84935L28722l34863j49789p26296r78167L60800J353358O486J594209N69830j862342
34323B03770p6651k31954k893534k086024J781061J628005M08263j33345O21518O68056J052805j364326j005341
34310a427697J028561J351927P895O93812N34046j309049k56756J129513R26798k8676o66616n37879q45695R54203
34296A554387k100610j711410J27792n90655P07187J694308J17639k35379J62459J474956o83812r56114P40304
34283C01052J27280n69746j267821n65010N47094l87763L4509J543001P19192j61878j003108R74725r90097j909983
34269b608553m00516J053007L432598J111096j64295j571249P18278J67243L20478r51k023150j42262J573007
34256A464731J709626J51563j355526q59992q06796R38350k07774j110632l71091n81067J73254j54327j145109
34243b154790q02932R8281J679796K309243j01497q21148p87486K0101L26434J42508q2279n0978J216250J33763
34229A125266q83396j518142J00429J069056J51854K72330n82520L56171K164239R80096j929048k195862P90959
34216i8568J117123O90363n38716N59014k38470j775766m6105J171035q87855k74594k50225J596051J902883J189810
34202D115980k490863j202414J60746n02726j325617o68153K382361J469891j13306m00823M99604J134143p52381
34189B306442j374238j893326j556441k73955P22985R76796P08873M2427M96883M77215M69155J212170J410669
34176C725655n37151k51181o52807M94208p68311k527985r36620L17689J888233K74309j390708J93541N39652
34163C68524j008121o76204o1080O49261k04078j359654j446022j092900K579993Q39803L03082m3956o43206J681264
34149a13294R37523n20079p76081J689882J460470m41705k703867j491990J51262l10390j405479N48127J093976
34136a881645N66947j783792L96088N34430J589733R18757P05449L60260j751333q06638J101475r38682j12417
34123a101368J550824M10244n37994L14889L9497Q80539K316104j106381j433301j194541J53999R04237L15477
34110A512225j69595o16555j74894j240794n60721m69744M22049O14653j412870L85166l08148J932298K32461
34097A45531j015885k221979r53186J402701J361419J083265N27693n9292L14487q76249j410038n17407M29397
34084a789543J140254o1483J2112P42619o45784N5083L37347j95028j131250j187180l14520j368622j049202J328703
34070d126494O95769P38288J226063J352234J067066J276507o5528j868258j852713q6358n85685k19109J247437
34057a200781O93674N83952q84319o23753Q41472Q12836P05317L84017j0777J263341m77065j107654j386926R96073
34043E89407J504474o45860j758359l84545K010330j79946K61596Q10268L49300j259525o78684j311662J50388
34030e42818J389144P58443j169451j671758m3874Q69752J173860N07153l66294j491016j137720j304397l34709
34017c363685J40934J668734Q91493m3281O48710J516672R20381n22906j584341M54301L33347k33297k11018K167202
34003B783246L85707m26654j094835l39932L19378o12790j655994K51644J70747O08120j777796o45366m0237M43040
33989a631722R52661J100058N56710K32112o06901j041719K08112m93141M60192J56284l50273K4901N79504P8195
33975B24973R84597J41626Q79933o57062r12577J27670q7785p65590l69969O68124n02556P8683J233733j585578
33961e41778J56704P61022p31406q27976Q63535N45973k78910J236280Q88854o77223k85850O33383o96711J343000
33947B388897j91613j888677j558031J19457L82935N90147J449389m76595L76372n50394q50140j220167p74387
33934b202807P52540M80048M34754J34717Q80431K26452O15089m40590j178739m39710M54164R15618p04949j107601
33920a180583j45185Q96959L40244M65502m00291O84774O85861N37894j872505j590096Q08811J368693J731272N307
33906B336657j920215n32175J84978J04598j36122Q93155L80106O40655Q10450q74403r14516j436948P60694K44235
33892E41149l97565O03895j98620l34262J208720J110306K36861j525606j929885Q72215K048081O13791j040179
33879A808901k031351j036046j422536J741983P69674j91057J211118P11594o532N50027m80969Q7054M05090l09710
33865A807240L58137O33421j186443j570974J11808O17582q20551j863831r90331M17135J030115J727519N241q65924
33851e89856j969105n74531K041674J038023p26150Q68658K73681l84235j418186l56252O27357n32737K096198
33838C94539L069451n59759j143225k680802j447019J801693K117498q82318j090620l40524M38425n2548j618363
33825a993572J2185P88718M99817Q04473m89781p83424J118994P45588p51361j100752M55460L44035M44969k50171
33811a54822J55607L26263L61495J68156L71506j237909k74591N734J71970k72060R87054j21096q19500L19991
33797a2202m97414j652925n53336J133407J811527n00419m45046q51959J022660K38008j642973J048243J667968
33784G65539P68746j34443j08619j64582m49439J075847n30908k711030M93663J028923n75338n18431j709920R38780
33770a831212J620478J40536k50080M31527P12609P15398p0043j417510J334593Q11084j462096j242062J76485
33757c30293L66221K72178K21535K11871J398335k60622o13337j552341J168549R91764J24332j069506j333469
33744d04783M54773M1800J279473j25521r05044j629635n28881m21781m41773J016876J933410m56339L09640n36900
33730d14685k11042l21093N08577J198397n67285L69404N33911p98511M58854K19658j458600j189J420192K373981
33716C310569k98459j986529o85991M80465L04444R39q85765k64698m41338L80558J318824J626546o68563n88890
33702A602112Q69962O88903l99877j584688k309225j121820R96506O75946J244679q17429M71916J469623k038283
33689b51675p80937M65070K328852J022144j540894k145821K0437Q58469J631132k78291j442857J022792j389210
33676d80789j986080n18635Q98878l2453M13437j97661j026886N54792K13123o78744J114094Q28114j356909J093932
33662a161787K659028m16266J62308J252330j467932j956282l51833O36959Q40981Q1324j647237J319360K009493
33649A960446p38758j090300k29823n53644j420139J79275J082654Q1480J084462J051133K75307j862787k002135
33636b182829o77077P31597J486481q1285m61708K18902n6541L28311j62062l27436o64369K49713J606671Q60204
33622H68572n63025r96509j520455j277530R42371J70426J22217J334337J365584l62147q54940O87615J756453
33609A672969N18732j84053J253033k123977j122442j047527o63855j62848Q06096J867068M97025n15485n35310
33596B59426J77803O01802L46360r84465N17800K3480Q9337J90983n1410k04085R27928M84428j380446p39283
33582B59658j595963k04475L223813L19730p97413p47603n26863Q31231k05946j090677p02842J338297L08638P31818
33568A141403l12130l27100L09560j58759K48043K19344J55991Q3682m9855j388943r05147j39444M67317M81853
33554a74185N75383o64420q28820r89367J266532R46782J631986M86980k63664n83818j647211J73096p5220M08309
33540B62363l82915j299728p59141O10217l83449L1587R00103O83892R87276R55506j21586r43998N51104l830j0995
33525A076406j650992k129771k29083P89238J188390K313580J941521j544438k778236k95596K219590Q38495j217922
33512E21182k24770L60688j709411k13053J318996j539871O49897J036459L57254J009143M21436Q67112N22557
33499C377619q50900n71075j349795k055895M56229P71399Q24986M20422L89913O13405r22312j7567p32873J36166
33485D89722O82352l37688j699467k55414J598290l8937k68950J593990q99863j347586J130159l5041j090995p57304
33471a236732J356548K574839o52511j460229M22096j74256j243639L89907K28417j50396P01383O0423P50946O22051
33457B188847j228097k953998j301073O62459J737397L35085p96585O36325L56499p20235P70416j86576P8027N91910
33443A70401P59667j46237m00348q8744j014306K6434j235044q51128K59923N14319J003705J710476L37976l98932
33429F48162m37282M77864j177517p59799o4652O74110O48922l60046N0652M07617n74866m97618J21880N66090
33415b76483q12926Q60047k134o77995K532338L31613j378969J104740R23107p31147j258888o11957p95400j427315
33401b221369j32273Q09310J179002M75803j280995k2798K185616n0243P07439K2769o52380K40468o03313n41911
33387A15125J400661J44221k07774j546134r51173k2942J024333N91323l01314K51488j45263R79596M14142m09823
33373A336466k278782K77243J464919J178567k75116k59565q54507j042114K698977P56707n99303m74221j04729
33360A824542q26118k603378j126060N55880J134224o29775p6382M69873J248917Q02446L2888R5798k112161l62373
33346a571679K415687M64601m36867o44946L11308J428768L79644j678664j305636O78820M59818M04781m0390m94157
33332C71088J511658o70590m67605n29128l35413j368805k71553m45403L39291K97849J685094M40673m75383k31171
33318a49398m41756M89129J939570p68979k168907M40234J523243J2379J46732o56280p45207k121746J84591Q67953
33304a448442J450212m4398n71128P57210J623198k35419Q89098K76993o21997j193318J175418Q97245M25439p69331
33290B610780K440689J447605K174268O62481L685208N711496J0484158J8339084N2537677J2674451n4880027
33279E7887870k7953737j3442688p120320k776862o81792k446880l17112l0807j033281j284852K93847K28236P89334
33266B110956j17789L75392j342136j60623q59644j075199q21172r4933K52750L1779J051606K201250Q49997j59168
33252B243066j725866j177738o7855Q82043N68320l89788p11503N48122j162533j63755Q66443J046529j47867o37918
33238c0300j406536K55322J312942L72021r73272N83288J98790L90588J18803j257267p58554J961550n08184k33022
33224B6169o84721k081608P08885L379865J317712O67897m68397j051088p3626k72738M74247p8474o73567N28264
33210A718820j223817k044868j406108J425257J816672j35670J51583Q48877k84272K92523J266182R40980j051936
33197B314223j243962n90469J964629k97125k148971L72908N68875Q45994N19693j113428l72770j1373Q4372M54589
33183A347185P660P68699Q72339j642142k840140j30531o20091m84927L32404P34133P16621o35081j027320J119181
33169a482010K384706O23317K09694o17725o13104j935101j2342N37392K27566k59767j147633l70062R14399Q07270
33155g33400m05783l33453j3944J647586M06663j011125J3561j457283J68841K62086k07398J678643P20417p30626
33141D785l86602R93013M23290J333685j50200j504685j609897R85658N34982l20572R91721J89620l09391k03135
33127I72272J48754J209780o44495l13378m30878J90897m75453Q33511J606437J027757j97843L2523q11022N32430
33113C681292Q61244j157094P37744Q60221q36529j979731j341493l99478l30498K237145K194901j627119j742649
33100A157956j048867q41537Q77642J084137J15145j128661o36389L03197J749323m3362j461977j088719Q88619
33087g3493J038721l0993j82030n86948Q449j69773k04283J01437o75475r9063M2780j053748K69426J225424M85156
33072I5587Q42737P39614l22273J3010M6848J23265r86674k87728P2351Q55594L69707j646105o17200J577531j31662
33057G44602j597357p60222J88705Q6986M49691J346141K016208L0545j087763k60495m79813n17112R66933K13152
33043A340201q19591o85075m29925L60296j5873N12802J090206P10019k26535j255032j50892n93007k52201J367180
33029I52573k51403j063717N51446L51618k96978N69260L48285q33414j253446L94813o07132n10071N71103J21705
33015i55358J675118J628200N2149o67141r26040q79249L41657l36985j07867r16639K71193p74547J54868J860924
33001D20283J48229j045048r93810K278733p03611q83619J788899n83849J2380m06098Q42647o41213j463197r0935
32987a320209P72449Q08192P80654R99757k125039o37584K67870j415908n81328j9249P56014J412156P19885P5151
32973D92811j011345P20078J148256o86784l24108k48728m13879r66442k65716J808352j47318J322474J40325
32960A567976k565866Q9012R53334L44901P22698j037981o61577O86114O75406Q13551l18534J057265j368555
32947I57744k018639q34717M70387R79076K84018j0614J97802k85719N67168n67604M47544O60513L31194j001011
32933A77142J12782N51489j600829r36205r94221p32400K36658j71865j16529J818158R76133N7998l62562J073261
32919H9010J057719j133668m47443R90598Q522n48560J57337j029215J21991J122262J625943o92356q51152m60037
32905A0951J292465N36727m74732P05310k46146j765074K88139k21824l60383r7686n9309k27549M89414J243988
32891A114291Q36123m83087k404010k151698M12771J578713R88395p43088j28175M36789p78361m06639n08830
32878b236806J310519K005755J632537j517469j070556J069556k42686K079743J875750m62985j346410O56277
32866C753225K025991M518112N385935Q447490J6649502M3247076K7370683m1551162l6958236j5183279o731304
32855A0974033m074849j603159p25588o99402j255672q55621j698636q55632l55226p43753r65572J076610J333003
32842d49464J076536J089725j936588k496738O27569J091763R17731l43607o8745P19242R76097Q24291o95943
32829A331869k269952o68423L85332N97968K004069P18134l79688j773939j33242J676390k86893k632932l67872
32816a799179K96767M81290J309332L16610q3899R33057j133999r03316q95346p4131J095901J07046m21590K74097
32802d97360J105943M25899q45786j769004L26685Q34139m0610O73131l31330j008282J095283o074m25218m91860
32788i54444r44445q547J63285K128594J519644m61241k23272m30366m69481j283597Q70428K229307j027538J246630
32774B354957L11620j394910k447843l9879Q46698L25886J454955m23865p54648R5211j624341K09425J106389M46519
32760D66174k07390O80753K094388p65874j198032j286000p34210N53574n71354J03272J281649m5976L3981K63881
32746F68836r43159l53809p45402j34405O23547q21377K658K743565L00192j258422j684972j053589k07457P43682
32732b120112K384270P99887j602051l01219Q41220K3291J658316J837515p87147j293064q72309l75473M07960K8044
32718F29128j639919k960816j40427J439707K897127J725689j803720n61952l15067o46518M04381J279584l82237
32705g5040j219458O27923Q96826L31220J069146Q96850o97907p34737j234281n69639R99738Q13114P18918O75703
32691B498376l16885n71659o52561j19170J903752L1140k793858q52213J172777j58613r03544L94972O91256j09736
32677B14034q03191J15544J130728R71733L5772j518676Q3171j23782p46769J65845Q12951k26852J05170K48153
32663D63831j02761J198037k28223o19602o79240j117217J660448K088915j344677j631735N9726J322059J26537
32650A196098l40328j868891q29706k49374J066333K56218k60747O19900L2334p43224J115192M10112m21544o89857
32636g07484n10797N76028J297417l85512L65688N10391q00149k196288j783043p04641K15951m82199J74723J668939
32622b760976J272679k93222O65717K278414J157044m43149j107078l66274n98504M78281J939639J170324k038297
32609A354598j5891O69924j672319n97035p6301j21664R83135K93962J205815Q1282l2195k91276j347590J57768
32595E92213N69781L84094j845456j507622j032639J77791J498483P4011r69979K16794K078476J156847L14250
32582A707044o59868q99616j455995q80548N73308J490284R21799L74888K09028j038481M73758M205Q17286P07772
32568B344864l03699j006825L45066M84658j29966j593504j224789m64206N64370J333612l92559n12240j00169P2305
32554e83082J181246P12230P44026l57628K4883j126918p26152J14772j269391r7833J5666L76903J921818L84176
32540A314716p33700j633542q12546Q02056n059j337915L56952P82272J005583M66181K28136J039675N48091q04895
32526A216005j702406N50828Q68110J88456j021178j027302J59488L54106J688J29669n21864k92227O7111o53899
32512a683415m22981J048197O27385J281641l1153j044597m07990O60721J8114j413516J99263J204572r62186o50644
32498a576589J388609N32822p11564j34579K305032k71974j339380L52488n96015n25575p05659O07447K90727j65754
32484e49964j50080K22023k2019j326382j545076j24443P85268K250262N74696q9496N96491l35753n2264J09352
32470C42615O36815j103007q8047O06922M45474m81048j312126N78822P8521o93376r96591O73107R97810l29335
32456f43444j407536J196901O90563J124386l39548j888279M46682J527314j10130j152282o06117o17768M0444
32443a738814J257580J245066n12721j078920j76886L59272R92507M16871o70265j076657J093170k74392J84584
32430B0395l30651j252381Q3400J96552o72142l49528N89923R52126N72296P93883N74432N1182k50630q9741P8413
32415I67529k59253o56297O71826l57546n62011m75559p44424o90839l82609m02123P4578R50630J220425Q89015
32401B43342J397484k24579Q12279j324738j13893K00569l77564J05430L09421k38376j386384k18008j023674j49248
32387a987939Q1786O29351N13676k5870L39944J020714q37680r33181m81304J39734J439003J458202K44784p93108
32373H08112L51584K78684l23243M25219m82850K41832R39670o20039o90949n98657j122229J71645J082239J257531
32359A718549O4878l31332M59544J47933p50380r00624n20668n72558p36411n91580O64204K72388J021370M06778
32345C52091j108331r58622M22792O91326j49919M37345K121739r39246o13428j7377p73693Q99304P59971n11306
32331F12646j83283l1398N0354j058392j719522J79542J589490M28177R59774P54523p60842l01536Q09694M17393
32317A746620j76818M56623N04600p29360N90357N26204o05506J00345k419858k664368j302443M07379L080685
32304d85540J056818k4394p74857j049445q01151J728638N64946j34167k11086n09479q45989J459446L83284j348291
32290i91267J424221R28387q50779Q25047Q72217o31921n1005N43909L7785p05922j457681k721400n82782J40411
32276c220780K9606K543699J268687j539104n17809k53784J349137K223356j132890q43877p89574L79527J443363
32263I39557N14070n44618m91008N01217P85928j62532j737026k58969k92939L22674N00809J813775M8086j378093
32249E60931p30299L28517q7018R09986J919j023825J54063k74179j157115R85715J007991k78967k31647k163300
32235a997228j08744K76762P49979k59829O31086L87273J385985J524746N84395p29425k375310l56867J198321
32222I11144J364932J16994l84495J65807M51622O65583q29527j066898J47433M57906J60119j589280j152700k75931
32208h57291j8777J52414J064453j089558O90052J300348P54132n00533r31615j382378o08968l13903Q31658J057005
32194A47039j89322J117775N60595J19082j509716j85778O6255j063570L52683o0973K023416J653053J26332j681504
32180A475367j585228n92590R95974J018168o57355j311599r41551J58561J224465O34589J230325N21847L63591
32167B534564p23813m42285j62019J132323P95565r63316j527670O04958M44937q1905J040456j147841p8185r96700
32153D29069J020706Q32813o49746M163J536079j318591j455739K65108l83960L54267k48022o37764K363671P26424
32139B838478l43454N37169n36215r69250j193889n77030n71226j111257j23683J551876J960417J556930L77140
32126C396006o54550j321380o47246o69319M57845q58118j019333l21062r74435R41683K189425Q86521O99632J9901
32112B125570k095304l91212N61425k28595j51393k97306M50613n18001j629088R5070l5145M94400M54858O33871
32098e30237p46792j029045J736791J669490j136880j432960N06108M43706r90188j063636J893293M73028j63703
32085c71025O41007q5089j178974R91187O8487K47278Q33338K111918m22997l166298k789795K45061K061613N96557
32071b17732k20575n67031p77251o84805P62028Q58228O55904q75269l96171N42738J671584Q12135j334100o04682
32057c74999L01394O05541N32698L86318j313828j158645P39610N7926q93079M31849p9868N8018k18659j506856
32043b432580R26815J993310m13807Q428Q22650M2440n15140J821783L21344K36043j130374j22901j876680N25436
32029B06767P47428J67074l19329j220359m55173j695558r0122J446700m66214r9062J664195k21306j131447K040
32015a464366N48801j008301Q01400J257520n42282j81703L91770J666556J49072n1242r0658L82804N57860L92115
32001B809346l37704q67106j346577o79002J15566L81431P69543j14271m20891R55035j270539j954474k40590
31988b200233K012129O24143n68410M74184o17916K00701k87279n80500M85512k48755K40861J48622O56673M33536
31974G73268q39713n58005o85487m88575L9311O12047k65070J244017J724774p87110q85801R19975K40249J721553
31960B765433Q38617O35R2907O412l73608j315351k680795l388731p43001J178578K67261p19687L79213L59580
31946c332537Q18943J116974J11085J702542J904565l5213Q3265j364626k671549N70935Q41857N45692J048152
31933A340085l51141m50470p98353o05115j45303j89294J202533L58192j133868p51314K27638j14329R33963J639521
31919A162745k81364m36415p77944j99358q44152p7832P08921o9211k26748k003678n28153P82836O95117o11049L868
31904b702417J098508L29037n24433q59138K21170P97297Q32732m33739j796234K78608J672359J358544o82587
31891d10293j14649L3725j792902N67962J145888P06759R18482k17696j09253M23408m83976l38006j047628k119623
31877b837802p96305J299292k35878p83054O19323Q50369J072230j97953Q09671J261926r7098m71170j401060p58181
31863a665690m7715j981716r4880J103132R64814J093825o89915R0429J422675L57614M39120j245201q29296n34701
31849a617505M33316m79991J253041O1992m18845O86511N31484l4879n55824j020452k239928P65616O36987j18514
31835b116991L18699M36969n90526K36637J369336m92444N08712J48154j035520K29964K00899r76811K32224J479647
31821e1051L345281n25941q12276k153232j716828l39864J601044J234127j082417k06459J225951J865068o8954
31808B314449o53317j607588M75411L34333J127449m38533j645861m32121O68752J233532J693352J427633j079374
31795C418117k258310j56452O13358J16116r35066j660686J050234J61609R82445p16344J58454R06153r40007r75982
31781b36361k53532J034210P10432R39650J358153j686929j064769n87823j292085K315189J51452o10640j717593
31768i40646p28326J775171J089720j086986p27590p52105J611192J575714j407090j751761l58710J83177L82575K57
31754a135408J544272J654569q4304j624890r22924J173431J974422m92104q55959j104347l84397J880771L54381
31741A977513k06968k08728k32676p62328j163089L5245J889430K70147n15748N48908j117888o78246M97822O86350
31727A019744J307443m32690k298164J22845J417143Q16561k89807n21116j069464q20017K069052R14723n13966
31714A722287j61174J379675k32746p31259q77518K44503k39549N8472M64657N57769M82188j881273r65392O17630
31700D38270P68730n07322L96971J615533j55817k780111j202901n48067r37796j77491L40128K404966R0355j649661
31686a904213K69776N93524n85639J398188J370583r7313r23063o2716l34389q9578M09512M22172K30006J40581
31672H37431J9359m64620N41240J480424k91171j026847q9341j289893j28905M92806l63003j378369J373035J423770
31658A135916L6893M43896J06094r71940m13472M90613q5357m86750O555l94241k52177L2468J284564J26685M92103
31643A551850O37632j620721l17627j170368j32151J075508j23533j146822j381039J504606J353602m57008j40539
31630c66610M51313J769504J9597o46914L72347K8949m2098J38735j266289r94735O00556O79198K25108K55443
31616A224104p81582J129699L81262j153755j438963J73040o17544K5644n65387n90918O90856K523443N81861l78392
31602A203368k61941j484259j061549J514871P56230j581140J215202p6926M90522l17231r02724J230616O94791
31589A419830q42172j120980j067563Q23971J862929J22021r3028j491085r37836J363696J158452Q90595k11033
31576A877797j57601M15853r86679p93278P36240j7425K35745P90278Q80068j077193j875126o75148Q37208j77754
31562A2985R28360R1668j154699j657509j037754J464119K431061j180972k097206O28778J532313J157557J39637
31549A258338O60923k83066q44161L83013l21449k01841l3596K70588K77651J178231l31208n78219j79828n44172
31535G11204j900723k087340n30507J577805P81475j95792J13212Q18424J019210J64289M19428J66969J21294N73868
31521A752816k68556n32716J309121r8157p25263P63259L47696j377292j02403K304023Q87314k166583j312192
31508G81067l88271L74913M3336J083491J42724k357856j086596M70660J044347Q90415O81956K25123k08365n835
31494A691109j102719n45230o68636l81699j119151l63366N54245L17855L81870n97978q34686K067733K075587
31481A474934m36584j362232K026702K174168k05225k462802j595309K87792N41354K2120r2527j521870J80278
31468i69201n79334Q4133J557631K57558J007544r98197N42887J34957j173976j397589p82190J72990K253101L8229
31454A48543o74562J064888K28914j123512J26015j36209n48673J150086L61827o01863j709878k4713R57942R97045
31440B15850r46567j752980q78769J389490J256495M6802l36318N99524M44664K8995m4691K34131j194783J028726
31426I0569M2851m82282J30890Q18520j48964m79519q3946L44246N66866k14406L76563O94285N89659j075089
31412A170243j223130r93124N16863R48400R968m66159j278841p40751N49071K551677j62687j173928N88833n89542
31398b93107k168776j464185o2166R93282J511851Q98258J193285M73341J081550n82392p96247j833224K49997
31385g98533n84568j93893J631931R15138q69305k81833J75135R50057J5594n94901J77437j504714j528706J370954
31371a120207Q10115q30697j8071J291671O70687j444445j98540K73027j369587P92952J415213o55606j475603
31358a859091K44477J29907J39816P55584q46260j092220o98417l54329M49949J348488k58929J789668O47808j63050
31344B33401j47920o49163J322912j35965j71629p33666r13445J61179O37442Q06618O72197j231175q79384J534740
31330E06142J389703R6305J674492M83130k118784j812479k7775K06492Q94509K241596j011940j761405j09263
31317F50723R83705p68857k132378l36978J516583K54126j357280J549083k2986j681649L25062n9571K35655J431405
31303E86643P54399Q06705J89360k914896k023167R00023J887505J692036j074273j303978P41713o21328p96433
31290a175691K57923j49964o02839J206679N33432n85291L75143k01426M62256q41454N94335J211901k55017k26637
31276F03350p97319k75029Q4107r08457n50671j131710k46376K925333O79606j720476N40686N27396Q51503J39763
31262G21706o21783L94814k73914L16960J267213J214480j554970j698131j324619n79449M43996J125466N72660
31249D429k76624M63738k20840n33974o35084l41635p03644j295324L22012R26771q92884J300683J662010q79473
31235a099839j995285k56881M34697Q35919P05245J068716N81662q0411L18951J496486N58289k2305M5410o01566
31221A989088K94741m85275k301372m8313N93015r7965o13423j29513j425337N80359J273595J184474r60980o58879
31207h05785J449355L79375L76574R7602k394137p23301J833538N39469p86268k06515M78373P88295R00580j706783
31193B20372p38816R61407m41297M17464J488955m49954j604033k59654j06872q80953L54318J054021j207139P61456
31179d30725J259564p84600J733J621241M56008J092194O56722o89514M8358j131195q02978k55440m64825m93747
31165H2796O47733J474352k83052k675392q62690q89038J097185K322639m85621k263138o70927j216609R70765
31152b750997J208364j7727M44567N06040l66547J255367l85998j290909n38849j311121P31619r5895M3844K152726
31138d15516R42994o40072j027510R46732r28070j568270n99525J427052N97468N53079J99241J796467L90869n88995
31124A085944J54721R60755o12879j906082K26203j584320J172901J678761J080704m25519J55106M86085q34774
31111A637606j392587m40497J288667R48062K06019L87623N41873r910j247378k5811K37769m32393o6081l3558
31097A599404p60166o64571j55598j045610J367113J237393k165408K31025J58096J7631J331619Q32764J34449
31084B118141l57762Q55689Q0175j794673j282760K23052J445660q1194q27163K34360J42550l28667l19071l76188
31070b67851j316610o37264M74723J810827K001405l53336k295741k558984k19343J246717Q55614J331000L16726
31057C87883r12667j674772q4484l53734L56263J792241J10177J067731k28499p99884O18020R04101n80017j69517
31043D32842J48528Q66096Q52726j52532q57247n73240q92430p12557J784433L28477J452142j266536j56464O90008
31029A944246m90499r99770k01427O32376N38172l02629L22948L69966k8368m33843N8526K45382N1226M78866p88320
31014A396852J19930Q6046O87967q396O0698j273374k432473j05020N85119J201033m43578m09490p85729q12184
31000b132599N88789L58682M27201q49661O88501M27604r43484P3348L83625J532076l7467p79071P85781J115746
30986A639071L63908j054785j596399k54031J715481L37457j084375n44070m39634m78577M50146K09141J061766
30973C25099n13041J95851m39659n57231J130511M41479M20767P47548P81305L09950o12775j375708o61596J07306
30959B99806O17799p0150j801233m89176J771354J144045p96474q00398j246322J002118K12024j664066r58598
30946b779271M98897J361416j82749r04648K99786p56403J530881O28752P39256j043506j370587K47586P08140
30933a022450M92898K34078p10715q07774L59630J893167N21195j216798l59469j67996j615946n83776J736292
30920a247664J334906J76547K2547m33987K71731l59506o07876J025778L93422O16489j075022N20784K85204o93500
30906B29853n46759j79231J189797m93037j030830l02287j91669j144313j482531J404102J339366J517162L67122
30893F76745o22014m63208J023623Q19842N09643K94682j480737j388737N54849J191470j06342j340831j24365
30880d55380k36075l39964n54092p56364J53892K097085k42158K10984N01413n36056l00435Q03224k14576j230724
30866a099226J349344L37248M38988O0681O81459M76089j24877j102137j387682j067311R77145J553976j44241
30853I49456M35215l41898j010739K93040k85668q56655k95604m88552O54086n12318k16837M76285p0404O11633
30839f58960N54690l35313J636716J019444k151337k277973L14090J376426r8191l43252r08446j112143O73346
30826b310903J712932R44279m41419q98324o76810J93814N37148K43195m39254J14943J014607j04154j391404K36517
30812a264833J804661J816261k47249k57726n18962k164407k47894q30744l53352J463455k74781r09610P09284
30799a275897R44952Q43410k60106j153508O03031J152242P32764l84966O7604O24261J28201k282977j616454N22741
30785a354702O28351j846J680296K097763P43408R01764j126482j558605M13591n75297j530519K72429J820866M3229
30771B454246m55801M20867j202486o93960N45419r61243m62999K54115R96313q6787p88993Q89935J41314j531710
30757d81770q99329p41441K56010Q09305J547785m60091p22491k02045j03373J170903O0665J79382q35384q47752
30743a269626J00602O22176L05564K41172K44996m35604M6168o01325l51107k98107N47842O20778M6775q60066
30729a039762J97733j58204k03689J132958J095792n00516M46563J188231m01771j820053l32991k097925J334000
30716a159634J762144q5904N72530L59393j51809k71635R64027j425566p05689p42930j191323L96485J628820K52094
30702B01003N32657l50235j219290M5087J199214l49872r29148J416486N47619M1992J38951j59794r78871j340880
30688a205081l3905Q80784j491709j66666J457978J416304m7807K65171J02158p50848j476544j567958j52242Q27374
30674a942991j32490J1496J170801l00385l45168j78712M01150j022376R99811K396411L15305j300223J55743K90151
30660E18523M75422l37291k2320N02884J435174l69340k387860j885938J154276J513743J299958o42885p79571
30647D74775n87188N47063N73158Q36529m47373r82705k452j01641j42050K33774K83589J4468o79162o5531O5253
30632B0507r180K4420L27318j499919p99315P64368N50072P74445r74006R99669j304487N87440R85628n41690l72809
30617d67539o41448J462523o1637j270258o51649R68666K19513J049010k74343o96822O93724J081075k088659l66850
30603a044694Q59344J64156P6067n10296J58650j016386O61282J078025n17460o73212P33305J397281M59325j093934
30589G31453r84093o26330o65371J06269j39787o22753n81412Q25142J183598J70517P63947K034466M16824r30052
30575A682418m05813j80499P11985j457143j210447l40121P6743L94327J454526J381084l03509r27520o92913R67130
30561A150248Q97440j88290j608486q59667J415263j58780J36573L71685n50792j67738Q26108n04957k301025J07507
30547a434911P97550o88486o46929o94653R26629N88538k64992Q2548P50430p37915K80761k62699L61374L31404
30533f11351L64608K96079L43487n70247r15403M81943Q72350k45853j194861J87156o60409K12422K010322K19726
30519G89969O69691K413974o02553k268087o06493L48680L0268o92635J015958j661544k971372K58070R27690R08521
30505a439863r93088P90462J807397N31360o24903J041426J154619k66572k465835p85342J239568K550909n9316
30492B480822j628601j327405j199034M76995O77120q25920L23512J203093J52431O15688k239411j076530n92599
30479b959839m00137J773407J239237n5446J028382m30890k87968M94907N31303J186993j325590o84994j219049
30466a109684j617167r83580J18101J43785P23999N96252J690141Q80665q30501M30811R26825K57855M76079M76165
30452B179746r81450o79099J26994j187007m75847j62341l90436J370871J039720l71921R7257j26885j316227q87349
30438a763974M02359o26421J436481J682833N0352j145507k28393P87469J63260K13791M77390j266372j396546O3437
30424a149841k13579P23246M96251m06639J96230L56941r64103p00679j71025J275916O61607j164096P67627P90197
30410D98053M96734Q6989j60856p45230q41711p17152k36345J014624J769755K481675l57862j830312q67789J237026
30396A827599P34108r46569p8310Q14968j0232q93061J80078P97750j713399j136690O75760p64224Q373m30516
30382i34365q60048K72280J583143J022780N14194L13847j504559j660675m04944m0297K288631M02844j232350
30369b39519k01030q94982j077519J559360J405727j794227N20143J631736J421158o42037n06560K36039N6855
30356A475144k53738n84355r33132l55233L22016P76801K256790Q93042Q95205j158618j457680j037057j940759
30343a101574m76991p79515J025000Q4985P48709J99583j154534j40266r96898J362858j31599p64177k88922L66235
30329b047106Q58862J581875N55477o8707j0662j021602J63187p49436q23815q83110j07879J093446J605939k02334
30315e5865N88279P1039n55807m61298m54732L70127Q32868n24541j295456j431796k11157J559467j004708n41432
30301c115012N00419J31827J346314R8452q12317J012441J149553j55826k26486q16492k59641O20866J504908J17950
30287A096956j319273m98412k90956P47809J230145l3967k228434m52181J915941m23203k081130j090634L03275
30274c124064l25024J969666J457299l70958N95318m59295R9581Q52264O44450k09354L1693J092238J119790j856333
30260A517271j953207K1493M22622l54970P17552K8372j154203l07972Q74442J129091J097553o3274j28803j31517
30246A714450n42321J595282k10104j456220K53907N43533j060666r10798L55154Q03433J246741N93810J4385r29816
30232B010770n83648L97825j22212j259544k83570J631847R32662p88898p21549N56001J14005o6997j911721j63412
30218b58441J000311J124475N8538K04455j326183k064109q22527m07145j6533J11296M24211n65219O9958K158926
30204c07987K038365m01633j160688J504914J67465j408676q41803j025493K30055j57855O28902N70137J066859
30191I02562N87926m39337L08659j917988j610533p30083J953069J290653k01810Q50190J700814k83172k096793
30178C14157j046004O54081j102191o11597J70174J54593J54042Q95864J180307L28224k383375l43191m59010L37016
30164a756910K83168m20204J6561O20601m13434J141098L58568j27462P50932J992015p30700n70175O606k58908
30150H91756j046168k23947M32904J63375m28195J221321R25693p56381j115020J758717J916081R29387r47953
30137C721570L232156N367255J0729545K0474463M8052269K0884760m7821970l4038949j3347243n409225n010933
30126F833698k588486k924270M27161J304027j686762k815509k3912P96787J652427J568636o73463j056152J53162
30113I67344j519350O23151L07258q37540J309659J664832n38741r79340k95020k53045r05201N3075J526460M66955
30099A590497p97908l8758Q6551j955963j170769O45132R91663K148298J512389m44897j137689r48132p67661l89603
30085f76850l97015K516470Q48068j474546J22216P3414n9948J096431L7378j002816j773351K90652J093362o39425
30071E4040p87352j079825N71326Q84722K31192n52970J809149N52834j073925L0857l85556r0694J600816P0188
30057A834802p67616m53447O27465j31787j86690J140846K45579j048433p09605K99528L1603j583746j512878J32679
30043b081700j41841k44988J586955N43082j417764m59094L51715l49074Q37953O30180O57850J942851J950593
30030C806718j930485r55739J79322P88535o06482j25541J005422k82390M89563j924349k004114P43458n93880
30017a409962r49572L99553m43894J600226K345099q84629j657782P21354J088097J174640m56131j638879q45778
30004i57658n26251r4603J723654M43985j99816J161160J573103J57953j168908q84612n76362R64897J148447J45113
29990B910102j274744k632960o77435J406801K69465J299722n73669j249997J90342J314237O23438k26835P6118
29977A454585r95160l07655r86257j126528Q3993J31654r92974m84438J927364K503538J686576n36707j309009
29964A048982J97287J85626r71326j321289P50151r47237k01922J469117J126892j524343j175636p82014N59536
29951a586176N67239J030793l57812j617637N81942J933011m71329m21480J061001K105563M44736q40531R65191
29938C394511r38840k448710j450734L1194L47166J145440J652786l79850j635893M60708j129114j238413J299669
29925h90080N83604r85190O73217M34155Q8411L39576j335342n49383K124454K0720j929612R35019J350621J6005
29911H76175m69660k643141p63894q57014o53070J295110J346890r9770K2584O70231J984106J536141j06363M85424
29897B623749j34014j279225j011486q49796j17719J161172P38058K74526l13513K40562o058Q89831k30548k232094
29883b46555n93700p36821n59778M05170R83818o90878q15837N61628J994067Q87901j791517r45044J506737P54296
29869G13487j694890m22007j31540O67885J402172m64311J55284Q14647o82219l66400j8292J112757O26081p9892
29855A632762l28821p99752p23919j416682K78751J390118o07284p89736R73863J39622k42068j90067J651522N27787
29841A496096k056869O61223K55926j111577R62153K784041M96687n32225K69423r96618l12066L28562P0414M36377
29827B751547j10744o54725j262223O4801P21800j76620j10790n96097r70619L57653J645945L73557j178759M29088
29813A283814J821163M10470j170752l51814K75957p82775l89195K12450L27518R24977r76783O07077M02588j141376
29799A453319r81613m30448J464568l43430P15315P64045j300821K08206n58269m55162l99543k44111n88415n24659
29785a221018J217397J370386J048425j085375r18719l8829j93232M24796r94938r78938J433247R27089P8002
29772A068293j692164j012937J565902K79059j340152R1645M81034m77109L31392R48882L38964J909899Q50287
29759C342995k138865k377939o59790N5995J895717O73128r32649j179183J252098K406892m35145k210208J00236
29746b06718N37048Q89061p7169j459426m71809k57202L71271J681932J021633L40076K72920O80005o26187j026556
29732A668879m48995q85872q71533l54716L38458j053267L25041R42422N38420J355558J018329l55997j124048
29719A092679o26019L70501J819555n9375M85601q50508j494543j627097n34844P43419P26839j88489k66309O52509
29705B43919m55291m34307O84424J307156J43169q25435j481147Q52831J75111K061378O52960j403228J80123m37317
29691A264346p76698J273961j398902k234304Q52179M93807K38981q78983j526137J171104Q98533j644290j224270
29678c490673J62365K002191J781582L83344l43793o7326p64685M37611K35433o48313p42084N13796J460246L48667
29664A268361m16327o19323J119142N54363o14959m99955n32365O39686J101509J30047L68341j806416J48355O93831
29650A534290P0409k35377n84863j165543j070991j046846K1857R25903P32587J728049O42889r07668j53024O98398
29636A190070j516723j145877J402430J155858k41160J212432L08645n11839P2984N66405k296140j903002K12757
29623a493160j688307M78252K109238P07962j69756P49472j116693m81431k17333J08028O78628R3575q23416J035019
29609b9922K473547M15875k09284j510059j130245o24340J664851O45469n69840j267652n6346L66840P21316L22565
29595A212775r55781R7770J99511R66040k26763j647850l46661k72314P6636K156212J276750J63277j906305r16888
29581a23591P93547o35314J34648j5436o94047J51659L83405n59268r77849j76509J258523J79111l7635O83178
29567C64422M04562n2207j355830o03504M64384K907298J20519j694481m37735R61691J228339j06081j833519
29554C67858j586270k01292o74849J239913J890251k8338L70481M03621j880575j357884K64805K09758M9805N66285
29540c66431K250012N38118j199626L76060J598647j395046j843106n21262m71440m00124j049228J565449n2792
29527i70769L94646P17068j604546m28799L42109Q33335R86157k30827M36811j93145R27440L79547o29875j349703
29513c90551o71927q18259M51817L40777P34458j281307j562133M06385R63536O16728n76416O36875K392599R59530
29499B202112j83985k33575q60058R80825n90673o77548p59742N74640p78468o60792j93225j579835J44906J621335
29485i94083J77418K7256Q3294k77098J903654J359650j49219p2823p28832j041456j26878P76349R1404L14076
29471A342712q91589l136664J43231J348859J16826L73440J434539J248462l16744Q323l951r11551K87054K13797
29457A256744j280227J2809r23697Q75852N36434m46343J304801p35623k386316L02463J823306l3529l13481P33241
29443G26434p61361n41059l35042J340748J417937j460458j464625k15948N37720J157772k66545K72501O29982
29430A038056J40669K95121J6732n60519n57902O9098K53247K73690J465427J408584J031962O47686j404473p56557
29416C360821j035822o0019p17261q6446j367513j996426J028274J093219L59405n7408Q6616k680L89570N23533
29402A517863r9122O5295K11071j000426k41153O98003L88723J18091P4341o92716l43346n33787j518555r02528
29388b258246N29156J076251l56725k3888K01605J032549O3867r13649P2438K12149K80310r68732q09027k55103
29374b117045j47637K072207J339098k9520K66562L85862N83085l54871j024086O3822R88232J370188N31432n00116
29360C427213j064998P25755K63978q62128j513386n79621J25767M41669Q03210L68270N48203r11230j525344P74451
29346A021809R00606R51247M18067p06870j535500j348577j120969r84264K90277J003430N30832m9325j57692L61961
29332d24968J280320l95798k27768R90062J3674J088539j65613j264675o52948K042053j154533j542858J610543
29319A196030r7016J21002R42441J196489R56482k46649p87111k85349r57301m75151j750333M9216J149622j08541
29305I03831k5504m59023p93045j11823J298294P42925p40587j880026j338909R97868J758305M19141r56368j332712
29291a517633J51102N18807N45148j767663K64459K102761M47802J039068O58998l90031j76046K29232r47936M98345
29277A656413M70120q27152j418886j327858L90634N12500q68288Q23886J277434j89305J678319p41986j572615
29264a36784N0285m07992l03350n78571J223224J308317p12612j006852J83511J331138n1472j452617N11810K51805
29250B09840J15878r50099n39736p47322J681963J602068P50773L6011j168583n32806q61249j415328j132448N39587
29236b411451M96703J501980J18871j235052o33668n64756j43554m82918L54822J41939J767479Q86210J07458k30548
29222c26485k75761k82681j00079N92495J552196J074502j90502o90538j465613m61548l59876k64071O48169J329310
29208G79518K61825P56219J363048Q97870R1007j119101p99345M22465J315766o89534j579135k382208j028499
29195a710104M10758O79752K51288j153807j67219J277764l473n33278N57123M71619j91355r07876K671716Q48
29181A653756k622055r9329L0968J552663L9470k104756n34056J092418P66543j711669j00037P20908M02394K14908
29167f97874j312023J426370N69867K65801m48838M33923J449496k89115q81489J28385J24935n06434q34648J647591
29153A075947k86956k44008m61926j070884J177968J358831j008936k130463O17136Q14773J2795O61944p65149
29140b48928r71604k94689M75843J731950J314364n28357j143163q32603q452j631524K140L282547M77791j976384
29126c51069j039691M82572O37515N92654J36854o66485o78794K28115K456604j023760j366942M54236j52708q19920
29112a110819n22016N62806l36700M91456j21224J634458J751929j079494p89549q24582j204320j230771L39012
29099b439814K541664K229335j963251j413814K059231L586468M58303j542506j951001q16632j67294J411670
29087A992359J145656j088662j035688M13138j09287n1341j84611p09173K00032p22434p84491J73038J25846K27202
29073d08416J865003N14474o67041q6010j290830j746445O77503P18767J70291L97172j531700j267031l16588l32618
29059c303469K530970j017355j533265l21137K53771P44708J121169L15806P42605K02363j240422L42729K86972
29046h74555l45933j59150q63547o07098J791650K734056J366345j509692j939774J646852J899822k179943l604202
29033b645169J21716R51185J861868J187752l97155k53263j648068j409056q42768J740025Q15503l98690n89240
29020a505360J0534K050695J040571K82302l25490m3249j0550J517823J405723n40344l93968M15290m91610j597547
29006A814820J71583q56255j914699M2344J535903J122861j557082p95758l99419L61766J25308M35197J186185
28993A272754J352733l22311p17485p86740p48800O90782J427708k649994k315238L91457m50963J208482n52068
28980b199683m30179J150831J737185J06925k86000j61649n98257J02866l10545J384934M90751J127354m25961
28967A688572o42390L44018o0267j844358j25917O37824M80878M22063M1620m25195N92034J699677j98399j599383
28953A010777j750666m15215N48772J465072M14320j395451K38449J37116m16819j03299k53180J19522J453876
28940A053274K040691L63860j8459o4226j196409j561884j053639K98461J072895m20675k108975k97730N21094q7124
28926a458846J325704M13719o66271l92905J144305M19889j138022M9571J191361K64668k05475m13484q80708
28913c46494J203014N20939j721819O87734k62952R56233K399211k158479j949628j037650j95866K45361K297399
28900F37003J053350j591647q58955P11885r77898K6715P575J868918J12758k91334J932828p36087l409447j483150
28886b997486J498950J079449n90394q23568N61169q8726P34081J642260k89027J98910j026750k455621k85675
28873b842428Q27901p76279Q03587J788341M30584o9624p34826k553627P09777K202164j17264k80502o72560J092319
28859a92437J403577k61334l92958j07309l19280k0921l87030J340514J155659Q01652j9655j49617q52395j911107
28845H7359l29098P89272K65045K076068j461372m66693L82478j723076o51183M49595l19623k32877K69142j435090
28831b300053J818643O66607j089454j09575k09237L45700M47431p14709J059495P29950M02299n45879j98942R4942
28817C97218n45638M02335K115604p63795k033206l56941J018878n97647j640278l3947O27956O17608k900J570640
28803G75887M58036j676678O9189L32109k12377l70106O56993n8561n55715J05983P31363n1460j768494P88981
28789g74850J230279r08967j316118J119998M11608J11547J48383P13912l65956j046003n60686J68554J006316
28776f1983J190874K63220o54545J64785M58491P36070l76168K76552J179626o90369j216426J26069n77361p66311
28762E2524j402543L56258L75931N91619J330691m41823K49137J04082P56030N54476k267105j798138j411901R4420
28748b856342O73923K14045J041649J011278m9910j167880L75050O85600J954911K16543o89703K47511q31433l70529
28734D54713j045L49133j80206M93863M20246r40464L78427J211945J420598p50983q32177r73148M70388j139394
28720C81896j607915p81976j75074J744450J43574j098K30150k89542q58456l05931J034817O6748j275125K09843
28706a483639K81224J343020l00339k39640j289327p2295O63115m49286R48076J207244Q09483p22625j530879L53695
28692d82173J194408m32912j314664J1555K000138J658230p6784K22779k044704o19349J135732K208989R46601
28679D407846p08527Q17841J670254J669184M183630M335648J1805612K2379263L9947781J3425619l8693797
28668F5240354l3056925j6525773o318055l499614j079864k901658j506642j416008L79017L58125O70712k54224
28656H9445j88264j697147K053458L252336L49479r33920q43814q26831j375174q57419L74609M9959M94591P4854
28642A6162l37844M50640r98503J51141N40778j181481r68504L10326J156147L64751l79644j062034Q95742L91233
28628f51090J49611L08891p8875R58098q49567r36226K458723J558736K13101r32125n37121j443975j306718k75042
28614a363579m47496Q02950J043914j996921o24054N63794l59439k83880J040638m67884K06728J248283K95142
28601c41804N89163J071660L23242j11978N01376r96533m80274m78228M28970J46018K59400j210973j579912p61777
28587b641650K69800J051130l13643j123107P39544J629712R88909p82739k18583q76087j143654R14613M71169
28574a034586J152056o28091m04517J382317j45939q6045K48669n87405J196152M82040j032908j248760l09942
28561a016959N42416m83030l54656J735886K734j650155m88160J102645j92859J76149J043311j05950O77430Q36872
28547A825674l69264q73430n46303M80528j33804r61803q99794j673292J956357R54994r4746O77693M09450m20631
28533C31629k58992m26456J610470P26025j07222j481244j732134J156167J861791M05651j569476j575949N59946
28520d99794K108259O23266K98587j409225k281940k36163L60403J516120J64588q68024r61707j155968q11808
28507c153406L05714J680137J087916R10222q30300l02776k74807L19170o2265P97275J099502j836561j705040l0360
28493a995579k51067k87152J022009J307016O08137j64052j143697j253449R03347K172891Q57004n99049q94623
28480B81736j455992r21918K53997Q61393M32729J61603J774502Q16630r34906J44593j5217j557883k3792J495320
28466A312795k234661q45534J096706N65117M03891J89062p51006M51761O28105J27742j596892j569229L95799
28453a826344K145518P00151j470653q76478O27083O19399j81229n7496J161238m63291R8173l52996q73286n08819
28439a259030p21859J047794P77782j458786k107241O41269p475L75454J463221N14306Q25482L38680J362998Q69226
28425B661821j178201j106968j416622M902j01553K50108J000646O85139O66900j215857n36251M18449J53560
28412B86073j205967m86439M47103q71206k15090J210011J85484o75337P72833L36163m31683r71687n17553J127970
28398a009325j03148o5446O48481J763050r24588O90214R26891j347866j478266K44507j82072j348062J277884
28385i07746J838307J159490p6624j346487p37434j034450J813910J74857k255941p11649L26692O66703o09782
28372a700154J387852J283930o84227j133861M09597o05515p76835m6199l00021J847210J898892n84433j323011
28359c26775Q70895K085999j050792j158403K140358K448377K26010k725643k207319l60193N4028l025520j081521
28346d110499J832934J431243k83304j354793R93916K961198Q16032j427627j76443n47370n65926J507880J419885
28333B497126k10074N2927j673472j25305j67161J069509M9686j429111p73677L98570j805119K78031K53465o03660
28319b188265j19412j137836K153717J562820r22243n39519n23532J114409J427760J045562L98604k147309j342786
28306a218030k70713R51333K36921q5595O99504R21198r4617J51235J054857k65628k57503j311232o05137J044967
28292I51560p50764L02919M92675M3478P37743N84196p55157j138988o38299m24438Q73899o92036M13912M93932
28278D94632m57533M17058L89942n90191o0181j96092J08568J568282R98429p5807k99581Q63307j199920k394647
28264d33734J760436K444136P38864J30993j041292r30563j267795J211174J51379j378537M98861Q35142Q0998
28251B800062j036302k088625R46684l43879N58036J034042O14639p27366k132868Q03581L24639j37059o02857
28238A2727q71076j93644K57621J549079M09731o17365J94861Q64819j57943q35315l93314O2941N37402N74624
28224A395148O36539j09134p01709M68280l12480K2725j573495k119172j08158m42616l12489j164444J991293
28211b329712J951125O28299J98253j300860J009840R70714n00742N34337q99860r87840J032821M44947N14911
28198A266233M59001k52507k88154n27377P86422q03203j266425j250593l25384K142556N32366J53846N99866p72829
28184D53818n57839j243933j84915K063016L53782O8948Q37051r82615n75010q15719k16015K60491m71040o55876
28170a665856J938744k00044P0030K043644j272763p55541J710993p01874j131887l08984k2905j086935k089250
28157c472628k75719J937369J018704L07387k05758l58375J85240j313082M29470J067377o72096K27173J239400
28144A14462R12512j230601k21199J242815l77229N22900M44907J37301n20699J43390Q8268l58853O77363o52759
28130I22578m44477P05479j217037j704288m3613K096312m45417k785902P2360K847402P47196l13104k41918O06001
28116H01572l54759K1496o74095N1217M30531n24097l3277n23543L76516M64643Q99606J205906q50755j128637
28102A62324j30370O12385L72601R35864j11814j054505k30104Q9674p89174n08107M22587M97610L82553q85333
28088b33809j05193k55766J847286M45506j678231N19510K09274K05068J267692o17084j795182Q05294J035504
28075A649869L78051k07640k30389j903089m30820K07149J247034q2811l15104o56385j48900O50608j75863O06868
28061E88578k89887k153696j360735K00758J925433M25484q19754n81749N3268M77183J257735J185058J923312
28048B830988j738662k957844j95195J869351J549469Q89560j7277j177279j319000k029640r72329q80615P69431
28035c379042L658940J344512j322641k02629j12270Q8424j48230R67670Q765j722596l48081R30367M37938K90983
28021D92110Q19327J0438J343406J99157j902520j093032m47155n56517j116807M31333p52035p17366P77188J987757
28007e24716M33744j69726M98432P64664J068113R74547j302152l90558K39908M6662n73007j464818j675453J222608
27993h51752L526353O77813j687726n06766n91672j694713k34014J18918J575305K216606M66335L23039k007706
27980A330020j847637L48781J887053K25627r34223N08676L29452p56606j432795j014728l7451J331184N87401
27967E24754k34151O42306J370085l48136M10350l33870j740551n08137j497294j179941J51925M43147O67575p58869
27953b390807J011655J351569J97210N27901l72498j58108k28630j423138j301875p5225K136549K848955J014523
27940C138081k70681k603038j25207N76822m3808J265906N0766j299503j018237J091431P32827j61924L19709q74244
27926G78900J34157J90859l80024J5021P09433m51354r19337Q72504n49978k89508P67444m07080j271605P08208
27912i2360N4314j685712r57671J42366J347557l4292k26328j398109o76654J097189J095378K76781O92968J39343
27898b25230l15310j217811k82701N64522K73830J669296L08932j138582L13515P15035l17623J03920K12525Q04720
27884A469038M06589L77659j160072k62042M67814q37818j529526N97147J496849K55178n98504o80886q00780r84073
27870a783427k30695J080395L18397o19575j383182J32909M07102j79375J821033J156738m99365J367963J403543
27857B992461L17329j38475k105835r85011n87736M52856O10826R440o06268J27401Q1369L88255j05942J060994
27843A511664M87265l30090J261q57624j639217L809L02940q14135L94932O25872O09709J148869L70054L25061
27829B140370J344165j130814j658401Q24287J842827k10939k307298J369158J872605j105658J55910J100773
27817D236985j960429j363621r50752J449956J64495o40079k45739p5577m08525J096025k02509j9800J12045J341644
27803B534119O38377q84033q19049k58162k14510q83037J138333J71006k153585k90907m56183J797594J336969
27790A656932k501771k562439o7441J225259K97235K24287k17125k05095M722o5292j71604R25562J166485L95399
27776A05114l37092J38971o27397j492573P92139j7412j07258m8690R67686J910786m35974L7593K12690l43245
27762G55338j061350J024418O13390K86913N49049j229813k094357J583535J739246Q3446j964325j692363j132617
27749b539490N34337J631670R53471P06605J17052j670469k5548J409300n90093p8115l90974k039939j703708
27736c685901K000280K520667J615503j903175j034674J058531p48826P16387J711517j184667j092157j823539
27724a850054j484444M02129N96956R14392J52361J27361N94350K457045Q83680r85232k29571j30120j242061k32555
27710b5763L01921O13701l62492j072128p56471l9624J196921r0136O09307M35139p39386j263580j464249J270972
27696a385868J499359R77545J75461j397215j243358M13263j083255j043925o28744N22482J875892J949058J86685
27683H17380P22290l86865O02008p19917j183728J27032q47410J59692j217978j757272J186683M55451j266889
27670c309523n23751Q62237J631947J8738K00286P26728K87945m9208k38907j67426j619129j549888q093P29070
27656c008974J888782L74939Q44419j5981L70997N89325J27289r51223r03538l95268o14933r11255k07655N86450
27642b226626J236083J8621k291486J221773K202554K96652P0935R1447m16492l28590j511749o04858O47214K86317
27628a308205K39494J008612J48404o29265J77359j2263O89752n15130j012646k11932P85282O62885K689p22911
27614f97875N74330J74160q40157n26781J72489J9633L3227L29456m88193J009066k84051j000792n98245P67170
27600a356563k90691n11174k8319P17474K808611N56213j318303j378148k2423l8007k8250P0175r33568L56165q7146
27585a483954J560485J50105j728639K0258J039844J090045M39396M94383J229158n05967O20875j39452j80675
27572B605862l03724j715054l55821P52777K45448o06141J148765n66776j66457j61797k61213J23692J0170m71275
27558B78456L87333r18169p720K052799O37959k92861j60433k93460j364442P77698J210315L51512k5575K06703
27544B840115J592836o73591j460389P40113p53840j986517n23299j26104J904003K88881o81833r7870l21858
27531G40647j340004l95322n23013j381235K66440M67438J361312K93768p69603J244418J458786R95931Q91724
27518C311287j018421j55105J024863n95294l010727k020591k18531J215816J013184m07637q78615K2160j2541
27505a730152J57207Q30854Q43492M09958M36365j25822j325354J920984J550722l37634M80324k36447j949879
27492I24618k084886J82200P95635l40163J57886P49211P10373M89149n38367j829220p65147j13971r17326J662706
27478i17302L660387J151898p32504m73198k90071o5569r61406j86729P69290j687742j882714J25541K59924J95888
27464a034307J41785O95696q64788m448M23632J225057N47020L62106l48119j058728m51594p56088q81922M37923
27450a566775J09531j69847J799191l33995m27169n15287J065032O03829r67972j246196n49487O49427K040901
27437D91183J198178J204547O5716N8771m80051j608503j092137r47393l18332k6200J834657N67550k097485j146286
27423b295785J002533Q60890Q41532k22200P73007N59122j079990m96022K91797q32840j274559L7249J610238
27410b25028J055752L14619m31453O79167J315467k68525j414049j624695q48190J973685J86459j644092k89o13655
27396a544827r24141L67311l02695K340171J323764k269826k640264p16645J951661K184797K401608j064807m48082
27383F58025m52121k99432m70976n78342J183752J90901K68285l12919K5773j440167l01507P17605O21887j019841
27369a209077o15026R7567J50269J474101J972540k80760j949046l39818K272904J197837P02308o82749l73627
27356B417423k08303p50725O37304q70725r19937O43176j317277j309017j79530j81597J170939J871727N25652j1951
27342A517159o89361j084616j113291K36503R4832P26841R17569M98411n67888m3227o68936J618626J787539N95312
27328C825473k139085p16987j560932l17966J507505K39298r45493m59455m72308R37638O31509n43689K50079l32913
27314i7326r58824j133549m37004Q87040P06927q28231L11047M57972J30562r29297J109637K214201n91477j545498
27300g03820K30775P07797R94557j51278q55328l19719r06964O30682L85581p94418L50901q82154k10718L49611
27286a174495N53364J241178O80887p04690j38884K06299o17774o24375p7353J374237J024701j07643N60143K82224
27272B477819o23379j102830r33646j83989L09776K69375P75382l46218r9170p58928L82694m4138M98135l58572
27258B62311j658040o3245j49466j099121J451582N39749K00827R39697K52778o79665n56742l57591N50140J586561
27244A219775P60542r19546K6054n52524j120642j707J50494j02878R19205j005820L82912j44869Q30473o32367
27230a90898j267181l9478K445509Q04714j367662O75326J53981j036759j915205K73740N03412L55578q18225
27217a423148j259024K571540L319894l22861k314542j801661m56061J084467M4230j194843J119371J31636q15394
27204a316396J395115J654527P0925j429422j582315j73999K846473K135037k68187o08849j561790j90625n57354
27191D13140j227051k67370r1709J150214R58137K342933j147212k011571j876224j755173K47433K025831J793829
27178E55207N46939o40142J66643q26307j215308j0650K38069j001784J168429M91828Q70164k48507j099659L94617
27164f10461Q76226M22802K28457K31484j3329J1733q70955K13299J415776L64733K97256j527160l95832Q59326
27150A503355k05516q54123j46469j561292q19225K19870o06326K74096J864125N58406R47147m85521N81543J69686
27136A439756j235019n3064p86467M18357J873270l28652n54336R09714R81333j282433j447371J521862J296580
27123B753530j928340j784482J456155R82798k5636K64681O27310j563100q03825j337242j350661R36872J441012
27110c30928R13851J00589n82406N55956J301565o04934k51358j58632j026790q07459K78112p9191k56824M56129
27096d92320O69884J7624J375526L65790o58059j077696l68899J033339Q49554J46660J00649j936079j026844n5345
27082a056216N78057K454891O16980j254159o28907K37043Q31846O76285o49182O51045J78956l40662q62946M2597
27068A475628j23646P93075j87577j146947Q9677j60477q67461K014638j422141j583143L27741J408664J064886
27055A682917J11951j442896m61179j902043n96802J467986J825045m47633q38533J53364K00411q81514p27932
27042a856858k42631M81410N90697M93873P25683Q40223P70226J91389j329452j897079L9295M15202l41849K57468
27028h62403j855713n38702J259360J007464o57960M45265R58152J022758M94941q66348q16312j279181j150613N946
27014b833346O0263n51480O05351J944004N66174O02792N34102k64235O62219M45818q32509j571966j295196K18684
27000a709325J784913J155964O25440o71829k100316p35844k94132J135522j1667m60558m07390M61838P60729k39244
26986g05899j560224Q91605J452375M10122j493644j533822L86199q05606J481614O32093p88315O29217M89420
26973e14865K366295J072682j598880j003316J3929l90659J085472j68827K9607Q80543J67004j912351R6052N75659
26959F98345m21096O63642O83825k66399j613769q56956P5398J454507J501540k09233J17216K18250J120261J227103
26945D392634p49609q55366k134535j377519p25973M568J017053J95168J19403J7513j551274m0105J387235R63741
26931F62934m20568p7053k6910O24284J085005K50123p48039j80833o23761j482899m77873N66973R0816Q25787
26917F7986Q94733Q78504q54945L34389R49532K45887o40353q08749j556975k000213L76310J543018J464014J204103
26903B097241k699567j152527K15079M65768J189984R13195J127693J163138r58425q13443K04898j230840j72605
26890C49589J138506M0097J48225J87398M65171k383222j271881j011144K11126J011036K09038M89535R28587
26877E12061j213717j041745N94819Q6059O32742J246185p31412L42027J15208j362878l82145M01541L74068j789479
26863b216666M42887K10490m51575L29241k529j42296L44970K6516J612467O36387o79461q79108j237828o73410
26849b679915k61959M87238J721225J82625q37813M3466j015415k51047R45907P42376O31896Q49424p51238r24303
26835a117533M651L14701J011154R14957j374199j93777O21203L42965J253196m51649k07160l60870J051186o76653
26821A132172p75218j348596j80067L18020o99046Q14132J353202l32598l21859q34150l82653J171524K054952
26808A969815k62755j236906j115477l04743O22307l77751j354796k602258J19441O39201n4290M03742M78142
26795c076328J835554J635695j107911q33665j187614o67100K167576K257463n79877k04128P15083P65745j47965
26782A572528k329464j321132R46914J374330N69136K64093R8178p98518m36348o96334K31277P68827J198026P96767
26768B238280q32480j66330j34985l24825j49327K62483j840211O08062J357627J091127l94329l71710O28299m36189
26754A535492o29221L99444Q73670j970M44153O80780K47679k32233j616027m24233J130549M4716k63230l84452
26740A805117q99616M92942Q27283j273353j652503k18507j088078J64893K85062M77251R6910o40269Q50795M70682
26726c01391j031887j28430O80821j57393N9363J361989O51421L49576J90053L04246k219261k042775L56924J091827
26712h34917M66282j830969r17788M99926L36817m66730J084020K659616N38886J68958r42465j213250m44688
26699h96302J542913l12151L92358l13106k037834J23644Q25739j218741q78157R72419J637114J004658P34625
26686A577179n77116j803342j566474J434043R64255k10280L1579j37824n9542j029729L49551J348282J91285L76828
26672H88695M83915m27023j297346K277190Q45485k47651k75442k300337o02039k30724J037843o34596J474130
26659I92100P75984m55142q58754n58436k43947Q75986J056992j020515j912990o54847P74963P18278J223136n0685
26645F62123k19301J35262m71258P06215O66957O63978k475335j842571j57241J093268L68321J95064J50456J26666
26631c97396q31309Q21762O1026m3978r55387o83160J38661J37773M17075l50987j603443J69758J145091J881757
26617i2757J907328P88140j200073M96081r1892q52395p18693j06579l60003L52916j398162N10845J051406K210184
26603B496346J627939j32836j680282k424409j026182N85623O94185n20796l94247l42581l81416m26152Q67874
26590a056934J693174K33134k148759r20104J045076K088932j002422k437307K41397J843669N95582K63109J289601
26577A728148m41229N7786O75155j630605K99407k6268m18129N3602r95557r50749q26014J521500J719576K26813
26563I93436m31354J107839O29660N11780r10660k286234J62868J600872k55952j471857q57021j298550j644472
26550d149645L49809J281697J912296J578495j368966j264313M1220p88595P55599J539400O90028O32179o9256
26537A139948l76433k75949R91280r2075p2976M08432l34438M14501R4173o60029K56407l39882J52966N17589r61409
26522H62105j668985j603808j24327K64913J603610P35198J036594L15743N78595l20289R8207J84391j378024
26509E83923j712561j365666o1946R15667K033672p77667j305630l07563J573870J456379n28052j46181J457310
26496A815555K11103k05966P49526o12770j430487j865003m33853L47034j226696L90690J019369L81434M24696
26483d35368J953904p25627j027697q47231q21523K318670K67359j010605r12128p66386Q86210K915K04140J154020
26469B40653J55309r44586P93106J326628R06800j026213k26606m7945K19895Q4930j011918j003034p88739l38439
26455a660159L96004j251154p86336N87347K259523J464709j671543j513976J511053J001543j83599K89236M77821
26442I20469p28931P43646J32395R6061N57567l28824j369918J016967P72119n79679l34693n654J90402J07250
26428A189177K61128j016956r84345N38505J396145L38473j487091m67681j464664M81977J995122Q17550K15376
26415A812716M38643j25253r3453n43445j287524J21178J733403l4766j252945n64599n02907M07443q19893n0006
26401g61408Q2231j210699n69634M69380J434772J539313Q19326n64264j091108j018428M10319K75958j526986
26388a711228o41538k65960L71208K224200M57657j626397j041238q5485K731830J687515j637703j806865O50646
26375f93358M76023o21167m1199R96519r23177j426341M98155L98596O02381P53520j211631L45513J091486M41657
26361F86977m88996n27233j138687L49170r3654j17737P54483Q8185r90756l91322l18847P62127l10069n72962
26347b309321O27183J726847J159787J069794L74205j622677j127233J36416O30026o43213l4570N50388J40722
26334F78354o93550J58014J21871L85318P74219p97002n99962k70375j169056j87548l99821M12771J850657L30734
26320E94624q65161O121n47865O10500J555914L07436o91672p67867k040442J579995L124805k85131j553775p97258
26306B30224p69675p92277R33372L80646o93205m71374j215771L20053J357447M04661K11626j197094P1039J048768
26292a81560P44745J07202l38647p76051q59869q25280j3337J202936n73365K97991k51518q0554N0695Q50859
26278f45753J710904N25369j03519J90868Q34129q3572j721084j583920M12666l00105J215425K105168R14344P14009
26264D184929l36792n08425m98108j699479j457540L5726q17973p57042L26987k36412p53174j25548J085076P84907
26250g72868R36170Q48335J99846J010408m52581K59767Q1915j819894o86273J938099N64453q55397n38597m57638
26236B55745O61653j234858n24687O47106R09055J345790J478596O99312n84629n34988k057644j401236j29082
26223d69867J045213J020115K5495r8368j710351m24338J381398P25831o04945o61944m59886O11050l28481R4414
26209A45336M08539P19867j997320p30288M24340J46113L17638J238129K256837J039323j440479l39924J11841
26196B299952j213449q58909L36780J89372l77618r25010k16445L95320j508444L27764J329275J49j538076l77459
26182b136798P11804J373223J52456M1033J249619J169117j65314k580097j066537m95497q73139J085230n9447
26169a594347M91322J95789j005687n13658m28590L56090N39012n92587M09761O04308K83214j89200j618397J29070
26155b933900J828750J703445M34344j302389n06553Q79031n34821j183664J11327L65152J017847J060359J406142
26142B345070j443794N79736p19755j847105Q20670J50964j031116K067192O71479P36629L27436k516684J39515
26129B80237J649856K86341n36920J297893N19000j404910j697326m13505j034989n72946M24303J29013P90593
26116b83360J281024M67813n96815k69898j030539R3538O05134M40735p43152r71807J822362j00383j41513j51951
26102D21188L69205j98488j477375P71468K038053K250142j213333j375049r16314j910801j075816L0703J436191
26089h50226K325573J291068n14079l02791J36391R58492o54350k492813l71855J195592L3644P86610J504256
26076C045512j081304k162999M69727J05629k366867o38825K593946J397207O37291l92659o70927q1080O57446
26063A512097Q34036j746754m95754J088821L93060p80877m91052l47272k6124l55584p7254l2756q09234J379502
26049D4855N40395M32247p3448n56217K47240J844921l48578k166247k060716N63519O89610R98640K227525K34024
26035B617770r88727o44033p14143O85629J079069j71882j251427o66629Q6929j84946M86167o50626p33600l39996
26021a390445J208001J213983l44301o19572N02372J541074k01017r90417Q08381N52044J78804j932810j855941
26008a329844K48108Q75762J320314M92273n0702k156485j070074L28328L7423l48176o11419O12849k65668p95738
25994b713049J444857J500739Q11910o63681k090755m51657Q84990K55455L24840K97374J004725J290075j518015
25981C77808j226661J56121L52440J074071j4845n50473m86261Q5352N64665J128262p01682n35240J351819n02742
25967A072634o24527L68788l47855r10878o94873n0396R95654P91477O47952J95762M88894j276524j720511j395729
25953b460132M20579K627467J628542q1416j681547q93206k48872L25364Q77909K47783m56536L75397O80235P25667
25939B087234j806380j611316J353497J797800J036472j645884j374175p13478J85858R63834L50362L17706p61320
25926A80210O21120k29895l89026m20048K005403J375389n6055j769075j443829J450821P14460l329684k256096
25913c546305O83689J518629K53765P05150O84226K6446K66410J023553L35376o43221l33506J013116K65122r7698
25899B154752j135829k268081n97508Q78999J168495k07599j090074l80337J119825J501086J086910P18066J68630
25886C117335r28677r66815j382525p39917L9651o2159n87797J755042J093885j406985l56066M84421M71758L01035
25872H32186m67667r58230q77064L24279P00464n87151P77159n32143k71839O89432J934105J845102k506916j209517
25858c07800J004083N58310r01984r65737L66138J447662q66697p93195j279847R21167J028773m02422M2983L15907
25844A67341O96357J612413k78600j109885j163963n46737p27071n32496Q47262N98920N28186P15155J193415
25831B000297J768188j616084o36567n50329M87489O20527J70248L90387O03198R78783Q56496j777623j780637
25818A514373n23585k25689q30734j067324Q8244L54939J048258R685j185468O77105J03474m7086J31654o15578
25804e67732o21879q9676j784919l35563J499048O24443N95508Q82913J258031J80754j373146p14946j279745
25791a726909j317620o77132J671462J040461L45647Q10098Q6404n51856K349582J077954k439052m39682N86781
25778H16138J361522n79735j525987m43507R53252J77354q05628n345P32685N46174n02885o28553q1807M39745
25764D53423Q64604o37314k19116j467537r88756J617320J203659m81511o1886r25167l64975L40263J412473J548061
25750B293541j10560o7982J592328P7704k012514j459431l17720J49900q63859M46907N40845R63722J167077m61511
25736A938447L26838M16880j85159r01899j079019j075935J302987P5425J572894J317472j631616j957463o16203
25723d96351N04355l97485l35762q23666q03163R57295J561697J237156L80727k38888N16406j638409j115036
25710f91124j325856m63966N06878k312137L4754J641451J381274K24781J169092J94165M6787n47640j108203n87480
25696a837224l02881J064452K016408P96414j115500j383300N35056j311755r41698j139563Q43478m0816o21266
25683c438195J207090O10930P38192L94824O91835K144179R65930l49700j360999p76294j165076l60155K361124
25670A663685K51362j346076l52967K79514j698733n62832J177863M55968J442066J00640r86499J08578Q66211
25657A398780J260163m85085j399168j88836R82256m63525q90283J557742k04935j416332L28831m97378P3196
25644E5426K187063N76600j386589j96973j125329l83498K306609J557155n17092N0470k81165r99150j193065N50086
25630A200548m52214m31877J060617n37533n60959M77786o04547p48056M57062K87071L78294M31330j595527l89471
25616a027476N20272O91402Q30225k6405k69631j465287j207067M41450M78318J164892K820692N78060n19484
25603C009961j701006j328349Q10756q13773j047139L11211L96242j075611j86776M14586k20683M19671J228777
25590B17867L33383n12002j048804j686419j231977J41229J119224K094004O41687j324550J70965o39787j75572
25577a900752Q33705O7635J217763J305874K79405q77135o89564j317473j652431k02545Q50284J20321J06665
25564a858248J117764J705436m70226j839985J153209M4308j795335l00033n57253l00278J113781L22639J85327
25551a478894n21713J29159J021255n89645P32910J271753P82226J101542p4719j181467M73422P43117J04023O00401
25537C113370N34634r90292o11953n27530m05504j366432M78148K64040K48925P83306O87763j8316o69985k638262
25523a118088o47661J209356J123113L70424P50103p6925j247317j87128O23508l16386l27193j31517L72582J018632
25509A415503M62872Q51912l62573j298436K13556p98155j067986L05719q2058J5627J154585J596421M68367r52198
25495A923156o25411q13310p13123M70458O86033k42170o23482P31012L01761p45271l7329P31886r88147j014606
25481i58543j33721Q76826J361423k65930q75052N35617j502102m84087k32659p95197Q50175J146689J270116
25468G93555J025403J77326j005652j275571o6846P63273K46790q19133K45834k73703m25666L65447Q14916k43806
25454C22167o87587M72045n6365P67514p19538j81958j064909j691367J332176J809465L44762M8519J906899L23390
25440B925213n96805q26427o53103m25649j457392j108345M36095n44759j07968J85441k97958n53800K4905Q1090
25426b919462J99453J10639N74200J050308J69655L60137r73504M2396Q94129N44187K237499l85629j228332m09460
25412B66216n22097p09893J039936J593888n17687j113584j190654r17096O47876q93512k369620J92078J453324
25399c040825J938263Q92927L0013Q66936l8322j544948o44025K72876P74144m801j47499P02437N60450Q34573
25385A452199j11248m67497Q73143L79018j767143K2849o97910j686971K150726K000286J754028M12491j736267
25372B577704k304772o73850n88836q38612k73573n97264M98104L828J219911O4145R78690K456791K3575j795955
25358G49886l26783p51911K25611j33049L12747n73919l32018P71533j145162p71619j46044q34841r23739j77686
25344d056994J775442K107201p2329P2922l1496R0408J650429R8476o86817j626729o0930J028144l72010m0423
25330a24706M87359N98454j11324k05553j06473k52390j251911j013387L76812J626349L66224J003948J027048
25317B420450j207200p78200j295234P7030j53804J934887K83443j689352M65891p6662M70025O04134p98694r39075
25303f82361R68467J084638p00742q03000N2098q19905o54643l33541N38823K628019K344640j79935j801995j938898
25289b98335M04962p58976r71009P22208N23010P0130j53395n67374R40719J239467O67386o80847r89131j116548
25275i67733p24450m3633o30818P49338k70623J524095J566936k081862k539177k72114J660885J469383N68388
25262H615O25267r0795k3657k33179q07170J225397Q52698q44579m48312j430607j158757R12836K362851J319564
25248B270172J142918j97296j866944R3495L52298P67905K17724l94001k39718r31424n63604J197270J200100l41915
25234B706980l63480J36142L0275m65653O3770j00520J41921j206256k527J075186q5417k79757o14142P45384n26897
25219A255009j029705J42172n15244m16478N04790o29987j079084J314549p21175K15503J676951O13906l14715
25206A016492j809236J119270K57905M8374J94789j780793J17991P10149n55786j201977j419134O02262L03122
25193b396572P71890j39189n33396j228779j47569J004992M25353J013027m22061j138695J487762J305570R75213
25180I77546K28075o51931j19986l41229N3501J208138Q2880j053677p94291k60235j08749o1997r5196J402011
25166D64860J094045j81706j453768p56943n7458M51286j85075J82619n42298J283448K662273L26273j666410p72713
25152H48433j96827j461449n00892M67571j451456r70182J434937P48485o79419j65573M10308R56962N29239M53182
25138D23319Q52620j6185J05246l99176J422919N56417r41463k65930j44484l29322p81084k93531N62888o90433
25124F1801n04007R29485L87883J05934q0735k326262j308767R79997P74743p56989j022309J380984K366116L95281
25110A383155j887389j524889j009966k63451J750654K354571K26393M06090M16187m11747m40770o07514N58039
25097I49363m46833j310022k71005q08260j26665K69438j286304J462213J003653n19303p94249j640036o11453
25084d129463N35152l47943J005192J717006M50777j234035J060454K253994J629411o79613j994797j233162m26384
25071a393411p39389r99802Q55593n93770R38807J112658j278156m41241J330294J727328R74271m43965j240272
25058a91055L57236k30233n38180R37684R97094J50711m89526J68008O0981j187673P59732J591087q89442j623148
25044a26724j106389N84951M7466M77811K99833R92597l89377q5486O3255J589282J386522j677583m86068k132869
25030e62779q57895J570288O9685k55943O42212K41547p25187j126062K4560n97905J420019P29590Q7344j665324
25016a005850j905178O11762m2939n14647M24705k00654k083362R53354K526918P66186l52726J567114J371849l6261
25002B080271k54752P85726j192199j144344J82933N388k57444M59106L04889Q7588P99738J46442j031159m56399
24988E15784j712736l64431L62861m72264P05815m34209J36690Q10866N43901o5418q5563p1652P80392O31810m81242
24973H00604J9213K05024j194246j315393l53027J664896J331816M57579J963359l54477j206393m95030R3011
24960A616936k204238k375237J98366J248998O22190N30046k72312L60266R05819R92879R45734j195532k230247
24947h56332r37330J39262M74466O89805R07467Q77937J580690k60661k052892j587117J90280p33971R80559J246615
24933F58778j64847n51657l75214J598444K089302k86591q01869k283551k169533q3188q77629L33367J196069Q70697
24919h47422o2979N92269k66285l66203r15804J92267Q86246j21083J90581R95127k91417p51962P39948r09686
24905i36403J35125J253258j8379q07641j145142k11396O71501J759538n79987r5851l76236J41909J353363K5298
24891A168957m17662Q99020p95226P56439J269010l41331K09518J615469k75644j905120M98324M19425q84776o95157
24877A521246j080281j383651j186314J286578J10735n89808l75156J000407P66836J25696K2311R23006M20549
24864A562154r38911j353417j29152K001142J288896j7289p56469j172693J069312O17810j775961j075034J122228
24851D42616J372277P70574j061524n14093j144437P96588Q88979j018074K79670J419521j97528j818626L03172
24838E19115Q20461j75634r20792j494595n81543m52128J678333R10054j21579J377125m91558k36258N784K83050
24824A119835m05725r01904j18330M66956O55732j89207j407920K65497R35520o99760q94929m80929N85886N84371
24810d84907o15857j852367J408131R46677j041331R50485n92682j392096J592017J226439N1170J21089J5991J72549
24796E05308L89044N39496n59192n15227j650114L54785j4604l91123K4928j257571O24372J094776j97341J376891
24782C24428J523778o36031j155378k94914p14639p52707N78819J359880K012255q5661k481707r50822K96655j39157
24768a115201Q33881K59610J90582m45549j414441l07231k68877k44952j144922p6621J96846l2160J73064O95600
24754b700371N16873J73738N79567J552640j70503j824004J98528J493747L99480j321814J306368L31318l59515
24741A76052N00741n21285j938050k258096J321537K030011Q65889M05412K7566K97228o93880l23330j038794
24728a148999j161647l09181r9868N21336J299221R54440K72961Q79929J78609L34862L90221l53416j334040l49435
24714G4993Q63565j05619j972385k839835P2296K801770K455791K64393p18324r59876k86407m34849J286253P26915
24700A228681O95392j655509j204693j594415m69710J598357J761632R43733m24529m97969j442307J58526N37050
24687c65761P35060l39554l56997k82864L24164O76180j49063n34338P10012J078908o99892l93440N2507q17651
24673c62729n33330l52028n43325K5401K579583M23986J272363O04676j087568m83719r34532p87377M75033K26690
24659E23124J166294q0756p06723R10292J526862q55120k858170p65450J66737N43442J591027M39679j173939
24646D27299j411410O14968J67846q16762J398512J043860M98388k4809n67829J084617m47759j284229L19110k46941
24632G54861p89405l64243N56877J45191P92270p41660p62088K72690J65722L71548j450633O56730k04377j139351
24618a735868N47696J4524J21566n15259J711128R94056l88360J56670P43190P06475q14837n05285R729j22415l980
24603I19030O2875o32410K28889n5031J56044J168008R13618l48033m3443J278151r9537r26754q89098j746639r4071
24588a08401J465121j19639n00973J5299L71816r4308O99824q13571j68714K77916p18936j2831p34634m7874J320348
24573H30443O2971j08376J307484j20071j392196n08691j241915j280146M97417R78614J521877j207001K97143
24560c62447J115610q49252j178004M52439O38500r78150j436993M07321L52316J40571M89873l74519m66493M72099
24546a577129p43178j101239J364825J839882l69521R07402R0425o78440J55084n20223N5838J22017K14439P40169
24532E00351K55056L36227m75463J23993J202118j15394l5666j66010j111214J23874L62332j086435l93065J97991
24518b81305L97884Q01308m41195j915063l81431J381440J131986P60629n91243k56293k18126N1430L99788m04532
24504D35277l07997J507092P51849L71456j629529n86334K79160k298960j615624K186334L041322K15495p22781
24491A626760j82596q9573j005799L31822J77305j851360j174405p83220K10823R70661J66318N36266p62963j93445
24477b023406N09470m2020J862049P71626m05583m32215m1808q73220l45090J369009k5255o60428n66573K40442
24463f63002j74070j37819N57948o46464J72418O91321P91471q68499j107665J169418P11236r75238j081038O1687
24449a498296k81178R48562M15475J315458q60344j687688M7847Q8760N09382J698190J712941L31764j821284
24436I19589k584600K83231J857563J62774n04879q6951J340608o06956l04713J84682j76371L64309J468049l04339
24422B011996r22051j167417m11031J349659k65090k162076j815727J776135K118087O3866K07134k13726k317481
24409a747722n37347j05806J225988P93149k1053j282315J273141R12831j491037p35035O37861j447904J451598
24396a073651J552385j368380K37578J259563j080326n8266J096163K92689K87869m8880J441268j73618j387895
24383I76499N65156m97513r96091o5871p06390p31001k15388L06618J723662M17714n61849j462782j632739P89732
24369b090243m81552j109294R57836K381933J327233j103268r53918J56676K11442P94870J512061N96565l37799
24356A862542k042754j831957O21579l3357R22506R69960J389300M27303k39513J41099j565552q16750P03354
24343E07760j067424q45451l34161L31073R78819Q44751j419681K43579Q36062R04187l22144p96222P09961l64444
24329B06665m52681J432929j211722J76791P61684j95554l67959J658416o92015j678107O57399q67456j156386
24316a727996j155760M11781j50089J73883N58317J294491K020301J614688j318413j374167J320652P0716O34014
24303B372418m57698j433428O0954k81498n57767J85834o82228o94826R89508l98384J339425J189094k04197O81082
24289B108289M69216j115962M4440J236163N6347j928245j741999Q43129P15935J225465q84294j133770J73616l1438
24275C6892k4488M60103j009447j467318Q1880P21482J270400Q38464l737n32929o30208J065693L93370K53459
24261A453616n85877k990717K02945J827190l20926k29496O72131J236970R02046l29992k449538j532294J109337
24248a034605J874464Q30206J769387N23612j673968j785486J75613P15612j285804j44081M19190p73975J378983
24235I89148L76745j335272o07962J05458P02285k86475r54868o23350L27120M83356J435444k2155L49663M29602
24221A368739K20926N96044j442462j604371k00049J555479N77446n63839j144515k062864p40810P42742J127423
24208a570111P67743J410739j019385j444203J175706J157327l35530K87993n07448j842884m18855J056457l15703
24195a598154P17604J494265J225824Q81917K142051j147084k767155j790498R94593l40903j865473J526600J249223
24182G22810J351234M81400j243386r48580o53423N56904L53383N79807N73540m65930q10067j800919q75688P92975
24168a385940Q95640m36881J63777M42538J559629j006255j198300K57428j01462J177874J265200q85463Q80282
24155A628067J353249k243163l42230J48351L38518q4055o5907l51351J72084o7991j293154Q74395o4736j257957
24141a255880k45264J783382L38589P40716O08989N40483r83562j139655o00702M18796K74518J210400L03429n08337
24127A485902M16201J91055m77769j47498l65328j819975j403394n50284J79957R25863K632411J435546k60167
24114B242520o66221q82337J70057Q23213N29846R40310Q45478j533185j929987j842982K5729J044133O3397n17224
24100f87253K63896K46724l46968L72250K53167k09537m30410l92109j079139o01273J453158K212664L62431p52080
24086F65521j061160n62484q68878j079804L5318L5382N73707R58249O04969M09947J524049O87576l70689J067978
24072B619681P04728j478064j485832j549801n71598J307148J149529M84899k57679n23117o0754l99857k53372
24059c14089j06659j15217Q22336J59602R01356p51425Q30991j066342j680734j219370P32836K288575k91271q35002
24045f44413k44834J504221J172929j963091j078988Q00725R27580O86370o43651J75225L68562J331132K01066
24032B592833j798755k41184K74874N14150K123481J0559r82442k35952n61497k88789K63572l96849k05096O02767
24018A671672K12566M60271J63161r26429O80714N7935j165883q64983R82072j719590j024803k7379o63793l6032
24004b200501J075994J844155J100132q82598j708796j924842L42332j15423O54973P25377j525081p7937j10089
23991b802304j644000P8863P76778P85255K138308R07074O23302j293644J276841J535565N1125o95073q38r99331
23977G37921n60197p29808N10968J115231N14450K40346j300654j952571j606087M67758J062813k0962l74601k3796
23963a919189O74426J648991N78515j633524k583966j61335j35064l42070O66719K85152N65575J047292Q3248
23950a225230J342909M10395j654232q59971N14327J95304J188082p1251J511709K076345K08924l06179k25712
23937C105420k81768m52472k32693J99082r40287p81402J424457R12284M37011q77440l88511p60702j59682J859080
23923C062377K25439j789716j503271K85359k56226k103930q18270L02930J054159Q48029k08590j095519R49682
23910a047547l31209m9003L79506J104378J008131M67279j25202r41823K68627J190376o93310J4758j418607j802138
23896a975784J11970K767924J454739L27183l03824p22597q5708J10591L75771K1949J949722j52813k453920m00821
23882A024382k26362j119677O33479J196609j3486P4296k154210o47622J256246O04254M82023j326711J453713
23869A236934K46933r24262j093907j389300O2194N11132K71641Q30570J18811l3319P42490j14309r59800k07368
23855g01560Q25405J020651M17466o34896j458665q99164N64294J404073J138158K54279k246780p24461R98999
23842d2201K220672J311378q21763j292634j652581j976918O17160J105493q61565K34969Q23005O67023j389697
23829a057659q06644o69974m68518R87091Q20701j0588l08900k6052p05498J3254L28833N51504M42499Q74054
23815c5897J020213l95481p50258q57879k2946J022477J339862L92345O28754m13174j430637k92043N95542r39404
23801a38526p59763R08133O91555j108922j44462P18773M35363M0225J036384j42616j278901j082946k71923K62663
23787h34963J86223M52481Q61292j053049p71492R32651j329250O3093J127999J726774M31372q87915j254353k93871
23773f43008O1616M22026N2183J652051P00528k36346m52133q40054m82023o40704k49474R61180j935734k856695
23759d486587K7758J648508J630746J062730p73428k48116K283293j301249p84943J071818l5644j052623j01514
23746a059251j68906p69855N27158J230165J475051N19139J53385p96047j698748J28846L69787L14985J858622
23733B084331O13464M06017K96007j669448j973072j078674J098366J49940R0583N80669l77589J606813J415354
23720C242761j452457n41086j658252p26617O8253N7792J37320J85187R81319L86646Q19293J78372m30584k366530
23706a118583q66223K636805J435012n853k425137j673600n86302J489078R69570J00391J77702J450575q3372
23693A500063j420718M91666Q85903J62198j95419k39247q14781l88799L95606k20947j68346p90043l52763Q83921
23679b71706M31792l21329j101264j196615J241599J501940R73696Q26109j075254j641480j3752J50571L11435
23666a84258J373893J82985k563K07357k48777J65325n90453m83737K66186O72967o80265j72305N86499J097765
23652B190619M33441k41544r81537j183759M72011J913867O84721l69873r37880K93198J358913k01969r13221m2296
23638B474691M6031l11481l97734Q45374J72348l06390o02045o73059K03638j501820K40884J533688j023967P41617
23624A441775R11490K97886p60828j039350p86876Q29504j674363n1784M77198j184690o01947k20812N60349J05377
23610a697071K37926k07744l61768n01852O90160J814992P32009r07947j6140o52667k087684K35039j76347L00030
23596b599064J52476O23308J373087N74034N21400Q85354R77499q29554j82745p48645q86560R5091q86116l42995
23582a273430O42205K68434J447106O29931J082158J19208l15794q38870r43386K25481o60653j248295j835560
23569b701465k62304J803454L80093R84339J8528n07450r87109N49255J024662M25071L69417j40967j329962l14666
23555f89104J31767J322269L93554j38445k24193J1904j236991l34064j5692J83828l05087n69120l1482o5008
23541a565864J218320m47855m42009j015890j392065M73078N7752k99982J020371K550177M50315j045096j8149
23528d56897j237916k191037K09715J499006J966446J507591L83141j788800k169896l82113J64211m50905M22079
23515b525375o25957q02169J200102J079490n66859M72476Q79536L51377J226104J356957N87040j033678n06080
23502A092964N47955r40804r16207R35438L03543M04883L97381J582906o71908m89660M53673j109128p34671k44613
23488F11752J47722o3927P56930r57664l40413j41693P25479J286955K3397p50247r75132m81736n8389o11619J78316
23473f50269J997531K00207O95258J18469j998155j671133r14945J63952J309832J894003J047852q49570j543372
23460b00340k95556j146621r44899m28140J074571P14934Q98348k9143j926472m6391P01902J489510O23203j626325
23446a141419r97716J69415j511873J72946J138901k434398R53039J545951J967115J751348r28071j894705K77627
23433i31840J167325K20265o13141Q77049L58955Q16520O70857N38248r54359k148060r58568K39737q29460L90924
23419a155548L010017M15540p54366p87084j413729j01994k52940k31066L8737l98173M94381M09263O62966R35053
23405H71057j028254j198372J69343l88338l27836L15891K22419N06369J144330J7049m94926o21815K17171M03866
23391a92046j351779m70012J549325J155036m33458J840027J372890m74591j051726j554757j280701O78523P19723
23378E06454K06282k44415J06415j29170p99363p77711o02858q40780n11632Q39960n025N65225J349735J187431
23364H50548M92464J504961l00511j598280r92329P8318j021429j775568J361645L46474j007767j121897J028459
23351b154912K092101J088516L75903k64834K38170k34070m39927q88834O71923o36566m59049m44576m53796l54327
23337a864278J484477K839080m23242j549713K63381J003733N15896N37653j032095k06093n21975p65816p69503
23324d88495O77700J122869j796782r75482m58207m88138k57291r72209r17387M33777L314253N88578j531580q04353
23310b552747m67085J371392J115855K20752j25130J889925K305207p29729j447434j1021o67554l67362p83663
23297b48594j045788K285r75422p58622n20133J452360J406597J301205O66127J71160k92824k221604m94912P05994
23283h52171J030095M63087j210258j300988J55069J374593K97944q71423o52606O16286J803750J767947q62832
23270A758493q27214M1244j175158l85594j32272n70193j528486j309810L111m45950j041070K210411L855599R40320
23256A393431n56573m72713J12928j273527l99073J414670J159306L10510p45508j357537N53019J033171j47406
23243A024698M63959p66024p72448l04649k7449o07817j285809o718J185301J252599O89045Q9246j234191q68021
23229a168278J468329M73565l69327l77770J72089m94376O2840N55491j192152o59701J48621J744360J89900K2791
23215E76382j6765j966151J092939N78602j78635j365319L82353j204335n67072J016006J595410L83149O43599
23202I70163K41589m80360J31081J875142k78228k458944m60092M47643M9768O37162N74229j08446r51501M83347
23188F72553J236619L05534k66624P32596K95876n85843k004809j88377j64499l55456J89054J015148J832114L71772
23174C085658k30775k71788o34514o66128N91380j485548r53521J86286J88281K939272p12815j219915l17837m17113
23160H0923K38406o15099m05471K114579o43410j135193o34968j669415o97577j105465l44071o67246J145456
23147d338551J108953J791154J992290J076065l96401o87110j015111r55629O48118Q44962l60355K1942n58167
23134h27840k94562J616025n58348r75358P08811K149419L90757j267711J33300K244284j77214p92088j351284
23121I98191j195140R8843q55l90172k95030j156981j463583J465484J988449M14879k68451J9169q50288o49867
23107a285352O35715K30331R79719q02940n71414n30263j029560R99701J481852Q32601j87378m44056q02948l13591
23093h07583k64591J708127N25955q04072l52869P77052n37528j68882p17846j006446o15272Q53598j021143r99408
23079c430908J237787M92177j254391N26320J343494P62391p32393o2743J656056J044269q94092j556469K64656
23066f03846J347340N26119m51281o27776J42699J29025j649551N57910J528580o00031O28601J158343J031202
23053C117334k23913q86765K66251l30507j535074j651047J275560J653448j28969L77389n71579j464332q77832
23040i80036o72822l75506K37814K206574K176238N43163j428682n39820n47491j524479O14336M44920j066598
23027i12389N98493R48415j762455j204012P42315L04843j85247R5356q44754j85345M1784M84863Q59679j047490
23013b065944K38745L47260J102165P49728n2962J615662l42158n94305p65708j711936j158270k5987P67651J188695
22999g07364P47891M087O34400N96580J40679L9041j293537j4758K02535O0647N29224J324167R4137r07994J315437
22984B765172J236862J044122p93292j225230q89737j182433k15975k69564j638286j20688m80839O1495J106333
22971f02060o99786J86603n81167J69621K518487k70666p99927j337672J37963j22656J540294k40947j319961
22958a421874j284123K047902K165973p98648j663319N87295j122292M53606J288021j292190K34412K94114m50574
22945i61697j081244K32982L26146Q23209q57783l8347R27667J224344J229931J535461j96070q77584o94577j448442
22931A43996j023172n20012J106695J110571k62617J282037J148288r6473j886344j024851N19535l25356j274908
22918a102611m6381J219454N52167p79037P74975N83960j389616j75594l78350n72324R25377P59031j71730p69381
22904e70060K54437J437115J638774k338439k024129n23410K403162J369924j921966k035418J09063l98131m39611
22891c038689m99588J15145J431478n23836R0089O27969J771201J732717j067897n32454O0720n99876K07870j187551
22877a412702k3912M8542j500933J773205Q30347P51084O55345n14098l95618J68541O6290l68120J97159j5943
22863B59187J514460j59415j439386j544254Q48853Q42404J249263J180689p56211k450612n93787J956468M7928
22850I55587k22352j119421n18639P62420K682462J068180j44111k311191j628777L82898p26687n67918j254435
22837b641984p09136L40445J704350K239449M73901j237867j297481J4663p38881J74385J641805J624413J46658
22824A734720j081118p97132j43193p88384p44637J066588N57337J853910J615301j359550N78289J50105j446865
22811A195371j580975M35654J406949J49013o70785j036767q2137o8709j31566n8166J047005J332643l3344p27202
22797A176984K49853o86796q83753N08835M12770l97753k255034k05496J223388J172501K006692Q01032m87941
22784B635282K73553k16335n18761k29546o22496o05834l47073j001362l07537N74045k127337k320960l0358N75062
22770d269657J90479O62466J978588j4882p83203K133948Q99615j060321k125826p60823J452032J056845O91052
22757E0313p21646k40299J446866L34667j136617j408023M74381M47929K20198r41671p37267L45901J13117N48593
22743a203558J193153Q82635N17652k1994j238810j454146R9120Q00665R43153J804188l30760n40587j165212N52305
22729H37804j75207j785487l07337m31392J798474j84765K16241K52930o11988o2283J05568j057667K82464J012811
22715a09834R65968J0918j593155J068641J364545O43211j355821o97648j278681K98660k53700j84397K31160m60501
22701a350634p41581L56191J972637J581301o84901j81321P65424o10252P0271O04289p72445k90016O74434j58043
22687A235354p07934P34781k51769k31321k96568j62337N48141j44635o14341L10356q85251r2695n12748J186705
22673A15738J125182K93221k95178o59343M26781q07596j003790M97397J869431p17717l10302n15610O56996P66145
22659A441355l24463p20938j473004j077682Q40335O69370J205532J22694o74839J83893k41141N57167J236544
22646A744823p47500r51068J58131k92445J53409K15387o35330l09886O47988P1703n87687J21802n17397j24821
22632a052891N15120J926510O61652j331228j021838L35871j78592J047991j596966q08137j449340O41199M94638
22619a816011p27005M25577J571283r8505K90783O98939J29011P66067L54735N63903J993574J601106K517784
22606H271241K207421N007796J2401221K6193776j1829579k7092395q488573m304846m82917j611823O99911j066481
22594i5248J16198j90812L71812n30903P66276q64867O35437O56257J80954j186760m66592N91312n98062M93885
22580a21113j5467j411601n08995K31619P12884J360252J283703O22328Q34689l007038j85439J929189J19051
22567A844062j171411k6545n51836j661385K03161q56521j148010J75836O90949Q70400J15715J201214J150688
22554H36317j058612m94778J2911Q4810q6428n20748O31313K45539m30218m71229k9130N57563R49846j80862n36043
22539d89749K07194J240713l56953l1772k2611M03256K85978j055523k91608J453598n89464j018J5308n91230k91030
22524a14911J269857J430419P60222j462713j280798r95153J595634J11255q38877R20487k09255L41514m60184
22511A067497l98350k25409M54781N47075r22052n83964K517589J041250j157201Q8726o31438j355946n56835j29261
22497b43538M47384m3538q87362j898879j604539J519735M36548L21641J466921k68936j251827P18449P25854P34611
22483A72524Q87865m94632o19978m5492o9444P84425j198476J22579J127834J401145M33365N24575j39317l91957
22469B495016p07493J35958j559307q22474J350979M32205J13123k176850k591879L63454l44194q07569J778611
22456b340420J421793R90016l16664L69793j095301J91101j436764p46060J050433Q80371k74825k98917J936103
22443C30659Q99279j938040r63828j685653K018928K326604j792797k213918J310033J877201O75940J110316j414178
22430E40546j139850Q95971Q61205r08618j23555m18328j63981J127212J030152N40720j069893J917978J518562
22417D608121j793743j326648o86548k008972o82398R5558N2392M09179M88973K224497M47461j612569O39815N11952
22403A367070K92538P16840K09108j494073O3127J496717j11225j027331l91532q10154m80747n48859m390N68394
22389a54517p11258p87507o18421k91681N91111J959851J747716j961866j701221p60243O80212K53399j595886
22376c350311l87556J198835J513327J677442M46618j22124j041761j638344M00310J590368Q59313o99408j453388
22363a006679J177133R52576n05238k30694j7031N31545q6562m0682K90268O81198n67547j172222j101054r16421
22349b011410l18721q08127N11704M13000J100439J475831j22767r96540n50800K11993k56148J641339l35767
22336d5974J054896Q94982n81323k54082R6291o0500N29277r75554j417989l09525J008206j101561o36488K58642
22322a540702O58707p478M15176N63597j38638l52785J331756L48476O11526P88902k24192N4768Q49298j305337
22308B053074j525359p42N64943k74750q230n74125M76710K69659m7571r11913J15080J015418p6379n31857j284479
22293g40521M82015J619360J567561r3477k178833k931923j195110N26156M67527N84545P62829k09046n45557R72992
22279i11482j240830k24299J360514J580571o50938N05718O93816N57164J711508M00082j051692j980829o50712
22266I8591K10269M87381j148019M46045K469734J11142k248970j419271r90297R34798J07234J30174p81764J109782
22252d83171N11193J25181Q41969Q0564o02205l27190L72741K94910J2836j1527L83133r18387j687404P96318M20274
22237a90765n87815o91267K61757r4961J65157o94813J084919R93586k43774l93853N16601n17667n34277k07179
22223a134351M58314J840570N79052N90128o94617K77575j004122k031076j06611R71428Q19088Q48380J120236M7217
22209B581211j951582j034321n93353J48922n23249o62825K181899Q25344m68304o47203o37634q66549k68303n45843
22195b461790P76758O73964j171446M06567O86305J277659N74701k73670N74162J3533q62659o29057j01966J597910
22181A080971P25630l01529O84704p99975p94864q71914p25322j7433P14530j379585m11730J231032J439426L30238
22167I04179P94030j110948p8392q73351j12992J270971k99900j340539n76336R37758N98693P58866j96224o1423
22153F14392n76119j273887J417318J506834n70935j127323j043406l73731Q88445J155009m49186n58579K508862
22140B117694j088530l42924O04237r37722j075724n60707p14789j151297J109990J320806l09658k88337m0599
22127a357560l27602m98010J083203R14814k012K88096L00831r42618j40086K13829O09362j329741m52209R58133
22113f81570n47506k01075o16020L90058J342104J71264R99567J303487p26519j230533J075518K61422k45741P94319
22099B088775r16000j35417j005155j323262m38856j407085K68750J079774J290919o0101l12753J810417J962727
22086B902733j948j678946j604458m26645J599038R41837q7855R03830k48524l059975k439072m24198L16101J391285
22072a916797K022332j864946P4185O90560j47998k70199J215344J31800O39927k32676J694342K79835J16063k57112
22058B174660m81396J231933l1064l74605L57772m56846j00907P88286m11609j879016r69835k89715q04711l52269
22044a599322K39263R82470Q71518r65309p43156J316410P53034j386845j871105K22966Q26745o07981p62740O42793
22030b081259p71492M08575R43987R03729K345941k93935q26309L02032K450148j59473l043193O32630M37396j75362
22016A073415L35919R41993o24996L04753J412613r34639k557895j106251j58079O10715R74598p9057n42362R74594
22002F25321J31312j304906j102249M20341K100140O33015j059633l294090j603652J918942K462232J076356L65169
21989A368298N3429j235501K68218P26449n38185L0986N00550r22218k391060o20512J750068J201556p6010o65235
21975e49167m94466J546118N23280N9428k71255j00029p47440p49426J013614n41983q70028K629233k65727l102732
21961a920580p94089J456730k51618J054010J532639O82944r62046k80711j19951N21872m61547j963667Q31935
21948f74079P79009N00149j02562m24743k19139j87215N1469Q28537Q78402k7324k55697l07326j188244Q13310
21934D64547J257379Q28062J508514k03500j897401k085228j485307Q29055M14624n78002M42106P33402j91086P0052
21920A07217J556742L34935l242078j425159J328151P24377M36495j067575l63466M5738j90664j39559j60519K9655
21906b025710M46498l39593K39420J128645M10687j386416p38654L93624m50720p42726K474060P15460j139385
21893a014810j87598O59171K136549Q88106M06799j095868k215324r37914J246933K063908j114779k90831M60393
21880A004735N92956k25138m114J109514J12936j665429k234323j336359Q84499J950702N02908l59913j410033
21867a077059M22247J085287l16811R29011R05251j262029k793027M4654K265125J39286r45669K72016p65027k06385
21853a303130L16460k02156O49544l00615J274862J659475j82727j52196J65615M29864R14378j383246m2026r40074
21839I04028j377891Q82613j674312o20112K440140O79725j257181j883353n28651N59277Q16011R51232M55717
21826C47243r61033j005336N12737J274228P1318M03525k10912k21405J069809j528982q41866L31769J047418P29024
21812A017537k55310J104925L01123L96046j138256j534926q79397N10989N62568M07460o07022Q10946J288553
21799A985236n93635j210377J157124J638330m0112k235273j280999Q22222J152792n5336o88240j94939k9432K22396
21785F49757q22322m85231k21707n00166j27087J432975O18446q97280o53282J246395r68836j498791J127458
21772a099671K809433J008903o68147J05716L85485j547607j341383O84346L54740q71264j198773J625793J871784
21759B119355j035484o00766o78262k37361q9209K5701J73615K39147l54349J177697J704703M80286j3271l55064
21745B556738M16001j274899j50475K3470J145312q48528l86331R9915j791451r08042J488861J636513R9306J18961
21731B225351o73730M0662J55158j197535j068888M56224J610772j020228j353972J356287J430766l51989j080857
21718E28021m17799J79318n34493j090723R13679J423937N63331m70929l34119K2909p50543L94170J415538k35422
21704A606875m63767k7053r06446j424804o09048j854177K26328J784162P26512j23999N76516J576460r9159n48392
21690D40008r65102K63372R98348R07439p20772r59206m63833P89151R6786P8724k375o8794Q27276j098693n90959
21675d68630M22105j079560j976532O79463J681635Q33476R38061r72301n28230J410431K208498J530101j269156
21662C409361k786141o17539l08888j787268K84178J420242J75920o56805J177161J255901r00402L62011N15943
21649A543674K55918J47219j102169j863633J184356J238373l94076N52730j11893k70017l50925M78610J6193
21636A324360k063368q96714P1992K96368m9055O24745J228307r33302j449306K46393J054478L65985L50153l38901
21622a67865k190631l83404N40877r3463j310108J137821J484242P24342N70821N95550J347760j32927j597193
21609E25822r14611o03084l45247O16275m36774m84645l38249m51154k52365j75272J976420j08090m1655J511701
21595D79072k05297j032293j201167R26744J72921O66959L88958m76710p72129j415764K17738J938688J639569
21582A327289O50932q75275K95668j73200k124941m41425J827726Q18124j713517P40903L35400l02131K46763
21569F12316j160763l08944J389535J228269l63432o69378N39563M12453J205764n668k570314q42669j083085
21556a616353j019607N95579J758999J076953j232613j541304q18977J411046P14557q13603O92754O86879J145006
21543A039316m98954j134730q82516r00766Q7883J767661J094734n21816l73160M32973j015647q23017K6334R54106
21529g47599J813760J54954J34939O84769N94233k00301j269684R55605m32121j802109j809393J123337J740425
21516I40815J3661L01578j12672p4900j302550K84680l62177R80831J048810j588661N85738Q71314K81719J773257
21502C641443N28185o12238l38788k475258q16926j90023J71563K83475P44571l00283q50933L90461k71503N61079
21488D64825j622622n49442n48720P23683P82648O76216m48271Q05380J157867N93804k82470O24990J279480r78802
21474B678566j104089j87689L60054j550304r34192r14156o3340J427940m76977m42807q7791O3792J636067q47885k3
21459d42834J46459j231878O87428n98519P2254M42742P51927K039394J64578l71386j355775J177814l28523R1603
21445A245284o292p74599j196195q92490J54605l6202k60127K77807M34676o87843o75836R2370M84678l05988o77304
21430b823456j6557P23799K046432k18461p8828p29597p97689k57705K65724M03601J345940M8032N73276K20696
21416G05207p09117K20664L36021j68396k44692p05125K3338J206261K96502m21390k73817m2150o21015L79594
21402a8115j394848r96260J013710N87334J474955Q13588K56996N15095j028950k425399j280400M70374L70672
21389a641248R06667J670068p94598p57520J61274J242196J289527j505923K47777O2664j028968M5565n94978N74676
21375a22821n96269l48713K17055J15671r4617k85428Q43360L88457Q27299r88962r17533o3604J526046L70333
21361H70274j134819j190386j573955j183012J091905J94746N44693J502011k88881M38806q8825J37520N20294
21348a59629J11117m37053j101199J030422O7801j291233J95793n64323k97330j94031J296247K207599K811860
21335C676041K044469j806889k079708j44979q55812q92746r92358k032603m75663N54496j86428N72220K49814L1312
21321b338834J02376j417571O95768K305176P0869j664381J090665K605749J123683p78549j567473j6393p77396
21308e66311L97661P61740J248111O716r98547L21307Q07113J25685j642524P46150J017032j123229j108837k14750
21294b22683N89721n85511r06837O42421m22971r22994k02229j327218k41840J532664J726683N07059r15329k91823
21280a040887J673894m02853L39083l08347j209695q51105m47893j98954K4333K054443o37675L55781R71461r02767
21266e81181j542537j363726q40639J680028J759062J953272P50356k05663j041191p77852j67141o54250R03872
21253a27590O0577o37184r0250p37206Q30532P65986J252340k36668r64070l49854q52834L88889J01438N13827
21239h2067J450859J387254K47639K87509r60459n24185J373468o32300j617621k20421k7162m78874p63981R96252
21225D35911O54630J21715j152670j473790J161125M92260J098072K11808o429m32713Q69422j39102o7819o31154
21211A141266p69878q11894N53497j199284j21179J167738q34074Q20635P92701K294474l7643p37213J584152J5820
21197C859118p18402q47030q03626N76221P18525j096130k158395q79138n64470j42496R95792k84326K16657J430947
21183C03247R20124j975529j352970R00297K249860J435433j065987k12021N40344j09611q62318k27014l64263
21170A79592n42843q33886O84768r260r63226J517342k65987r92081K023935J225663q47531k194200j228822J288765
21156i57771J204470K442141j60295k810108O72660J194264J10015M8418j552440k248288r66499O31410J334754
21143a057269J479176n64232K33922K64521p07228N29888j43568j947474J27607K176247Q57802m78474R23212Q73648
21129B567778K16536n93590o78448l98526q61826j297486R21306R64480m03187j580598p86190j04776M04516L64190
21115a265821J491578L13790j187947r50367o18779k067394o83286Q13320O667J106695K236673m2341m42550p0677
21101a360439j59918J49937J105044J911428n71870j223411M10832P73418j223187j055583L65521O41721J016464
21088G79957j120917Q4000J204336M85611M12897j097393m17674O36132j4023O58185N04820J05575j701811r68062
21074d48367K026223J89477r21385J627760l98578j218756J154033Q56068j073529o91153q66125m54293N68339
21061C49714J331038Q14499j280396r44711n94802j110753o42329p73024J945432Q17821j604049o71585O68206
21048a694939J417214J23563K21844q30305O94541j6517r94493l49336Q30514m60893r83507j223515J271271K578296
21034E83738l98634j81194J162700k39038j542633k040537j241898O74388J112711r3215J964804O96015n01395
21021d4188j597742L13088K80748n8043R25189L03977j437301Q47900O20422r59519L45067m99123J142791L01193
21007D84459j882802J1513R24942m21611J337167L44129m89493j548878J35641J383418q30512N1115J765671N08200
20993A772959k75195J90108o35989q67735P3044J032665j20074R8632J433871o48089J65005j283955j406695K60944
20979b10504P30796J579967p55733q42466j070655p4818J639019M98751j459694J29919L02795r5221M51650R00266
20965A724072k774439j259733N63366J040207M52578J288150J422051k045064j442903r5887J209708j177482k275565
20952c370941R11198J865523K253741n43717j379120j61353J952901j52415l564030Q77658K716551L02191n50714
20939A157473J259584J84803j389837m66280o45677O62696J166493o78296k460304k50520P14597L18326P26786
20926B99844j562383M14052M60412j327300J258460L41635j250822k265404L5572Q19528K38074L7098j518442
20913d019676J136250K612366l16209K06818L11773j32673R53708m85417o17420q18588K28640J310410j232836
20900h62854J256012J147125M63079k31817k40800l01851R76820L31189j869791q98774p56774o31316N75067n05078
20886a549763J78619j81931M26326J026940o80475p30713J62292N7317K51734J368048K54160q37229n86545k97422
20872a138642O31571o29328j887793j102432L72132J290434j08790n77167K31549k30211J719041N17369J055636
20859A43369Q32171j912693J37907K150835J289291j418811o02750O90221P32865J171389k39842r55935l74815
20846A643202j29038Q4030j453478n26855m50138R53700J023597J043456n25070Q18366J986319p55918n95931j59063
20832B957179k03080k750356j855638J378987J408736J60501J68362M36140J105492L48919j605677p99045J466455
20819B216975j2132O06139M89249p58149j106053K03758J215250Q89936L01949n10062o86359r19768j423442L6559
20805E43850p32441j256157j210532K76079R43048P73244q14157j013915l94936J112827M37347J920158M87307
20792A071722r44950p43284p57232j8528L39037J526226Q15118L70839L72317k63282k251991K98526j39187j374174
20778a698843l9954o43316J677603K639658J48451j45259n504j398255l16651M07895m90641q17002r58844R32405
20764g08257J506432Q475j246635k8594l05033k08350Q83616P81504q6414n06778J46785Q73115j63157l13479k06169
20749D27061m1015j631264j124051J355333J323602P16777m03313j051011q72612q70210J237586J321062r35265
20736e47320n30124j9728Q32849N24088J720062J193442L8767n08916j306417o22840J1038P84140j11308j113327
20722C44406k114552j006667q82250L90995L333459Q29485N02752M65351J71184j20813j752388j111120R61639
20709A1481p01030m13446J010211j237680l94459J467660J043728j100754P01525J63663l21864r4634l24320o5962
20695b55881m91333n43402q60215M69425N04900r0520J077154J281345N0389j538171M96510o40590m52400O34119
20681c58670J302275M54155j18450j767235r16206Q56744O22460L11821o34147J8284J0333j459007K2062q38709
20667b494290M32884K24680j529635N58469K740109J457171n82982o66445l50192r48198j16775k26116o67301Q8449
20653b080172J710775o2226J064320Q86076n78977j766429j816459L05464m83603j020348J053273N82001L55580
20640a850725n00467M6909M81546l06564M79455J329158L42029p8939j81082j072291k59652L40257P88292J294698
20626H52624q26991j712110M76098J371307J241170N70513J32837r28810r24367j37028L71131p14685L85362J34222
20612B91273Q40915K51507o83376J4603R9738L20559m80265j80969k6838j618752l65018K351979L94934j451253
20598b40963j299650J0577J217155M85785r7000l1218O77658L04006M13516m36005j160193j49095J334989P72118
20584A801680j215566l72025j45729N58787J500118p66034m78898J161183j719465l191494L5367J609008Q38981
20571c84087P41984n02879N6618J36535J447307K48720k174393k380941m26021O66620r20739P55764K143732r29272
20557a521052R86672N84189Q09064J060894j09224l65437m4285K63723J62410m70598j290695j779745J489939
20544b24145K029150J51825j881996m23071J446570o5108m75564o46413o64578l11832Q46035J655857Q19610n84068
20530A672272m5148J480415j236998j407511l9163m06402Q26282j806115p87217J648830K118912J14826m17749M7844
20516A763078J350786K96080k046847j306732M71124J140642o815p37542M63824k67216r88327n93760K50877J051802
20502H40974O06395j121620j425889j42811J070143O31645M40865J274645P42323m39952o32652j160642r90262
20489c06838J173500J064119J782118J652759j849608j086792j2622o06592K8776L87974l62180k520240k451449
20476c107075J52661l30888j353166J936456K146971k98602L46715L66514o33475N66617N48796j12711R3241r94505
20462f72451j046837J053085K336031R02406K84220M39433m16624j014845o88823K12960L22570N01997r13608l60866
20448I38648J150418N41860j778213M2253J713390N81202j624716j153051p76042J344489P09180j558354l22511
20435a91447K180769K22109k78403j056509k150199p49072L26479J076911j164243j816264p37353L54960J197082
20422b785180Q15063r48597J596723K464771j347350k229508R76362J468874M49871J656653k26187j62679J553565
20409C282381j333006j563361j27456j013068j482595n3474L15028P86692R01637J71272o7701J036279k619085
20396a766457r10934J818396J595225M60423r76785Q11677R88514j355200k79255p53044P75756p56314j211425
20383a559423J42662M52299k21539K32864j63457j762157J189562J937827Q77424J849829M94659k104015j410219
20370d3684J74509K82404N26302k38748O3929j67544l7696k39408n5080O84710J342966o14862j341243j539930
20356a203375j039885j41245j110843J028743K770964J902910n51110j916400R7925q01570o34868j053878j21561
20343b774193P54448K058529Q96812j737045p69360Q21579k32605R46477J053184O88503J28588q88073j175328
20330b28484k76759r27202n36246Q40289J90169J278330J99044m27089K94359Q83852L29813j54550O35079j84366
20316A916239j255638j657121K62667q54818k65377J335428q7503k69872J304694K058116J706117J9453j530321
20303B682064k134205q30617K35704P46469P4978r14975K3989r6633J695715n5549j372564K41045N81668l14862
20289E62227k13043k038729m65221L24429o27239J34670K34152k13677M69059J456666j19267L2748J398885j29015
20275H06645K82187J863147q0961p68926P7332j875071j656001k116684Q40428J524013j171937Q52900N10197j64358
20261a077089K066716P46283L10921m39021j041727j106735j81039N76241J41458n33750k26694J725443K138198
20248C099205R58462j632312j190608J148025l4411k65166L24503J80114K54154n54850j713596n44551K8983n14052
20234d56100j64239J024216l92268p56963J495810J200032K86954M46673n83878p42009n29889R17626J120787r03317
20220A963435q32633l49233j35919q99466N68958O15019q45829q54354o64374Q59706J319471l30772k65833P43698
20206H91874p65235j992815k85302N94256j126168j11350N44383P69041O22162J17469N91053L56811j82574M31479
20192D55084j978j25288J65812o28856L29583M06452j528327J4729L44042j99597j202742m77763J324754k5954
20178a150049j70052R22368k47945R27553P9478j788299r66090j176874j80441J366632N78527O50203M01426K659782
20164A906219J37459j94385L3521k221782j033679K26284P52874Q62626j79298l96392M38087l7317p82469j843386
20150b331638Q43394M23239m92794K46613P87156Q10141R90596j233685j136809o57784O3533Q81156M28945L09884
20136f8053J563585J73519r89149j34557K8676P11654N88118J605705p57329k317048n8556l88535k44598m17277
20122g03845o54191P69779O31368j39718n55657Q63116L38492j806565O49972J409846k0034K34914k94538n59497
20108A63442l19684p2083L55537M17944j88358l27705q4794n24431n4235L94478k90185Q50443J70486j835823
20094a344968j365958j048846l17967J030801N0500j43377J797717L65100J86027j4884j701262p51843J180151
20081b078809Q47575J274772J21037m47821M70045L00767r32311j644807P45094Q58404P63970k42071j97566L40343
20067A78622J028119n8731L39259l31361j080502K40449k26907K75716l89176k142856p20327J064414J150850
20054f72431J969246Q72497l69437m14087l5006j134502N04293n88966k50256R35462k80689m1995m44949l96837
20040c47657J06800j55811J133149p03275j129064j340010K417677K59299n06827j37508j154826q56970O36199
20027a778824P09876P69126J664936J719562Q3130l47276p90700O81029O2576n83886J124446l46529o63995k066574
20013B36897r01568M63854J093837n55516j803178k71411J175223J267361n4430K85428O96058J40816o08188k035848
19999h70665n92535l23929R53671L88328M76915Q88622j120044q30748K049847L68240Q21590K40348j184161k43521
19985A021958j273699o19031J79006L63532j12091j739734j263306J103184J697338L02354P55165P23471j433591
19972b95444n44149L81265Q73956O28947J091211p66583k113962k83758R92373J133576n86000o19898j143828l17587
19958a569881m58167M54435M12977n01650J1526N65320K255884J650081j02047j486270j308133j072878l57776
19945a506579J163607Q81673n82978j326950M35757Q746O16179R29339K18807M79680j01113j458292r10933k0116
19931a173173L09181o175M37542m90277j072313K14907K55429J391150P5612N08292O48455n93347m31098p40957
19917f66772Q56230Q83468J026544J250470m50903q96865j824038j088205M23262K302286J80659p98117M63239
19904A661258j792395n93628J270460J007949O14250l99025l58044j033772k61243N51806L8359k90164L77812m0579
19890G53044p12859k02531j537783k043267J047097J385570o3304Q75231M11671p9107o94119L73717K61765j714609
19876a939484l9515O02298r0297j64648O60908J568304N10774k72633r98761J449720J02571j015708J140070j367644
19862A45955j416734J30374Q52463j423218n83324K5123j266578P84284L40499Q60548M32397J41705n80133J116808
19848d39831J252579k14777M0845J501340J488179j63393p37747j502932j415568j214867J26515J421403n45593
19835d03847L46817N97669j726331o48758j62458j13523O90423j317574P02812J638667J872819J107397l00759
19822B283354j489946j351033N91829l36671j474308K84594J152147p46252q1124P4305K78037J097428m44021p77491
19808i39152N52357m4140j121847m30870J219658J008579J153545n13823p63254j322138j920169k81950O44390
19795b758814K98972J243776J498341l2784j75562K27042J06244q74614j485354P11348L79469P28816l87584N635
19781e15069P03417j06273l57568J350129O28312o92867j009058p19411R62952Q73281p4952k53683N99875q43972
19767E45113q57715l52182m10717j706334l1866L31423l02970Q83668O5745M20130J131508N99184l91265J320966
19753A244688J182680j668598n19840j379487j120839M36750j1691J15766O45502J227960J903064M87933j126168
19740A417720n77981n50196j109133P0555K08172K68048L6267O82987j26039n62205K56383j472929k745184Q40811
19726c362724J522225K90665O57193Q07135Q54532J539522j95440r72526n35467R77945R76238p32688k220388
19713c93778j479260P77109J90567Q7456J676513Q94921j197427o59541P37141O94866j549611m15714M54869J67648
19699a4241K82252o03451K41898J792844J196995j21807m42090J61768L91263K13870j87836n05322k79450J6274
19685B142967j460686k99991R53753Q78907N22825j112038K33539J114543j234041q22082j56376M33532j319166
19672a24314l26201n94212j892584J421077J414053J064206r4241j652063k152422P08302L96132J905688K504369
19659B577790Q61038j457787k80014K96966j322517j394126O5459R15824k06512l51800l4268J842508J44147l11546
19645A345162J20996j230677n6351J549742J548025j852082k253197N01444J074255J249649j215576l10604Q8354
19632E59140J105817j378478o23741R15394J344908K08001l13888J243095J100826K112785p8342J055279J402389
19619H653185K388242O030611P991851M281524j851016m645477o676780n752462k006332k291772k149013o90874
19607C281687j278484j164470q34706L36860J473931L02470l05958j614818J906568L98865r90909l82532j75627
19594I52877L98494o76080J99424Q5183j749218L41600J187643P56369j541307l89223O98312j65807m06874M36794
19580A28187n8929p97215j96531m71352j342747L51191J577334k10374j059706K60190Q35326j64225k81427n34118
19566a964396P13019P49589m81996m83656l10758M48735J204332Q28075m11612j414180k026968M48412J158184
19553a543220P47240k29300J939923J055659j975476m26783J379859J44870j858880J00665L43612q06921M27210
19540g01542J842115J60434j220898j881622r46353J37434K95540J035088q4469j319898N84043J712992R07812
19527E20676q16273n9628K47064Q018j391759O39968m68434Q51829K183212l95108n42873N0638j516942j05322O9171
19512g25763o91437Q74276J236345l36742k08925j001377m05350J011215J488280j038467o14662R47107J739304
19499B273804j5009r87513n96284m90787j271277j105548J123372Q61955L84843J259467p21203p08009n81244P44965
19485A71532P04783m06524n94053Q45183K06057j166812l97115M73255R25768J44783j085078J077229J114189
19472B013197J638613J646830p88331k138599k875679j840806J607493M64481m80372o7987J277309R4562q66114
19459c15403N23263N04989j805364N8070J060788j282008J126836q46095K50937O35810j329220M20170J494005
19446D96778J310850J129708Q6454j203093k052661j349112N05533J338810m02470j512389Q32266J332932k72800
19433B40806J15755p9040n02905Q35679K97925j238268o29910k80478J621682J209005q64812j418508O08923M28693
19419C44547l6675j814138k268985M93040Q21042J749880l98371j223114N23431R78561J352558L08313j247050
19406d16961k67258N31704l60036j125002l16549j1995j90643J158117o73407Q91565K432226J373050r30826j685867
19392D08118j031604J98355N29389P91849J167134N43746o29561j58934j824874j61404m97669M68808P38944k98598
19378B43699L00414n91794n25954P75946J563530j189015j137869J535377J067673p56587n34488N52352j003801
19365B99483o57336N615l84199j63776J018374J153412j329970l72412M81409Q17383n4625n3656j16046J01013
19351G44669p18417L54591j4594j631017j87203n61417J571802J582872n04650j554325p15797J653687j022740
19338a002539J49127J65393l92418l03500j44653P90368J457925Q91190j301521j178448L25845R9994N76989R19249
19324A053001k01333J012982r93089k571775r06153Q9102O23173M98065K32457p46505j315434O29331K67763J150478
19310a177937Q07269j098312J753420O46225r95710j033057m5017L02188l0859R29592j78159J632917O54813J86487
19296B353860k59520k83393j354291n48813J63966L32784o39796m15544j59544R02452J150445Q08911j765290
19283B86227j286387O4193j58512R28428j525793k56039J97976J83327J79771j45950K00487j7497N87211J16782
19269f45776o74429N56087J028579l83324j523813J65492j95513j66778J225756L32154j03601J84725L08109j300356
19255a192688o80757K29554k43279m03251K24980M26166J347970J913135o309j421336n88699K78478J068207J429638
19241B381809l0150j035517j245103k88121r45774R52819J472708n83980K91241J559827o10741q01523m79599
19228F37896K408016J164055j424117j055317k07620j085703j063058M41912j449506n24800J401531J891066j205729
19215g1374J69627N23648M33615J168315P14537j976067j266140J42610q51903q22426k30350K51082M7204L54524
19201a413098Q49252l27087m65733N74243J091974L60828q52732k20115P58163n5755j495925m38171O79255L64395
19187e90506K58374J460633L44848l03427j120140r63921n63002Q23709J045347j906735j557958n44308Q16348k6253
19173b826991J492K72282J50164p20467P23096L77939L84047l31633J87621Q89874L19617K92973j408599r64026
19159b652611J439646K187128l55643P65740n13054p98954K24234j48022m01919k02238l94097O87416J222638p96729
19145B63535j190520J233790K60613J334193J137236r69489q48222M5947l07469J09042K38385j154Q3538l19384
19131A070041k398223K86997J461393l27729n86841P98449j76257j325504j797293j18681J677740L83829P88143
19118b63936J019525O85537O97396l16701L18317p540k01672l1510r62857r35700o27580L86993J673740R90j60996
19103A274006J632490p59431k307521J213495j006861j220065R54456R80490J104496j477307j442354M7480N13937
19090d92689j815070j88986Q18275k12074P93445J182625J103935r0765K07571j677070p20500k26490P10825J108691
19076E01723j271753q22646M36218j164051j36397J184045o43847J128385K69021M26452J434779q58355k627372
19063b143798k165999o90714J335902J668994P46410Q72501R71874m70752j87193L14218K18764K85768J166569
19050A922544R62481q3615q836k47228J099712j591567k793222j501952Q55639K161684j97486k043329K95806p79426
19036a948795k48372J674239Q23032N26288j293117o72299O22047J755902k17585p79157q99399K67849j044558
19023a433925j64305P07028J03332M73997L00438m43616p18380J323004P88732K46110O6885J021040q88540k04282
19009A177518Q01630K276978k42557k578305j317239l4225j337369m51197n05903m75242o35921M86340M27345M91888
18995a916259L5988P48407J685058n77110J082880J240272j02075r37133j057460J035650J646854R1207j478831
18982A497448k80618P81284j51958J41684M28326j326501j177594J208439k7213J276759J058725O79549N90028
18969D698358j243350j700260o31968N67889J273256L39351j627200p01378j164568j57323K190530P36333J487495
18956D067165o37896q36432l87053J46609n92522j48202K09188O93027K105887J84278j297765p88309j338044r00264
18942D79667j066548M39232Q84517p37514l55588M16270K391184M38853N2390J343380r08765K86541Q26171j320528
18928C169262k836954j307857j622293N40879K546008O98260j213491j050459l01739Q72810J62235J12689N13771
18915B83121O81186R14042o21246k530992J324930J034027j414111o83503j99645J66021J381028Q22811q93922N5673
18901C19420r88704j00660K72897n80552L59434l12084k14823K115233m42440N50338q85965L56225M57213N63931
18887A469463o95836k094707l18597K98471j498327j992642O32771L148823K73683K82158j29389k95543N22514
18874c97158j472210j96566p10990J042050q89673N57604K56313K09315M58459J926935m91199o60576m62283L54471
18860d75508M84352m15283J80026L71309q79572R19519M83060n15924j225172k13584p23340J319791O72554l03554
18846c21326N90783P76050o36257m66509m40944P34155R85775o43281j55931j647596j036373J789800N26095N47592
18832F02033P13314p09713M73397j33860j317946Q03348R4491m81466p05886K53643N83410M33825L18968j035677
18818a08119q07935o89332n13281L98120P19306M37781K74096p87891k49536j143685j79844K99168J878964J988377
18804A516189j267453J078399j393406l44246J66411p37020l79651j61734Q48152M7831J089321J521385p95718
18791A188460j728347n37165O5103m88875Q78423J704792K42462l54756p25726o30145r77565j45318N9118j317037
18777b766576J54510k53895p60817J140655M7953K360639K211479j102294l78219N59263J028359Q88515l39513
18764B790059K47625N5835j449032l65971M79630K43836O13204j16843k45347l96070n71326j513473R59357P12094
18750A443578j412916k94323O88303l691l99615j049767N51983R15159l75841n72262n99875J87604Q74608n30717
18736e77772J79393o16067J26433P80008O4974N20308j049500k19215J603335J72982m60744k14725J040769J483385
18722B833564J88438n2513j858927j940094j31096R65242j136061q81063P11567O09369L07512o17155Q09715m05666
18708e97168J9594M99874P96604R43157j537439j826487j742538Q16616J510473k20480Q31385J038381M62923
18695I94895j416875j705118n57174j147354K62193J95770J85157J221907L01111K29664j124202Q84008O70998
18682a005020N22022j009992N46194J628142q18624K57870p52699j578223J762113P09753j15815o81427N21864
18669a3842j073319m19966J590383O94792K45336o62861q53003J44767N4335k35094l1217O95251m15131r89181
18655a268750K83000J220573n80603N05140Q12031L85346r03360j040006j059900j45524l51932J020481l36474
18642a459978N27888J859141R54040j207007k074100o02462J801124O20568j610499o30513k43172o38181J501799
18629a201352Q27846P2563K138295R22572p97255M72402J26330o66833J688431o57954k114208j371949j035580
18616a596692O90852N79686k61906J021908J71273J94313K55823j203299k463691Q121J148710R48693p97154M09609
18602h93754J141240L93099q66312k53467J422482P23103m19794j400982K05846o16835p05501j441273j328363
18589d040511O10334O78092J522043R08787R5662J589804P02183m81041p86113M99951Q77000m8832j255764j762797
18575h91202l28791k61999k779J537898J68029n34524J066994K20120m26805o31333j937861J50457J580122N70783
18561B79109r78982j42241O31889J29218J14327m89684j177682j094317m0046J06677K476093K25592N0471Q6724
18547A77148Q96533J064312n5804p78329j124059p16645R74933l7879j259572Q80183j21846q99733q84814k14889
18533b100461P98284L41838o30551J254578N23321l17391k0411j361520j313051R43242J109492J86475P1225K15880
18519b99050o28814J112781J051606n45140j30762O5472j24865r25900M99653P75880L64157p75720m42429l25858
18505c28989o33655p4763J185391j23581J80884J72171j44359j74734J791453L88982n85643k41675j482053J37901
18491F7330J093907N88025m5187R97682L78946m51647j035158j330431N96521P27852r26694j191365M19021R02598
18477G91400P0008m39452j513958r40968L86185R28639K106372l97175k555228k40092J560394M51866j447479p60464
18463a999952P21311p62439J240131J526976R70993r26632j952212j669727N97049J042844J035777K54404r29897
18450h51374l24256L76247L40158k10813J41993N70589J77623j213995P12488J010201o47816j837530J59940K150148
18436E53603K154578L96745R43711M90692j040920n69445j237516j347708P92245J343357k52243j286201j26065
18423H14833P43104o79217l63008J023640J37108j561812j522902J260101J426926R13852j031940r67325J041915L05
18409A235580k15521J339503Q75138K95018j204397p72965r58343q56585J650718J812013J04878j845932l32781
18396A126324p26571N00968K94974K20649J275237p1864m99775k146409m03754j409869K69846J998608R29829m32554
18382I25639M51113o51686m42270O9743K19445j590351n41014J587457Q80782O18522j090278P6450L23370M21297
18368A258219q54739j308621L94534Q00334J260717J854047j84097k8595k21988l39574j57407k78859j000478n80037
18354F13456N73952J42459r2150o00328K26385J011498j648215j688346n27874m33422J743100J281290p33503q35499
18340i67197p68649R53536J324318O32885M13876M62091r8916r48324l59624n07291J014264N5481r63310J049993
18326A293133J189137K52051p03941q93859n34224n66470j71952m1379J16704k22954N01965L43914O90151m8968
18312A203308k74195j126847m7178L0310k520276k33779Q58994K07781P29255o36344k82727J583236n32069j483852
18298b524383J63006K26038P42780M18727J324494J803560k77402k6133j80811K16763l81676j173850R37012P4240
18284A342365r73450k90341p10010J115020o16076p4272Q50168n27952j51236J298939P96037j73166Q66637k52172
18270B500491l63221j218325j236390J809590o31408q10158q55942j32526K2870j39351K905905L42979r89155K86756
18256A492115L31626r27554L1501N7849k058146k63813J743369K404045n93334j337996Q8842r06521k97168K48178
18242A2993K20267J424836o2451k06336P01245j186738p94539M48695j264711L74916J129858J99649N48345m96806
18228A049223p09352n39967N61103P73443k30907r34031j081510n83562k8008k10074P22945M30877q610J205269
18214D16839P59974K42917K47682j346381k991508m37089K194315L268936K653404p20888m59816j150821p54468
18201A923096n37539O45987k9976n91070P2482J88906J430520k257158j872995l17155k81791q08207j34M96667k8525
18186a966892m03881j7262o27582m54389J631732R41112Q40010K242908N92274j256858n878m46289j664502q8439
18172f83936L82946Q99476p9361J181941j549100l44506J858063n79349j995549K69974Q12038j02573O40639j85565
18158E25138j178315J390074J395737P0475p73483j27674j185805j02200k22175j719015M8602J559308M38730Q8002
18144B07399L95940K086385J466304j606057k312418r91289O91802o37316m39938J285175J274127M01266n97262
18131A224118j084540N59362N24015J0442P11938K102498l59069j562234j002595r23351P3572p45055k26531j80327
18117h77757p60277L90904l1556N86147J491106M39359P56384p38476M94535J064055o89753k130883l405075K81826
18103c129461J791685L28907j291401J697184O49348p91936k58028J53520R29382J297347O25607p75943n25583
18090G00628M24645L36953j240437j689020j96367Q73032J861719Q07877j197777l00097o25606R55057J184204
18077A894811j987624r74790K05492J618696o27990r17288l70549r04765l18200J055588J22544k43477P53152n41979
18063a236379l3627Q11981J482164q56188k9209M15866k00801L74291J443976j069186j702771n34337l93780j57394
18049a685394O28455J531387N43356j054833r62271O82629J5682P02342P88723J206348M3954k84921k513082j013982
18035a371607J09482K15456Q70670Q44651r69263p71259P16753J707598J395014K74217l79640l93601O07115k538132
18021C17454M40622j76292L2180L10875o44416q11259j277615p72819K043996J644598j351520j718499j44691P62077
18007a345309J399607J532122K28704N93480l57498n96752O0706L77865j315535n77088M22142O90479P76350j92080
17993A697193l029345q02867R76223m55559q38853L93837K046559R12173O47105j096768k040518l81321J609044
17980c63097J865194Q90736j265871r09272j43136k21745q91288J256575p3590j028192m7197m35043M85810N29036
17966c51080Q44742O55810r43891J34700K5567j378868j742443N19733M60019J47061j04674J116967P79154p21798
17952e59001l97540j410185K251490K74127j975485K87433J499219n03045K25686p17185p88047M19586J167219
17939b25728J594028L86973j976799r43493m10265j99521L06479Q5611m89643n11527K64756p48474Q76627K149325
17925A58349O31039l49475o39490r5633M84799R69781l13993j012210Q01116q26153p91225J37521J282904j31377
17911C05953n22773Q50299K9922j440624M25791L50640j424378l88167K445313K694818r8903N23074o86847j435028
17897A629090j347138o64222K26543N29382k264098j538608j68601Q55810J276677P81743L56309r56786M2310
17884a241589J809599J91704J256475j006981j655757j337943O72551K486952M72566j12113O28540o08171o73344
17871H82489J059587M51245n36526p81478n17156k91376j725367j122993M83863O76547k67623l62192j47352m48084
17857b646416p50507K24617R03771J028617l6436l90894M91901J217333K151010J86078o19576r84389j908032k00986
17843a333909J294713M66699j233206m12455J834423j184379l50208k20406O15664O98793o77714J121890o28836
17830h931p73606M02738j187954O60874J014991J030107n3744j594293R6116J048270L47774q5881J6249K98185
17816A210895M26643k15167J7567l49606o73876p24252j224759o26755J75663J43364J696087J77050k36470O67289
17802D63673k7148m09740N24100J292420N76110j14978k6983M07347M78633j519870k025337n30856k032272J198387
17788a746514J937177J782924l19566r16600M55362L71407Q61175l43533O97051j529778j662887J28281j02110
17775c87611K84032k22355k69795P38454M61522j014396l26938K27610n06783P60806k43641n68125P07105j9968
17761c80083n52497o08827N89142l87694k83076P21160J093492n7615j162706K42548P65014J74283J271335P42769
17747B167245j171713m33500O83334P79177j492492k13514k80215j073340n96191k92444K01139K75833J735005
17734B88324K084208O45494j174784m84159O87317m81736j154995L34482l41543j699455Q70304K047674J9219
17721A640350m016622R4170K433191N69665Q5028Q21354J76182k105901j954660M65283J625688j24580M79854P5949
17707B64951N26873J53411p46729M99970J5593K199796J226841J64686q10296l064086j498158L29675j34935P30785
17693a41623n26934p54149K10231K21163J421344P08812M13689O90588n48978j639267r80397K361024J083452k61615
17679B257340O82869m6167o78899j031582p26969k08341j161204j228680J696007J394700k55014j089935m39882
17666h35757P05653p0792k2414O74967l89939J027751j76555r98451J70787j7140p47241p0326n84397m60363j369328
17651c163545P51827J735924k17248N63726o59352J99168m14836j009545j56040N54379Q66399P8958m86932m43732
17637a800849M82184J601783K71019l47795k09122o65905n74781M82199R05963L22463O62245L76247K80336k50152
17623A535835j97726m49419L7719J610786N7969j370905q39121p65981k91617K13350J178877j01390p52187p21817
17609h55627L58851J237827J122049j10950j687355j092330J068994J80469j247730L09218R58268j132526l25893
17596a216735J006589o17113J001011n30854k0140J436082L81193k71916n18571J20993p0726M37913j063159p01366
17582f26799K07892n50377o81549J004749J294951q49753j320020P58888J059617R34432j566972m81209J574013
17569G57863p11716k503687L85208R15476L26385J413200n1658r92108j196173J230570O81175O0064q87700P74018
17555B00917j39646o49106J352886j34155j061365j156316p5799N0656J218178M25591o54729l83404J624j241774
17541b246442o15333J699362o8777j226342J818470M41077r13563J52968J085873J531508K89558j270016q7949
17528E90394J018406o45276q06095o53383K88147r12741j681177j559691m78805J205202O28544J664829J35497
17515a206149Q59018J958170K356712l82294k134852p81620l33291K46930m62988n67232k54214J456520M20092
17502A174802j078520r69480K30347n72757j630576O81089J497259N25852L4909L96669K46388j82906r94421j181552
17488a822897O0696J484875L0794J04513L08309j533706N50800r24082m30L151461J272451j43916k168339m66432
17474i5903M19748Q37721k72571j390874j56481L02809k02041J217743P29609J59583R15841L07857Q2089r33613
17460A921517r70724o45195m11345j99856j407188n09033P15530P18161L65881j0897k739990j729601M34906Q35160
17446c632674J074949P77649j95987l04073o1580p84980M55283J819104k8134j033468J663234K51669o64290J61989
17432e01309m56358j80055N88467j03192O23607P40313P99972k89374Q17710O9083j648684N60425J305297J095158
17418C421060J212045J29214o75037j072756j107492j536684O89706M78450n71622P39500l8033J69440P91994J59013
17404B788798K39921N2998k82258k50330p77418J58763M19752j747616q33543k68847K29922M11082N24831m58748
17390B07307l77919K66995K4600M52489j143837K32600P46845k55228L45365N58015L65542R745n87086P13787Q32009
17375B391229l61992p39192R01201q32286j601787j98259P73139J229868l67669j069973j103234j400349K23077
17362b156227J383621K260774L67899j172404J561395L68538k067122o04662l39286k4451K76387L61882N35300
17349G51644J200868j117343j392719O56504J34695q44398m06122R8613J499306J561536q47025p36104Q81107N13819
17335A954381j350175r47037n73999o41836N75860O67782J162545n19481m1191O63549R12578o37307j320201k59731
17321c54263N32028R99542j21880j088103p81919L45542M94151J180831k56508j225400J43155n3459j187788P10107
17307f63964J162100J60470j24446l25084j077580j42443K41316N49146K72543o19710J40169J039885J45247l16451
17293D41198J412007Q191p26211r41332l15241N1527q018k92078j607032m68225J648890R79323P46775L45433r56246
17278C18961r45082M80502m71293j264105J146415K92574K07988Q68786L63338j61512k20548j824616p34329J051809
17264h91112M69983J70490P10615J53495J371726j514938j697774p81329L94344J144079k10724O65846J68190q12511
17250f59620N46186K402433M22967k073341j372132L91353R91814m46290l32705J165262J125732k224395j335886
17237a398622k57368K02088P94126p5500j87832J319361m30377r8988K07689j048331j333132j359901k14381N61507
17223c319661J746650J877277k40168p80424m47868n55168M24100k06333J216765Q67189l75801K11123J096131
17210A513812j70140m29901q53710j262454o61951J691673J013335K17761J567535o06214j142822r10562j089805
17197a123443K32444K07272Q47525R79504o45116P57497J33897j028149n63825K7571j31804p69965j542527J172121
17183a446998N07351j848747o3343J382907J565099J896217m71270r54560K34261j878521j892398r63238K811506
17170a121734K627802J01073j536636k294241o73987J690456Q34332r59862p56808P20315N36043k87964n92127
17157a713338M85977J147876L99625j528562J47941J284075J022022R58551J08591j276646o70518R20527M81580
17144A767701J85292Q0434j777625j712295j84939q774p7115J804641Q58906r43086j692006J10307J370330n38241
17130g56470j264766p10150J88573J139158O84513n1107M18880j65217l98642m63694K96228p39628J081671Q90376
17116A49725o21191j010580J509348O70083r91327j269413K74864J27475p5557J608544L04340j312600Q9346p96645
17102a343588p84683J426039J950779M67297j117598l8685P9094o51572j120846Q9433J716594L21703r37136j170644
17088a113813n15777n06160J280416J649525j184995N76770J686817j76583o99028L26809M91167j049090J49812
17075I15870n49600j448497L92514L54856j819220O46056J749657o3689J098888L3209j896396j302760n20866P05350
17061a704628m82631m52285J080766J694343J719440K6153Q57603j318257j179674J29262j888931m64702L63004
17048a620537J644259J228485p05639n27394j058962J75448Q16214j81101L62102M68305l16389j373146j042976
17035b131331n47210Q50027P41811p28177O35289K277034j544301r94581J216989J088157j132181J53469O7518
17022d7487o41521J172646m42177M03693J75174n258p83485j660464j046524J381553J545629Q08010J088357K9382
17008A977528L40207J668214J6051j440644k028474j375334M71676R27055J399644p96154J16223m31589j624439
16995g80036m7315L67329O11452K71128L66535l99946m33421N62172q21108j186431Q97741K388080N38406K09055
16981B543641O97592j128412j130268l60122O45523o23942k06300L42722n62844O09363J876669M60957l38229q12782
16967B013568p84461q30634j554378j048470L38397J362280P76607J357640o72800J95276L47065j143909N18075
16954H74256N33521n54931J270451J625564N43526l38301j946275k082939k325694J51382N14643M55610j77621
16941a456808q22095P64883J859326J45415j055206r75137J83736J488233K317586o18399n58349k89243n9483j77952
16927G46507J30316o24254L96411R21129k08009k84980P26747j52467j399713J126651k683p4744m56586J58050
16913A002375K196253M76070k041680j205783J535992K71867P8718j266318j476642R25365J135882K76929l97178
16900A511850n97633R70238p31052j832870q9850l30223k75228Q15934Q94122l19136j175675r03593J052247O27087
16886c83782P34467N1899j170923q42422j70648Q50684Q28059j025369k074326k71325N06843J266370J794125l11218
16872b17566k64826o47400r4346P47894n71867O84813L15214l05374j53424K55726J578884O21869l87292o10296
16858I52009j581127j959589k11129Q63545n01801J10541J248454N20504q46243o50044m07543P98681M15915j317459
16844b565286k96853J979300O90437j707381J166K240191r3407P0989N68393J04762o89491j201125n13747N74160
16830h37892m17368k550380J667894L264394R96222L89195O79669J62504j094050j738401R4794k76200k350164
16817b009783n20355K142686K243303j245280j026634J305367N20581q77874p61911M0710J548738J105952o752
16804B458748n77244j582236k535785k06867Q43199l43675O98788K39419M20592O8279P05759J449541M15106p47277
16790A306347N64385J02965p36859J31372M11212K16943n95465r36170K459683J361095q50740k90631j196258M7294
16776A995173J38963l79594j217182j063024O50322n69237O37606N30043K12086j70915j59098l26294k30221l52715
16762c04087J143794n00495n80047n30470j146502o45042Q33756Q61019m50912M24253r68883p20869Q56585r85240
16748b713140j115115L89388J079055k23987J28633R81627j327102J102027j34018k048770K75599J817381q11564
16735b599986R782O50516l01390q49390J727856Q44533J79283q12365j067353O14715Q79895L59726j03257q86596
16721a354031l13735J865158M74756p32637J320321M71255j267681j151119j395695K18851K15630l51392j093407
16708c093726j08385j1914J101969Q31040J786040Q75003j116209j138836O28439Q09644J44287k54999J12667r097
16694E55923l86439N85914j79697o86663q23427K48582J903923J135726N85768j492190k80717Q37219k11762M41891
16680B234051j230187j089038J043991O08663K58439Q5183r90706j542911q23084J40484J638568K006754k35581
16667B104626p72712l64048r49588j41838N30697L38516j453141J319875K116440j229659Q82553P1636M94997n81277
16653B367077l053800j463119j91634p00619R05555J262240J97066J497242J334799k66213k89675m13686j565332
16640c80099M38741p83711K09285J575840J041232K86851j275681n04595K3275p08074p56454R14709l06732j347860
16626a573273K27055R13668N25273k69651r05995j60828Q94084J332862L67707R64670m88485K50878P68987j390371
16612A456581j223828Q29344J122386o98310o97683R73480p97178l77967j776j05381Q94430P32386L30071k30260
16598B206295j61726J012117l67543m69311q18212r03036k63485J73755j222029j354563l8219N45419L77499J76631
16584a106408l25181o07509R05879M76042l67997K62245M01373k86258j381152M85637J133412P41574m70636K05622
16570F6643J039713j561282j140931Q1721j079859R21946J853J926555O65357j050878j038163P36436J045653r71267
16556c56503o55058O0332J1757M44736k23605j084171Q69030k4600K45540Q68798O23865p17294j036841j080502
16542b054516N95518N02983p0829J34574l64770j276916r94506K313499K280775r4034j419558j590161l43653M90862
16528a890732Q40568M62869R22559M52607n77651k52355j014373k47216J029598R15590q25748p61845o8063k28005
16514a242197J72753J036870Q59042p93328j366509j529683J414484J890503N37862l7488L16935R85051k10740
16501B033555j410077j474338N26180O75111k29387p61590K86198p6230P18206K002659j293301r03071J89657J82118
16487D65690M9685R89313P26529q94345j374608j235594M65946O50630J00444R61657M74198j084832m18761k58054
16473c82102j075754j053832J097176K270350M7066M8835J056406r24028j771535J529723J277412l52497J25539
16460A892759J43410k029972q78675j354366J28002j93017K45110O88896P99818Q54855j43618R14355n1697j607145
16446e91285j594557o509R36721J309629O55591j200683p69988J11292j639540k024380L85243K271267J280559
16433h76640P37056J668432L62973j283277R70048M86089o93628n87257j421802Q87458J236880p24381J97718
16420I59669j049524j485609J91042M98900J559036m21598n4002J478853m82027r21554q21852O12204p50376j333586
16406b020424Q95970N44220J163512J031806P49822r94175p43825p75160R90940J984851j744153j570455J621301
16393A134230l41609j115862j81376M67832J06302L76170P28293m68399j664869O25529j207960K44512K025926
16380G28719p63060q83872O01543L44232J88512l58578J22407M0743n08860j28064l81745Q53106N4956q01121M31354
16365d59728J598847O62165k27537o26997K96211J153393m86811j010646j203700l35374Q64753J21418R33433l94067
16351H85360q97314n20349p11552Q46002m52077j57469n28729O45291J416908L92994L82086n6568Q17975K94038
16337B356596o88772j336668j554236Q18261J369133J018224J94584j931826q71000M40936J105900l47199L80844
16324I54777J252008O98805m30201q63862j112651L92637n9885j355665O99757j76613o72434k70758l84311L45177
16310i83219J649950K330442q93944l107189M52913J850957m32647n37695N49318J76255K8070L30927r08043O12789
16296A118884K01830j870284j070800L28427J256721K15253m99714Q43307o26504j093666k28011K16202k74259
16283a482614j712116J7804N79281J335754K884936m55033j513805P10993o72854j534409j194929J815883O17568
16270f03541o44164P44011L23624P04953J552429M0681n3964O8891m41321k580859j049853J44528k73259Q44377
16256a223467N18442p31730j318893N65060K732540J674641j810569k17958M41632J36974L29784j406492j245893
16243a555929q98238J418018O49537L3070l0267l32237l3971p4693O18866K92637K51231O11390O97651P77795J85880
16228B610740o90697p18177m93722Q34328l62671j239037r75165J135315k282045n05858K360587L48994j252612
16215a230020l3444J270932J210773K97916o52314m76606J62038j89813Q14656K93448p90404n45006l81787J526977
16201A277346J147071m24501j094800o00951k6413K9866k65735o57189M97688N75746L57405q96372j282956n32456
16187a896251L60349K046891J505433m80594o94742q90998n35899L16321Q33184K31305j25199q91495K03678N50601
16173E32584R79756J485609L88281j230082j314882m79848J604177k66284j528317k255224J50683K872559J227762
16160B166774r07734k126038k23689K0088J50359M56010r41207p64118K24892R33709K03026M9410J2516K47948R5170
16145d02884J279888P53557Q18037J036462r9373m80986j331080p33509Q0002N78313l62395r01127j94404J117902
16131A158403l00583N11522Q72638q96385q94216J242595L29568j277003r1356J0570O29881l14179r52888J506160
16117A534727M15792j281988q87141n24091k33628J470171l03637Q48879J345404j19375p20775j183552k19051
16104A41735o20652k6915n79379m68822L67022j404570m17269J248996M14241J224419M58849l43920j939315P885
16090a937695j96584o53454J505565K37107j452088q20794J087527J536553P88688k24312p13114J229871N53728
16077I40998J65607O82875k03087M08198j852799p98330Q16168j25420j343836j236093o56993K049278J467353
16064C13919N62050r19926j78843k15786m73761J32979n1878k55350l63232j087154O13785J336076n86002j17621
16050a290744J078038O35203J282442j230038j563093J423074J063385o89619J08353j4825j466437j175658K36954
16037a602965J65704j374218J709304J448269k48909p60253P02431M16966L02583P51262M79741J33374O30879j47521
16023B606647j573314l28049J71536l09348r68263J082682J266643P33681k05012n66290j540828j486059l12233
16010a428207R10385K56982p79418l3874q22240J026721P93638J259952o30409j387796J27593J513031n53153r08007
15996f54802k65615o63619M23763J02647J399217l22390j862751N4121J396271N02428m40978K06678R41237O32218
15982A448425p35454k244168m13101L04963P41345J565887k5493M64018K885P93520l68642n20193j169957q04275
15968i60240O10453k09267j64173J187014J91413j300957l45872k222P51300J8694L87637n04357q20289l21195
15954a482061J269129O64541j341082M32188J548917j44012q73778o47424j598877J020298J253939k2928P28490
15941H07340J206175R5858m86868j260162k486638L56417J285627J249547M41080K458J86707J089879K86152p32935
15927B040637J90099r45078n96680O2647j8456J32530L0614j21302M47654q79501j79088M9356O43351l40012n90437
15912g3666N47845L59551K81117o23511r48252m47228J00004M9590R25110n9188R22785n59610j230795k68581R13434
15897a11395M48929j583209j027414p05729J233583R30782j69646j037558j08873L6423k10308L70731L19249K49648
15883a364787J846764L97643k77516L61597j56711j9437j974459k32866K111223J045151L14757j980418k966798
15870b895857l0530J629104n93099j016380n58622J272593J760794o9836l09135L9968j223309j390164k36382
15857c620855J205303M53836Q39722L00969q3723O69096j034955J231418J082887j5011j587212p22578k28793L24305
15843a185591J44532K16308n29656O87052R02130M91647K136597K284085l72105k158315j963381p70155N14425
15830C97573k73463r94332j205573J98474M24205l0878j565324M08138J466937R25772L71947R252j641522j320560
15816b829354J143452J746414Q00041M18373j097454j373882q47931n6618P89236O78971J467304r43555N21427
15803D16424J558354n10008n08021l53810q32022J77508n38242j713125n2482J45535J191965Q72974j020433J244689
15789G9306N78028L76720p2234j182960j295913J665756N43028j310316j180827P20448J149454k8594J12259j492868
15775a338713j019278M22756l69646l71334J228927J612440m8855m39007m1166n9782l9959M75094K0372K15650
15761B47499L95228k29142l05623J410491L97635j518378l15241R60018j86458L2225M48993j533726j4613m66666
15747f77758l92831K2189j26360R94823M84056l39596q71318Q67028L77252k63253P2239j225923J40735R59346
15733B0629J372891L25083L19942o75606O90914o17284o06747r44025o69574Q47359N07776j445896j756401L27922
15719b303017L006594J940833j549105l00674j387939j147215P88421Q29630J454220R7601r7716j066965j267748
15706a003080q48387O25891l62295O84123P36918P69221j824270L67282J836927j182642K48943K33798l23316o09964
15692f50851P71579O68802J37099p61562l44443l1803m4391K42032J235212k307637r94066M18309J045020N54520
15678f2180J18742O00826R60719q1950r28041m99309P92668J597284l70949k126854j023874k39569P85770m88088
15664i64805n32583R28902N45538O22649J25882j78874R06487N20522o03498o74095o5895N46835L14560m38009
15650A053616m58062p85304J664666J75156j697840j155896J48283J203374K047272j040036k052274N76241J278406
15637I57602J751075j299621k26726P50021R5895J295584p27322j130458J039840n00609l10820m64116m13348
15624H16997J229028Q72382q20657j213196p23663n54483l08956m52482l79881O15261M88628o37222M36747k00229
15610h31726P64987J08194j4317Q14658l45300j620443j330886n79338l01136J029236K285303L15854k46161R13067
15596I61992l96342k482964m66965N79665o482L49294Q15960L54352J273786J082290j495878p28845J653725o43910
15582H49678k115359n99276p97920Q51138J228812J007871J246002m21742o20463r9587J021730J088658K642K43598
15568B885782l84696j625663m30236J206683j033053j215295r36304m84287l77506J566643O67214Q27975Q2381
15555G49638k13621m62363j10424L35793j33894J463466o9581j449211q72564j210193j919319J030414J156623P4468
15541a630768J064538p99861m71376J552787J072846K27678j89397k010749r38088p46732O95157N45598K65321
15528a363046m56508N14130j99324Q57180J083973N56677Q85861j62994k22439j7095j15013J010391O40205m08814
15514B603184k180672n73256P07279J416463L54912j280782j752314p20521J097412J062902L0202K60329M65429
15501A490567O67025L98129j333879j310727P69379R79287k026528j454102P52175J840165m80848j437711l3597
15488a180665J711387P54610L26925J035976L36666j568924k19128q68822l18089M018o93934M01203j66206P05362
15474B60379n96990j679155N50456J454992r2501n65632n01408n4570j023498r4301k7018o50834P7684l38350
15460c280746J091872J927602J330077k805340j083932M88797j76580L33562J493628J072421j16939J082485n30561
15447H26346j806295j009835k27786K217994J776563r96229j030172L73205r28919k80116K42478N04446J39485
15434a98835o84012n49130J013862R79037J702275J074730n01362l51083k309489p79215j248658q17466J170957
15421a498389K674906J217689m63907m69702M75084p86630j50091Q66422l48889n08763l55114j080471n15006k17028
15407a159889M77655K196478J908382j077494j387764j017761j63272O67000k93588N28096L71533K73524L78361
15394A701261m81048j028435l3488j325814p66910j1293L51957P52364J312299Q47650j7740k233859k434075K323228
15380a043903P67117j278286m8213m54461J625596J868603n20326j808742j112828J005959J732757l49732j491950
15367a108409k93999j248749K31249K37083L97711J327312O28533k47443J059555K812j253412n13622j470216L50268
15353a901327J525980J036633N07213j117412l48625Q4410L48169J323411N59987k55882o21213O89699n41338m27325
15339H62380j174056j529694O14281J622891r0881p52853j44883Q95391n4398o2427k06318j95989m2034K16762
15325d1828O32517o13884J38336k21814J402958j583333m16445M07283k93626j388797q96574K186466L45126L32299
15311a1316n48386j83878m13184k17903J774397J606739Q38999n87672r27948m02613J22955L5881L546q26865m57873
15296a95121K59849l33937P82799J629830k66886k706965M47791K921989l85123j372876j933323r82370K52569
15283a881774J168263J447617q73974j651755P19452R96030J115995J01993o40818j55607r4147N92079J545989
15270B389343l38454k073884N21759j46023j087663O7351j79674J333866J569481j05292P43167p48K23217N26517
15256C442963m93522n53239o14213p44779k741563j88803K496649M81936j388118r05279R37931P09642Q74348Q53127
15242B167080j449995j403675m00740Q2425J072382M61419l29353j425604j072590K89598L89350q80945m66942
15229b967590Q85343Q89491K05834L54187M37056J105912o3003m77593K1913k46842n17772q50215L6504k57948J7711
15214a427012P30136J103897M08783m39117J053305K36102K26989j185943P80432Q293j003678o13825k49946K366128
15200A994544J314713j014848j133594L95116K99808O02167k36764j101020n81057m83837l4417L95526p73779
15187c57442k107847J192608K50904P31726J936903Q26663q11120j802763J146912K56942l24432P78273n59243
15174A158084n30511r77460j093798O82785j13659j665527o86627J643845Q81947l64563n8582l00591j524846J42529
15160b806974K063358M00627n66818R67248m44341r35078M86693J284304L51507o80611N07181Q66083q333j26492
15146A358354M80255k109875n55940J715675R27062J436682j55419j808249O0132m90739o90774r30109K02273
15133e60672J241529O72589R10860j207304j099189o89485j220208M84826M50035J774434J558459j306609j139389
15120a30124M00626J14658Q11471J342223r09795k452610k5306L14694L66790o12827J440741P62653l18320r67487
15106A37387k21036J46407o96306Q56037J782024N43010n79523k33509p71774j021786m3444j20627J16023J47724
15092D0607K01818j414521j762175j332002l39408J424459O95492J544760J550477n44536k46126P65933n22605
15079F2173r38728k075631q16190J400177J358480j013423k17155L70974J352654J321875p81838j258219o88149
15066a923000P25987J06391M6490j00859M50599j166658j114604Q60088l17277N26281J745629K41161O4836M00535
15052E45599q01867P23780P65019j57206j688151m36040k96012k15625L79892R89741j27585n14326J104384J509609
15038A781212O7379p51827k86915o18765m93292J129262J624432l44355j200752p12028K137520m94349j003644
15025H33878J596875l53199r10447l35553J475497J288398R15570p29521l617347q24837J177278M21178R65311
15012A903081o21828j683208J12341k74258K03996M67419K139878O60918l75088q50983l11704j036979o29155j2761
14998c08331r09432J630703P53797l08016L10862o58619j586574J26794J011842J842533M15017n04390K95427q46112
14984A265501j648o17238o28900p39269r49126J311183Q97654k42398N37094p14166k40767j341224l14334M76260
14970a301378p18156N31213L09372o36033L56520Q99999J033515j50236R911Q95768n46103L29152L11703M45855
14956A771102k79434M02051M3066j85516K95049r5329L39709J580429N33232m78729j925806j121910m04459r5703
14942C77752q6516N0892k005795j314779R13311J129579q19102j567443K040271K380322J255429O59723k81806
14929B731838q20080m66705P21877p42714q05217R3248J975692J44730o75756o14645j151769Q05772J775765p09957
14915B262079j726531k141294M13378j080729o70644J211175R08815O22117K64796j310874m20638N94528N42681
14902e31141q22045r03416M97802J48215R96453O88746M3907m68981n11168J65330R68385p41672k28474J449161
14888G51102O54874K50483r98184r03989J25888m81794o58736L62846K470884M50893l36490j406541r70551k192523
14874b881838j725922m6113J384709M58818K45257J062103l44070K05932j30672j93953j27562k23274Q54125J61400
14860a301060k15222O22018J04289R63317j15269J117382r63088j402478j308274q83161M37121J082161J222428
14847f39836J933681p70284j298775j283739q75510P46959M67638L8164n65503j40328J234086N07723m11061J55999
14833i00786J829805L52501j310069o94682K88787J331040N52787m24603l4546L91118n23502j807856k75208L97553
14819h27661O11005J092335J349660n23787j400144O33176j6905l63061O44092J589519O75082m04289j091822q38964
14805A128236j51803o10252j252606N40314l56545O33976K856276J578810p21903r47557k269404j031433J41164
14792d62727k43500k14400l99790J368744L95561k865323l24545K04751q40557J050207J136927K37943k63819l76117
14778a596645k49583M73117k80508m45852j893165p75131J490416J853424O41183K04391J594099J514292L52012
14765B882050m11787l94530n62729j220701k515682j115080Q47981J582562M42217J40166O98115l00545J48055
14752B20092N71554p13649p50434P36549K323535N20944j327536j434618J277542M72726j166490p2303J355551
14739B013463O74935j077192n58310O2449r38563m55867K72746o03965l42329J20292R84722P70622l83267j232731
14725f92995m87067q3774K649288J205155o26713r14082J081093j80999r2807j651928j503747p6564L9091j038724
14711b374773R82242l41898p84961M18460l66688j828481p9807J089642R17623J542442M64973J81161p83197n43125
14697a506387J114265K867149M56978m41149p87435j735505r92549Q72102R63386K01325m6659k18654L31058K304190
14683C382115m75061r05312m52433j87098L89243K5323L22751j364859j326311R75214q97175l08524P36102J022295
14669I36270k29111N11990j14111j416869m7939L0600K5787O74391K33784l8990n67715N75270P31690p19336j779879
14654a194168N25785j07016N02680J548890J149233r56660p08524L98083O53883q80887j680329j247418j039123
14641c035571P34732K109543J443634o77010k209239j276428O48997J186810l72168p00740j11577p70227O87118
14628b342126O65341L61777P46325p37235j9271J301402P47201p79682q42109n41979j12625N10617N28238Q32966
14614C18840J186334k92678q02124p11767q00503O63276J56928j216865l91840q35970Q86928M84281j399066J445609
14600a308617J876384R09274Q4691o14820j1558j145932j850483j436491n8103O49448O25946q494M77262J296853
14586e14640J430447K00413m63816o32560P82832J46545j910288q32224j18887K302455J423637m46257k231761
14573h64104q21359J29109J78306J901836k80452n56982J44305l51949j714439o08452Q87990Q64404m17947L4111
14559a475623L3972J173112N71636K31091n30930q08368k2378J577430Q08899L27863j094689j502700r88386j03875
14545a802946J121295m98108k80123K37806j177130K73867K893842J942111K20893n23765P80230J072174k351435
14532A908711j679534k97485n36127M25444K53307R11839N2037j135686p59723Q90028J059706q58570Q11999p06705
14518C39241q52387O21043m90718J030084O17071r72019m04047p2290m0572n7140o17879N25749M18249j480724
14504a436339L33070k09757j284742M10567J235523J045810j77656J66727L17958j358470J0755J111207O9646
14491B34299j159814j261884R50654J160348N03204P50353L9119J620054K81225j159981j5712j926476j755494
14478a740105L48399K089219j559731M73187R35697q36818j171708J073063K514300N98550j911759Q02719J211504
14465B826517j066572j538109m92825K207622N25189j29787p87797j816717P57701l13362j568658l45731L5972
14452a706557J502056P04388J15811r3942L77278J413315J364187q05601j091945k27616K86020L95602j936265
14439B96731r52422l81004p50389m07889J290342R40387j363948o08529k4694M64722P42795j249650l54500J193506
14425a164542O92517J771021M99145m69516m49011p28248q91546K70390N53121O29959m1655N21217n5073m91350
14411F46429j018368p45232K18616q73011P62406J694054k36375m12102J53236M25574O57495j48921j586753k85065
14397g48017J660147l87745j376018R48983k33318N09337J257452N6269j506329q85040L38915m08085n07228J135233
14383a45444L37186r03717R83248l72503Q06218J14850k06l65236j406396o3974l70532J74563K356177M87820j62469
14368A469585j754157J290622J779829r6938L30929r33024k546289j340835K50429R58536P23080J306899J095552
14355B534218j006579M01119K5413j900966j499720l38375N47732J940519k57498n48864N41607J07402M06436q33429
14341A19015M00449L20702O21616n37895o46040j331670j527347J177111K068706r22089M51254J88022K20020j74189
14327D27665r93261r57304O58900j18940j506964R29723J366398J06962O47666j017381r95094m30554r56528K16911
14313b621801J419076J682523M34442m89602j077903m27388j1850j451921K31153J095387J604181Q92000j57114
14300A121183p07368l50761R93893m23294k69386J029669J513611j698067j326540L78318j69608j655017R45459
14287f17908J659886J85987J55077K95172n02955r30394r2058J6242l40270j226072p18348O50417j331573q5454
14273b882251J486756J137680m85400j53878k61850M32288J032485Q9369L35879o54474R20390M54778J395948l10655
14259B537065J67644L37913k316422m37526r15322j352467j199849J184984O97365p98357J72822O15199N59147
14246g47804J280238j72705r76023O95111o61252j58255J183164L542j716679l12945J470012K448580M6922j44477
14232B237429J50829j813995l68488J326903j262652N77164L91102J53856P34181L03900j734153j098320N29405
14219A27161l14368M84800q3904O3738o6816O84264p43762L14689J32571j29707R85636L50413J94829p93326j199066
14204G152j268679M0889J699725J633726o85695m68193k85835p97845o21920J080476P32215j788635p66351J769010
14190B80040J025140n97459M26543M63253j94073j809258j464373o95935m25578K66206J582171Q80954M19927
14177A57558K329245n18345j227928k65014M83633L45967j59735j42837L50099m08614K99325K0987j38911p68933
14163C56497l39297K42415l34179L82929M54785q34725K37200L32717j333523J851399n3920K47187K33624j664326
14149b21217k438243j05625J522083K4802P39035k23612q39511M09779J308654m65384n93839k2751j80113N75253
14135e10689j015255j618193l84062J399050Q16419R84012J211988M98897q12993Q95557J209152p371k60745j029366
14121A376401j235071L67686J266073m00681K93551k030806j792126J740229R20878m76055j76110K88492K0261K2500
14107A85222J83954q46855P20471J057230n87983r83161j472449l18265P43364q79327j46091K842743Q49852j888205
14093e39500R10191P5173k75296j462451r78411J871517L87779J080654l61855o24910m98295j002776O36616P99203
14079A7639J92649N92587j24158l6619q37851j323132J874180J55747j264294j82993J142634J051240n81742M53404
14065A129291J023013O11598j034599n41537j193342j202412R2348j75107j511227Q58093o58927J170612J855021
14052D22825K46054R44904K84764k271488k291683k03623J400909R83171R58305p27968J53098R11677k97634o42898
14038a29587L58275R6542K08178o61230n03322r06889R3252O92608O65439q31875L27209M08011j491295J106489
14024e68195J461445J28115M44008m69134p16281j364044j628322j690134N97138J438825J788102L28486j710002
14011a959993O49466J632663J76797p84578J6668J302895k89421j353254r50169Q7501P04457j127572p4025N46639
13997a421926O48406K98244J246808o53382j2752L88583R09257j306003m35196o57325k069868o00980K128281
13984a537853J039351J787948M64258j756359j882502p30823J210374K97382Q39607m63314o24722L25405j53699
13971a184947j418946J004180K270309O91247j11466j352064j182679l86342J028593K998661J364388p67643q31858
13958B121433n85013O87387O1881j125536l27388n3302L70169Q21973l32146j444535j375207Q96103o40741o29399
13944a554321J589480P50771P58752J512749L58966n01812p81310r88075K08921J180709J64137L42081j881882
13931A159166j474625J305352n48099m48394m48398O43174J102152J217448M15508j147171j518473j413094m39346
13918a594800Q53041P03467J401161L4839j471097L9960l67891j057358j80201J086369m89586P2347K61749o2626
13904g70626N01541P10948R86824j117188L24427L50355R57220m26893k083918J174681J13181R1580r31641n37803
13890f57312o62230k62064k11661l98366K361759J303115j625799n00200O91050J202197J64759q80980l48889R09723
13876A085102j50824n3069K24771m11232r60911N28691J22654r16476N53790L15847o86930K30259J70700l31855
13862b79483M34507P32633m2432k7729m85103p43597J584620J813508P18065J050950o02963j315654n29659R9699
13848B407362n58541j022112k87499J309227J543894o9688j352504k088047n68005J457772J209650K31245j410191
13835H02563n11267O99721O129J57359k54090l66519j052869Q49023r9303j358390M67904J136601j63628j045757
13821g32523j08314k1874J034656J160680p50686j75162L64156j259862O57872J684163Q02687j231166N39048
13808A963675J736342j040462j205457K85243m59722j131543n05844p95875L43986J0048P53311Q71857Q96582n32368
13794A189773l26000j199787j555585n32466L38042l1627J152128J536657O55754M38296o90253k127146m9287O868
13780a194633l70114l63932j16842N85771J564675j36206r6872L71694R68245P97851Q7602N05045J709477K238977
13766F550738j596781l494002n24402n41589j052590L20968n80457L03637l83858j57677J520553K406164j9607
13753B751097j324813O26859j284230k55557Q30964p937r61531J34666P72266O91436J12990m59296K94548M90235
13739B411697n41437k187247k54110J171581K414222N49760j105627m94777k43297j046715n70470r1922J33689
13726A45347M89403n16559j250789L16539K164938P74527j045132j610001M98927Q76933j039807r73449J0206J41037
13712a017880l98884K72536L6225k40661k44139J220775J122590q49402M20941k0977L78192R35219r64747q09023
13698a59235N55172j195054O5201M54129J399171J238944N53699j708347r25659J20906P31770O81436K2786q24540
13684A010379j582978R3462N21551m64844L43629J63305Q67335Q81729l66869k89745J016864n01506r27229r28092
13670a63009O72105K86797J14510j078084q51277J199902K234231P46630o85166o62086j404331q33506n7436Q9121
13656c91599R15403L20146K15918J024879j05287Q28344k79107j413356l34377M13788R4664r8331n71707k361725
13642a742347k380012J067859J587049J830901K33003l2617J55384K98130R47580O1151r33532m38061R62675m42254
13628A174909r59504l28004j81729q8830l46410r95277k169095o46965L52177J646527J456824J720651j43677o22670
13614a31073o85064r97164k17699j322198j246209Q03667N82850R71729N5425R61728J230632j067112O72783K304460
13600A916755r19532j507368p0236N76M468K49009J713812J071133o56223l053008m00690j42500k54736N09687L0930
13585a507923J88402N67443J617661M19060k25490M20768r07100j866965r8654O09104Q53127O10387j418988j508017
13571b247185K05819Q0429P13203j161439p15270Q30918j033629r40578r38711m47889J050712J583843J212300
13558a807477J97235N9565P24992R8644k67222r02232j057620N09387J584407J586776J38835o62861o7964J644382
13544A778847J314281q71259j924258R62156J117979l02589l8011L45900j335435K93273P7367K58737j666025j40228
13530a29265N35168K79376r13609J22889j848629l73968J910280J26462l41437J612285P73058q94772p40813J955444
13516B072469Q13350j057036l07125J714424m56223P4719R36772M23632q12742j860839j646068j527456P12090
13503i20033R34636J061741n91575j282639j385882q34425L058513K072030j977724n47201J266386N00438m696
13490A349569q50997j046464q95475P63734r7501J10691o06969M50489Q36636O21569J082028l01155l94723L08103
13476A329535j411245j816065J68766J585698N65252Q30207j06183p22471q1814Q59620J483799r0737j24099j41564
13462B328699N1741P36450N86401j706897j44494J07890j22520j331014j235455K56424j116766j27462R90129L47613
13448c79261J019057J34146m37323r16494M82515n63653M66559p594o11652N07930J725202j28275j002032m39541
13434a50416J96753J289822J83184j038107J609889P75353O13683K3721j878122k02507j19886k30368q8179l90167
13420E94653L19075J248626L63864p95065j66196j361869K8910O89872m85375o99114R6914O36873J8987p66082
13406b75927r36200K63614K026345M30779m78308J496998p82217M53608l3114j332920m7286M06804k56066J304411
13392B240521M21613q35184J290432Q96263j442700j192849j0270O91857R74392j16009j394526j382347P14161
13379H55354J149525j136641k593212j575583j38619J818928K177047j69784J276334P59020j535727n84298j517276
13366a214932k9433J497313j53395r68559P1446J32668J433743o92970j201637J238258J160795J74217P05943Q9516
13352B242973j304275j845878j284036j19250R6401L2831K534581J018916J65635R47821J236339j646950j036768
13339A038340p8530j30839P67290R51981p58629r57263L98240j600141J137680l462J8076m62115j969043k01824
13325a850239j82434l41116O59421j53095j110482O99046J095393O92362M40057J22717k6922o02773K81426j18251
13311c94890p32644J90310n04142N55533k79998J242616M88620L44130r86197p19040l84963j86194M42205J157586
13297B32932p52985j911703M29616o25487j33080J950301N71543Q76347O94312o56668J76039m108Q1927J14848
13283A043834o84073p93665j383931q5421J228494j21989o08381J79496J24192R8054J786883R02709P31236k027518
13269C89920j83968J791130k25286r59291J66363N91839J522561M88414j819622o93049m11492J57995J58594n08824
13255D65284j96382n86262N8158O48745N02124K44753K63297k64060J119449J68997j796312r08275j022339n33856
13241a836679Q72125Q29575j078968J638921J081090j629588j789296j87283R95529p20464j757595p636J463438
13228b126831J439109J526551O24851j961143j162140L74539Q94847J541636K84492j929428J109431K192456l13785
13215B494585j055868j55953O96980K15963j474838m36765J351201p0763n19059J770508N47407q13907n03473M1731
13201B087749Q289j718416j154241J58517l70438N63237J373984m6888q2407M12067p7768j259224j060695l95149
13187a561383j70617J459132r65319j144676K085049J073968n98907j177520J041164L32005j94870j086582j523915
13174b432471p2016q12254R02817K928530L59890K96288K84155M0778J2319j580880m01929r20651J56184J924844
13160F85604R38065p41779m38225p25013k62932M89791J004062n39332M04053J013028k8560r02808j230250j79730
13146e14026R4124j316316l43566r8568P23441J08610K72860j6208l80770N99053k87866O90097O51922j781568
13132a598781j03919J846310o1745l3055N63365m53963j176059j320346L82259L46596L12731R38561l724j025334
13118a387104L98618l67686K36270J030397N20592j36134M49913Q05083K51277j130569j914001j84637J438768
13105A0787J977270j175005j997530k98631K92194j08986J612541O27706q1977l17528n3106K40171J318874m36501
13091A610279n81334Q66598j371333j114609k3741p86000j04103J59684o3863Q6892J425197Q52744k6564l72663
13077E57184j075113j445999O04992K94491Q75346J57578Q0899m51709J521213J112339m95116k549333j199867
13064b013095J543766L162506o40083j397186l36168j386965J83041k34832r66410N87135q04624j591853K000691
13051a894077J227755k5052L50770M44800m13771k69994P71459O86326j329003p21746J62509p88874K072670R3095
13037C66867r69709k85257P19031J503772n53604k622490q49593J358295P23564k56906k80137Q53399N73112J45865
13023D26209l50294K074J161349m8783p81838j960210n81076K02229M26853J384973R65207l10787o55630j88079
13009c07803J70284L56035R38786R57255j752084l34569o13406P86512J281124O24054m56676p38396N05533l08490
12995A108159r55341N61255J4271m70180N89622Q8146n53978q08433R41259Q42092k4370l75879j15822R66335
12981A807136j487989j552198K51604M57092n61852P0034k23500m24717M98575J30581M24244P55398l90503k72537
12967e18632J613541q65752m76714j51273l44007O29578J629138j48396n6008M70962q6299m68191P6585l26761
12953I77771l67204L8627N87584N70191j236025n38877j063674j59557Q85606L34160m83506l29322P88216O3607
12939F7597Q96739K077577p0216n80434M64164L86801m29218o54619j350879N95884K204039K00258q75457k049040
12925H83196p35535n35294j336661J376974N31255j706802j087020J14275L41355R09848J380635l44630P3907M50524
12911C16027R68387q09300j302133l88452o52363R6081n71228j315473Q35080J290683j27147M65580J888536J148549
12897A842827k25753p82125o83785j47851L71084n17985j351811J547237J683933o91258j768119L84316J123501
12884G84211J60100j586341p46499m78165J45886n54866j846477J630889K870855M28153J83535R16696N09748J68462
12870B586187p87451k448087K4942K109073J301564p40678m96949K31937j18304l4590n03769j179511m60763M18774
12856i7625J051172K88978m69302K50123l95890J59657K65439n97909j186504R56934J380712j3947j586976r91275
12842i86413q59758J780082R68289k81221j347674O6649J749526j113286o45919q65949k68414L7667l39834K85760
12828a820495J008839J005701o93449j138512k9944R49899M00369J217505l07638Q92851N82837N37670J324931
12815C930564p80982j059174K79634j564219j196780K94169k26602N80063O75913J98462R19218j245382l27169
12802D77715M19455O64485J058054k538514k064514K29999J313158J165710J003578q46267p70653j079558q1996
12789a049348l87137J41163l38465J183423J237140o07294p07746J879701J901172p53957j497722k78984k06119
12776E15827k356944j031337J424502J853691Q09487r65092K64507J258000m16797j131482n74140N1021m394L19544
12762A6393R47672P74851K87922j027678k19500J588852n13706p05064m36998l23070r6400K0597J220827q65248K68
12747F69718k97889k01544q58231J092515J247800j283625j057377Q36040J096999p98544j322626J74545Q61417
12734A59198p44894q88530N57756M17358l02529K86512p46208m97166N67129N25252q60553L82557J492392K699017
12720C047291j60632j394440j459006j223657k83974N22339J430359j00871m77283R3425r39196q62388r69730q52626
12706c630389J834820Q22108J621390K56512M03795M83669l02541L37241R35601n88959j594015n43755R45741
12693I81218J353660J65485j831999j686165J368545J363339o32713l96289l57803M32178O26084l74101o502m60054
12679E44883j424454o7197K1462K45011m48693m90973J258397R8295q85295n73676l97454J348609P83344K872116
12665B884375J775081k128926j939333J14716O89465Q51397J37867J23389P6767j890393j072786J577386j86257
12652A012748p11821j414126k63548Q75124J044143o47248n02054J414703Q57730P0542o39038j142111n49944J91633
12638d03267p16387L25899K23020J583664O70393m89452j324291j301663r31199R6154J806313j69249Q36376J20130
12624C26441n80283j4077L07811o3035k13800n10147M49305j017126o64344Q03391l92498J693946Q76913m20730
12610E81767q49767K21926J129210l11111j105192p922M83541j437126j110601K48214k05440L31535J86361P81025
12596a063580J613149k76819p75923K25868L22522R39892k7254p85307j439716Q48210J561247O4446K34706P35295
12582B176736N86766l63297q10918o18475j321755l61964J027395L50603J335850M99742j807939r66432l50973
12569f24661N19686J53001l68896j207846P4877J136792R12887R57962j58148j163442j180588n46561M54364Q22789
12555b17784k28071q98608k56685K43488Q6426m24543L09676R39083k026257p59271m6807J0577O55509J533845P428
12540a071994m26006m88107J170650J724337O70450p61780l123601n82456K852000Q81526j026886j24289m75737
12527g81893Q25258p484p86776k409420j531448J709313K186291L61694O34891L7151j523384J02928J028252q77473
12513a032100J206713P64532J112436M02013j362490j567542k94986p19642J400664J574174q55190J29596Q37396
12500A595574K12493k249271r19628Q52174M23671K25685Q47169j746166j178036m53458J101055J885483K10909
12487H07654j97501q87240m88071L79882Q05634Q10025l8084p29620j801437k5205K012309k58461r2021J044985
12473A342849k62174O8392o40640j542976R57616J35348r58086O32640K260263n60370j050039j30499r81457Q6825
12459f42308J980433N19453r39869j462203j369264L0917R93621J013610J881724q56123j393739o93756Q56652
12446h0852J438942m78498q36353k48683j923472l71978J392579J827780N83369K28423p66402N11020J511359R26609
12432C713843j663635n19196L31975j955400k516769O41183J209138N57761m26278p35306n97173J321667J380333
12419G42143Q72492j060395j524880q57272J410172J516502O7921j58130j242846P92130R55108r31465j80831M45346
12405H45995N02019P47739n04541j74897j538908k535619J188015J116855j366634p53474O27945J520520P15282
12392C90297p3651L29077O28068M99425N144r8130J82124J01781O64183N36792P86932j60794k192558j860105
12378b61415j246556P1931J049175N89372j26284Q39697L43285j868285j047674k2216J086669j370199k4746Q44339
12364a142907M06288J13231r1812Q46727K18691l785K321256L67125o05306j688980j043201k77008L43560k25916
12350d62037l77979N25706N04130j908841k180377j95537J471910J962747J456796o04761k066795j727731P35298
12337b867471J313858O39717M0108J674385L8615K70452m26448J89554j670434o64073J282663J940047R67519j78502
12323B549990k28944K7094j361514j909778K37799j72520O5034k77866P46935q47162L60883R23123j58232j870142
12309a915300k44224K538166R46876j167399k201614J001153K387690q32826j553327n17615R76384M51006k19751
12296c50781N21972Q45014J137764k77108j020591L7282l45647j097084J12150l6253j432363p9470P55181q14381
12282b044315L7635M78935r30174R77646K044644N03346j384425j84459O98898J901714n81534j875910o33529M65315
12268e26213K313526R52782J93980n04874n73258j34520j740471j574791N98420L38305N36226o82278p16071M72808
12254a046429K37495Q31121p20511r50721O47035r94172l99214P62384k0933k95634q416k351384K58435J833443
12240b217501J732858L9164p62479m53481K39155j64914P47636J437957O58640J03461J124573N84530r00445j598043
12226E71111m21999R77863j17612K55329n78317k74654o15913N43010k35777k013820K97692N13282p39229J772835
12212f6199J834896Q05360m06004k13674l06398p36076J451q89589l02441K7149O23735J654625j21341j039667
12198H65827j480503n53984L96456J687807J476588j540076m19389N92887j168539j246888j081656n63425L1980
12185c002915n21738o45291J9492J498934J903020N50886R97881l5623k07124L73381K22957Q11766J123524j036453
12171B052697j305553m37149o68889Q43105m06471L09605J520315k13591m27385j249541J224881K83547o85408
12158H40163n12686J663098J353610L77716q50833j191191j507803j166186N34778r3255L04512K076037J249521
12145C077481j76212n62174j132741K29775K85754l1956k02785q7676o64998l7282j081791n16439m11759k83175
12131a595978N65355n31625M84868P31093J386984J192383p91097M2681O7657m52720p15199q63336J295741O792
12117H23599M75398N69011j085410P97167k53579l78974j572567k000139Q31989J110953L18489O75984p03860
12104c91939j584082N07485j181716j742299m31012M9851K103134K571292R10182l62998m49913J76337j036014
12091h61692j080076O69960j262125o1442K065352J865304m6173j358983j056904R55702J69298K27724m74983K87946
12077C8908O98869J82168m24548J7839j09713N68478N95727o44054q16940L41997J093048M60609j635667J32230
12063D98951J578190j042446O06761J00638n75234k440713p42496k55943J159782J224654j68468m65707o31205
12050a153236K56034J825264M91423j00354n66851J61941L30923M07949j868988j488407J219158N64261p3052M34181
12036D40246k00559o22855l35067J354001O76769p30474r33349j34809Q16582J008554m94694n79439j18682j089159
12022i42935j347865J96182K446330O69103O5813J175o81464j273442j377758N52016K224600P22634L31497J14461
12008A700347J432362k602031j062991N48317j88864N96639m57280m45584q7338N90428j214313j234470K25715
11995b199063j80661O15515r55546P01494R03802q06250j14436k36372J520233l55855r37563M50548J26087O2024
11981a406043K85062J64781P7311J393505J515772J254972o74196m42582J86440O3312L628k73948J343688j086751
11967B404951k585648K51389j84456p28305r22643J004594J213458O88068r4279Q74696r3896o78304k330853j717084
11953b898312o02421M43724J074086j29717M0419Q07627J996782k80027p44206n09238j45886k57144j29219R87462
11939c46070O01452K32533n42487j06810n66621J021106k5339p97400j592496k101654J678207J865492J953475
11926A273388l99210k169862j58451M52366M71789o20484m89633J167406J739495p16475K32073M43986k331958
11913a105570N53090J40526J294523O23936q07954K90296J02258M62453l96626n85419P79859K9662M92259J986142
11899C859435l23027k097358K040j016239j776808j099160J29950N35026k53851J56348R06784R4994Q33650J201552
11885A153336j124117j066146J513840L59205k22487j675687N92526N78817J63561M50590j26948r5698J29465q3417
11871E46840n18910o09485N31734j64464j60701L59898J491429j87235o80499j484129P71285K016046L8026r43440
11857A006395j73853m4705l25947l34509q08297k09718P20072P14400P73399l62734M2379N39330j38321J32936
11843A530827N49922Q9090j323473l148818k24969J590104J35961M18913M42502k40224K45968J988591k92113
11830A762281j041681J270815P71650k502793j172527J415946J367708J5889n99198M90163k95187p53013o94169
11817C5884j3557O49830m07056J46601p07999n39289q51359m46108O2791J083588J191637M29316p10848N2577k03078
11802b27070Q49059P98229q90166j767988J432067K34666k72245O94577K16557n25260k37865N55878J206760L34095
11788B401294j153370j996992J18789K242707P28460k087705M11837k81859l65196n06042l54035J6299j235672
11775b061485K03585M9579R2624k36686n03719L79248K42668o56188K110166J300554J354684M35730q81815L08050
11761B136995N66449l74698q30989j325995j96671o2270k56732k5840m87096J59135P49029M41991n57374P48957
11747F84891P13382R43458j20127j074317p06145j42930R42080r26954r39948O90065j610195o73869R34407P18906
11733e67296j2940R94973O52201J39145l30510o88319j104229j023656k11961P71439N78471O15343k49670j359568
11719a796577n4993J731861n8895m35964O17477o20257r27206j52186j1637L51970j043849J68553J502194Q00989
11705G1480r20857l0860J210560M81913j003926k435370k3151l61253J163344J210869P27054p39296n05095N0676
11691a103912r7655m77814J06658K196173j19395k371338r64193Q61985R92140J410192O89152J33121q89089p1083
11677B94942K34086n27206Q21669Q33430J081792l52564q22610r12416K66517J88408j127976k23778P25406r6213
11663C83487j410259L31691J214345l76479n61189K89296O87769r34670K07551P19449Q10423k88498r33458J23341
11649B62799M58078N04227K78106k04079p71927n86612j52493L40776R45459n34841j681364R33971M03622J578763
11635A774485p730k258677m58695j219924j7038J025461R94466n23024L34522l5576p12899J074325J4314j076187
11621a092177L83032l95126N07491J119347P09134j231303j735228O47743J818090Q71304j994653p09148K098795
11608I97301O96819n16336j017745k136468L00753J780984L15815n90993n36056O93966J502160r0992L59380P16812
11594B475400O86373m08699j566322N95872K95594o90793j634922m20587J704984R22273r17685R96465P3599j108423
11580A003129j162407j963939m52019l21950R37443K017035J431662j88671m34664J201157M68129n80141j789388
11567A65376j092080J529633m88827j157707j053143n63957J219168J090876L78215M08673N06568O37873L70009
11554A950677j282295j892856j65750M22445O62146J700752J056930K727325j12832j891033j508789j221558j261414
11541h16252k6161P14975J668074N76151L79899j169302m30007K73393p86527N10188L03434n57000k56299O2994
11527D47560O57569R99387O88321J444392m84335j573867k071610m23425N5454O13121L79644K373038j258078
11514A847171j776212Q10801r12516j368682Q84269l27106j195833N51446k39891o20165N98912n37038l24163M83564
11500b125443J576375J434435k21792j799184j29281N17623k69595r44546K70962J9053M60846J875656Q0083n37618
11486B07574j191004p66402N88024p946P44175M18378q15388R91253J170818J66370q1634K90612p52295j67961
11472G94574P81746K083591q96320j327739j317258r22929j297078O26342K145344r58316l270878l01122J499249
11459b360794J204390J159060L98470M92535N2239J118948L19358O918n70050N6512n256k17267n30914n64979M39459
11444I98629r75624j642923l5686Q03484L66625P35418K445706J010717n66324k332797j648412R17749R68849l91663
11430F53748q92118j398153l66955n20853j258238J914156J801658n02643l49196J032548m31806n22817n51049
11417a391718j625710p40388K587547P74274j35713K51018p77422k2348R15380P58361m46270j2734J998626k49750
11403A883153P0225J353777j506802k15603p32370k043856M78791J022728k53881j25509L17529O49765N05167
11390A403114j179735J78014J225678j012884j91995j672815k026436L48804R91922N420J136600M48866O1768k0709
11376c04388Q92203o18083o17279p82518k20844K36725k81821o41365Q39150J257329P90913r01348k305075K90843
11362b365558L48468K46414P00116n19800L11308J304872l08555j169553K04256R43324J080417J061335N31494
11349B368538Q54732r52511j638188k392505j002306Q51242L153069J89269o31775l34578j138486q95008M49985
11336a118522R81577j252023n93141k28065j89379J481403P07949j12560n9761O21830m24147J228804K33867p43759
11322E34073j096825K22789r51411k76874K294848J335751R94395j341146j369330J095952J444681r14997o28779
11309A343127j140289K49662j13196J00040L94477j05151J227873J25161j89721k028550n83086M41490m43685J69553
11295e52295l18389m99690J763204P98225o27724N69346j494211k402950J546774Q46125l50887N80052r05939m55899
11281a504258N34984J28938J969895J044060j101676m6291j65424j475215l11959p01729j555519j91929M74840
11268b901283J336889J209746L91993j062370o25755j73383j150557L58692P09652j49298N93720J045825M90643
11255G4514P49992j18119l1444j436570j880050O66674K53659N74746M43347K88279m08975n45465K30023J225363
11241H5974Q45898j288140j083708R7969j603080L00845K120841R37811Q36913L48748m22163j352001r40628m57552
11227a572273j75587k85139P6781J449859P68912J082394m10976r37782j168468L33334Q30823L87922L63417K51390
11213I94607L45623J69296L26505m7456q55586p46656j47955P5580L6188j822607J22882J213325J26350L89261
11199A79357J258183l94334p87304L01118j408631j060871K72872J609452J004382n3565p57494k31533L24365
11186B55997j410400j619456Q9838Q78662Q83339r27586L30421J208940P04197K29917j904806k81276J513829
11173d8384J265644J501922k0304L20327j56552o17317j082909j637409r85361K26793J987568J329572k2326j83553
11159A877711j251761j875966l46360R85588n89873m66316n54000J345064K925779M82470N53984p36921j085576
11146A263823l10695K01228J58021j48193j611334J20173P33537O32107J193622p30494j303062q19003N58818j20940
11132a82392n32800M68604j53871M21404O78851K63012P63337j327500j21322r09618K21634k83856N53919K47132
11118A06534k75080m28393o33113j589573k26899J78172l02980M58864J335242K47153R984J487514J141054k51053
11104A257426j657815N79433j579624k11237J048122Q36502k51541q84665m00240j895889l39941J813458J837661
11091A51650k58518r56296J07562M08685J206448N7494q05303q69249j107035n16914M9876k27264o75650k78004
11077c712518J590109J581476k81329J7657J687886k72923P2069o45592K31639k20948q43394M89709L35705p06228
11063f76682j358117J069718J282843J18268J42578k96396M39719p93244j605902R56505N51744k63724P82271
11050C49581J290018j672451j93980K47859J67627J78653J53347j94387j891518j369459Q82207J77459P56672j8595
11036a136967k64967J086905m99317Q45971P30515k502721n60865M02017n5473k22592K51281R27576J348387J937457
11022B287207m16540q25239k028784j211692J55541J503512J447281K303109j388587k381910L1808O23682k30158
11009a30770L07608J392584Q82498K55031r05623k120227j131393O05640n90075M88713n71855p45517R66140J990841
10995F93595O97743n95027N52560P53448j119849O6656N87330L94411p2069j441904m06180K14977j201034K91905
10981e83438J297347n81373n26914l06794j656517N27024J122051K24339J58744K29871n23912l71444P82840N73048
10967C64872q16189m7348O33993Q00493m63559q33871n08141n29538N5496O00328J158N14569Q53921r98914m0550
10952d13280J028920R64087j166497R42915J14457J20515J143799M37663K11138q00536l32744N73633n56232j033626
10938A234212r77318P09622o97740j276837J100610m06484k141322k69841K60927m65462O46921J292225O38306
10925c52181K000438n68923k460417l42856n21700J61209n59541P20487M24558k36309O06938o8523Q43097J284184
10911I30461J42749P31530N65244q80549j127948p58313k05840n49749q12000k90574j294013O18776j87800J43736
10897b974290K114198P73680r75907r9522J260004N45040m75022r56872J5525r09499k43221L12016J348286K51328
10883a4256L15517l8560q32320J138391P23131r03117j233254N45775l04432Q1524l89936L56950k59390N0296r5631
10868h59312n9103J711465O37105j312569j495854L17544K32109L07104j13756J7734n68316k59366O6232O38900
10854g40083p94579p43149j26930m62976M02634J093060l11438m68051K069334L49396R62402K44183j209126n98800
10840c34123o0104J543334m40600k815175j750484L344204J623264Q68589j497706n41974M15594N62371M87164
10827A404354q20250J7565j776347k569816K76693L382464J932834j911877k182898p82728J141758J304744J591897
10814A008393J058440j347660j082596j051361q86996q69052O05731N05206P36391P0163O31926O88189J78232
10801B45006J354015M78310k12357o54421M72727j431110k000042j022032k21517n2431L74836N43894L95008J081549
10787f48565K077187j40687p21644n80165R5963P65671N39986j334365j082679L22125J640866N14928K82767L83746
10773B115134n66650j148816j924982K38474j399534K90773L097872K86382R62653M80860m8421j650541m55643
10760B77561J713849j017961j267747L45136J576283J822256o99208j221158m19747n72359J11269J101901N79083
10747B329158k201704k361568J35069J519585J620579J249387k22921M562P20917N4827p18539q95346P0411j166083
10733A38334m29927K7446P86115j17323p25755L42535J149918P4452l60785l0359q52405J856783n17905j758229
10719d17105j985954j105999L93370L21027N35874J430971M94109J323646k24100m00290M09744k63680j94074
10706C17539J752531N78033J48203l84474p63581n57822q11742K73419L70594L25741r39051j041939J00348o00685
10692a232886P50947J266108J72795j511496m19709j42776K44357P25156j312910j335137N64097j152029j413062
10679d796545K015579K325266M47969j156422O77394J132285J013273K41670j30494o39903j112425p16484K89722
10666d09115J454683p73209p61525N85643K331627O8317q12871j390489P09405J372696l23033j576897p28988K89149
10652C5393j3344Q32403J780453q67145l86324P70552l99809m22964K23764J37334j051440p39761J180395M44897
10638A524404j153027k102730l60436J12806k5430J133579Q26781o11461r96066M29858K157404J287115j852622
10625C70175O23916K73554j130178r87122j29913j952313n83263J235941K105406P94819M14268k66606L05502p15178
10611C59008o0519J78751m94258K93966q03923q11998J211891J104729J481949l26405l50527j282894o13304L03116
10597A89582J554998Q61515j410073O7565q0241m92105M83624N66727J422384R10912k39499o44184j771748n08469
10583I10988J387917J86867r84619q39642j213891P29237J217247J56329J512237J60595j195910l114436k0060
10570a107141P75565J336190m5243j152454r38874L13974l206Q98126P50750m57259j39795K2858J27341m47164
10556f6332m75463K49038K84203j810813M49566N36896K5069Q25627N28129J58029o72760P03142K366326L92308
10542C492965j060395j72022K44358j495573j276246q248M75628n16993N56826n76193j676349k40063K164742
10529h7563K400028O21241o75813r77326j447874j176364q5471K169223l92348N02673J477196j6752j194604k117284
10515a001038q32349K000717P35713L82699r06297J454160R96308k282503p95439Q83084J137746K9571p27431
10502A074941j360848m46842k08956J33207p70391K00852J259510J517510K57732m57908r40917M7472Q06759K82387
10488A394508N46768j5046j359000j247895Q56379L75573R12552P44152K36631p13495k402623r40006M8544r8839
10474a661797M78603n28239R77921R46990J58379o9732p19457P43359J69260l20636O66684j246423K01417Q27103
10460F23432j7460O2883j452671m80977J415873m68231k811104o72097R97498j45848K07479M46183P9540j51215
10446b366715K241182J334778m94902J194479J426407k16241k292802k289825J73820L10324N21748J843933m70306
10433I15880j041009N51509j359510M93116O60680J31850o7038j477362j580367M82786R80180Q94176j24608j52262
10419f91979Q65972O34534K162347M12878n21356o40992j061945k53909L69220J72762M04174K93241l93161p20865
10405A030921l47418j280948k35252O27512j10656j80679Q33293p6927K63688r93003n00324N56892j45366M9612
10391e08655J13237N01732Q605m7898J631564N34743p93119r51517l6638N48992r12600J5068O41771Q55247q92626
10376G07906k589831l54981J956930K90613M59263J377860J455398k057288m63571k14032r47444m8525j38783J61411
10362d05074R67728L87833o28345j272602J080531K49859n50952j630198N35037J014133p64299Q78604R66363
10349H28618j233414j422609R27302R01959p83685m43415J707726M09103K83277J377587j87533j007995M35681
10336A792602L23026o51695j286197k75120N65158J081809J90282j268637j052540K83915L35911l90129L21279n7124
10322h7460m69765j58020L30388J079549m34537j466903j073278R91591J780838K68584O57541p86350j570260l77070
10308a315152k14003M97510Q13804Q93583l01670P64580L5875n979Q97266K96712j864642j452844l19964M27987
10294h46937j425017j033012N09550K43269K69793J418584R15150O50576K55176q46727o30963K53914Q8788r54374
10280a132230L03650j50449O14769J543897K488601m72288j666629p44444P09947n88310j727482p44621j543911
10267c109500N5503M43695R52334J104577J093933j102789j285260R80694l3416L2862O77762J225422J405843k56954
10253B184706j457123l74379J307407j655369n75182J327912j31787q66247M67915K15822j266521m71195j3798
10240a307839Q38303O35713n35403k07494J148681J745930j476888j207983R82998M7335R9601M35645O82437J499122
10226C380158Q19739n901j373160r29781j332849j987245J048491K53825N89093n00922o15493N03828K71113q54754
10212g33858o71938L05546M76520j352599j262130J968028Q15308O42995p20944m24786q79756J106542j97963l48301
10198a277336K18621p07574k40976J291377J682179Q93401J050333n37432l69360m00448j1936k48689O93339l13707
10184A721792j527649n30402l75893Q06242m30364j114661J252557l97274m61902P42375O08338R46437p86612q49084
10170c96100J553125M90460K14130n71054M6037j195376J09943K44238j189210R70127J58426m01381N54392j98741
10156C89016n49468n64290k76311J006384N3126q68386O59371L080027O63242k718163j697515j34422J023667P32589
10142G98867O04720L29109K25792k093357j601478M32814q57390p29149J571862Q26643j735164p07470J456890
10129a477311L005693j253711r91847J67324J430934J7734k29154L44451m43791O50664J6011j391951o41160J172451
10115C76337N70273q07418j226364n01512m23426K262620J671825j168964j868576m41237L39391L07925k8361l9402
10101i76889L30538j070907q42403J172842J146700J279574Q10654j413610n58767O71015R64728q69014k20545
10088D23916r81809k0656J37343l8007J076441J24361K57255r28471r63925O41381M34751r1673j114008k00329K6635
10073a216795J213724k21065l32419o74832n42177R44654l16257p49773j35875J104759K86978J421085K397215
10060C179222j622793j471935p2570J7457n38703n67107J435738P6708j18226N95702R62567j037268p58947j97800
10046a17955Q2664J596944j256868j401634Q45577M95651n47194J63900l33056M25281n17992l06931J564965l80651
10032C12701n94010p56251N34324J238365J517310J15611j366431p99202j52505l49016J434622r72894j367750
10019a205126N28091J213718j43721J448446M43773j98239r2997j65886O99428L22045j791085p50428M33973L79234
10005A121226L8299p93602K86617J136927J311710O24044P78752j769946k854719O4531p67044o87257R75398Q24040
9991B88976j577346q20952Q31456J37870k14478M51755j93944J33844J377071j24149q40651j469805L14566R94724
9977g11063L97346p45533P01758p29930J14020Q74681J66581J523722K28872k839403j162218M52319l92277L09169
9963a811956J069197R098j410620N68907M10443m72104Q52674K53632P44566o3600p2713j85863j503241j298212
9949b909792J104314J587642J49881p6420k93236J328193J103816k35655K0724q89211m94024q03110P07634Q21230
9935A121986J50555j193482l03943O83532L83700j465205l36690J635161j273978j141110L39117O98087J235489
9922E33219O59872L09716n6923q30211j886212q12297P36456R22857K859718J961644j378471p37059k04230p70230
9908A307849j813874m7026o62672O46024O0373O57913l27575o01045K69785k63564j109228j313105j27883L26594
9894b997434N23822O60335J400981N28418j279907M56064J378097r07803j235998r57826M06594L63193o52242
9881b313706J139668J71732p17590P01893l55993J095676J638176l80703j365577L74438M48144J240321J080438
9868B756917L07091q85957j61519Q29595l89289j035305o8188R6926J633899k22892j5773k16869l39846K52525
9854B541315j729029j318410J10086P02596Q62958J709694k02116j289654k138996j708226O04004L07039J94624
9841a354115L08507J61837K85508N01580o4119O20812M87420l97767o90363J192948P80027j452473k007136o70671
9827b298005R08747K48819N57627K78421M75319j10681K13655N7704o67631m53464J095807J869551j101920N87678
9813A661627R43637O52981o72286k362952j249441p03860N6311L31102Q12797N72496L88846J54346r02989J446549
9799A129164K002423K73488k012358p33342R37884J075370j147797j160698m20267p79215j22878N57908Q9529
9786c10789j139057j49541j18676j197109m51134Q40283N28233m06016j55261o8349N12011J367416J29653m78147
9772a096483l87500J039548m96506j04300L83251j563036k50358o43856m13703K214890J588649O7715j347170M02504
9758f06355K409581K73143j504782P9560l83960j108736N70984J248358j139013j106098l84047j179803N49952
9745b281216J121330P98054J459202J54050j165266m22198Q47542J738184O42453j047597j467904n83017p23577
9732i29960N16621k3522l81571m67881j94154m37508K327440N52312Q6293J671313k12261o88569P696L03412L78107
9717B507768K6611o77416q26432n36453p88390o56808J86653M09888r60788j160060J153850L07996K51757J096315
9703C34491M49372q15779p84484J461063l7329n50178q72981p70038J297400P17158J688755l1880o42877N50266
9689A992959o36774m78020k32881N41727L07251N57023l36337q40705j196181K58832J223067k83565R328n63949
9675C21775j398676K96524M55257O3234J084941o13294O55854j76258q35793q34819j875128j023563J417219P47754
9661a714973M21252J068792o34892j267902r00382P26949O32823k49738k96041P32942J77802r79576R88409J325608
9647C1073J56446j117188p89992K03366J040342J044593J799794q4872k834588J407303N79741j083591M86737l9071
9633H00093P49942M0043j776881j048870o03565J297410R73129o63359J57238k27177p16792j48831M20226J75405
9619e71989j248775q92104J384185Q15519P05290N02181m75079k07452K50630J054389q73119j089807R81346L09162
9605F44377j198460O57234m50297j963892j003667O83450K682174r98649j453381o38760K33519j5294P74830M03899
9591a642917R59196r09960m17166K80620J529159J086552j558145K66737k93368l38106M41428M2695N60215M32303
9577D39243j075589k3768M78227L45103o76392l2670k079099o78615O39020Q46844J135868N03597Q06749n53873
9563G4645o73063j320460N10178R60346k38020P27043P89444m2798j178502o51717L20596o94047K23250O06607
9549e86498Q64765M36907m9507m26824j347058p17050N03319J571529J746474r91307j395981l45331N65649Q79321
9535G08408j081987j625781l59550Q65674K865455L32349M16K7186r32154J324234J50636r27072K94328K86136
9521A928278j191498J95286J20040j192328l09925Q86401P56921p23862r00905o29311n0126O29521J55805K82602
9507d3101j95623l08076p32724r55921K106863J606314j427042k31423j313882l33647J030595P69798k95718O46901
9493C23314J96330J97186R37709P19657j19734j736665j378847J18056J866920m4592n13411M6936K03627r36399
9479a19913k754916r11393O5410J946934J865636N31624P44956o31136r64253J236415o07308k502459o48475J975032
9465g73846J529563j2489O70225N4859l3085l28230o55178n59091l36982K840901J276349j824001j003644j073176
9451b27825l63022K330841o2015j962193J040134J125210m41026J276679P37904j418138j113727M65342M65668
9438A853832j108325n5934j43994k674510j532954K251366K158636M72356m22672o22747Q82032n55253j812880
9425a311047J38197Q28239J730665M42438l80492o50084r73411r25373J155014K32791K40727K237869k8877n00481
9411B236175k046235j368925L21555M12211Q75461l29200j593285j364010J662621J905210N14735N55588o09865
9398A172036j599079j923921M78023J087785J08947k6644J159651o71841j861828M89073J045035j420548j857760
9385c821071Q06561R61651Q40528J355059L55841m3789j008484l10895j297657o24826R56599J980245J016740l16851
9371H49651r23301m54552J388296j02817Q55970J051331o92447j687231j584688K013659Q01538j153274O81491
9358A043626M92298N03150j802108j434824l82866j21343M28345J83380J074905K20396M06088J212659K94957o76385
9344A442278k03755M82411l90663p57329J75202k84965j166177l62491P8087k86099q25427J609660l2047j010233
9330a531548J718226M74138L73019L61538j66820M50028L09149j630853p96820j082269K41830j27040N51294J594763
9316G38635k43369j67148k15757j081325m85623l65446n97224J80359R38240K65643j399068J391361K000374O76946
9302A636598j000031n45477q51050j317191m89475P63510j68792K71657R29644J686522J94022j33579q0084K53061
9288A149335m22972K93152K18895m28531j152013o52394q1392M5962M8380J09648J22699Q56991K204762J073366
9274C385888l18994j094593p69489k085641r07524K02868J209083R73610j2987l21742j91491J34930J531804J78422
9260A914144k30123J64396q60927j776088K74547K447901p14364m81179P58248J16154j703824p66768J564903Q31825
9246A538845k081761j942016N85401J642850R78409L94109n70507j210304k179189O77656J862407J033537m33930
9233B95507j145381M90863J150640P8548l91871J45097o14538j220814M41837P6928O43696O97904o26008q216
9219A4192J129566k50822j64294l40656k398933m70966K26593L64571q7128N81303N87872n30928o25194j128601
9205c093425L89980K467198J914759r01838L67714O40971k032448o74651P48289J046789O95037L26056j7233j530260
9191C46938j991431j20296K63342N95559P56667O44620n16750j599643J392845J492336P7867q49145L22208L63140
9177A178257J62223n39551j313924N03684Q92772j309562n28095N80966J944353j212096j315011J95037n64845
9164a325792Q27768J493606m61673j020519j226042l54101J666200Q5951J401523P02817m27177j201513o07755
9151d46707J303557M1220r38100r3658j028677J84872l36871k97574K346712M46483j300066j01975j268950l90936
9137a880670J352783N89645J003829N42220P22299O25137j423243o79539J718984j235580k109197j77699j217432
9124b168463o90856K466327L112703J320099j528634j350007j135800q92039N29485P41650R26847j3261j444707
9111a26656l69089k78887O33094R90976j74055K48557o98887o54505M12004J872347M46919k25989j330610j24201
9097F21018J413783Q88022l50579k15552r13795k96194o12023L35241M06482n2940N57898j348959m41568l25205
9083c34371j305060N6761J383996J780175j9707j338121j852763j76609M95854L70375P92926J414746O89495O2165
9069B019862o16903j971653L09157R5708J05646J200049K254729L76798r60692o16671K9033L47957j5546p68872
9055A788602j832481o35112p99661p14889R91791o935j529025p59380O95479J127387r09088r57988J026330N07783
9041b007187N59025k85074q22886O58615R47685N81374N92409R84747o40767j036119Q03144O47084J11027J824829
9027B917906L64492P40605j143151m26439o87353p95696q54074L21695J030932N40136J80694k219093n35930M95060
9013g0216j22621m33685J21309k09759j487046L33552K551363K086954J403605P66866p8261j050101j564104j588189
8999F59667j18821J766720j35198j516024l01386n63504l18399j090402O0596j78854r56172M35855M95755l63527
8985b123694N53243m09323J560760Q74159j84290J505549M43624l24893j776476j583203k2834N36808l35415N36768
8971g49217J979847J260166K08714m04115j340044j033091l22356L36590N2835M27013J153670N08039j240138l86029
8957D51884m95100O22710L91003p99796J224577J356486M47010o04440r63826j697627L3679j476058K3590O15981
8943h69927J326568J281514q74246j149253q15393n29534l46982K00200M42570J395599K87861p1433K82363o33943
8929g4036k83999k2544L46274J48260j7376j194487O80959M32735q73140J141738l24309J195216Q1386j658191
8915d21514J94067N77891P50269O0920l27134n45632O04630J36326q53687l58016m47078K90244M74377j661270
8901a525607K25836N82602n07651K42764Q54293P06503L63481K51731p7768o47386k38254L87199n52679K778410
8887B843474J648136j905263k276487k87954j024263J016126R84070n83372j165855O94101m32177n06143o02925
8874a598532l10170Q88420j7168J5141n45832M95178J848074R0568j30865L40620q55718j542239m48472m20134
8860b191129L039211K482494j266970r0268l10100M9542K50271k014362j787455j31277p5970M9681R78584J923717
8846I05969N65177r57049O86723q9271r47233m68024J047032L76184j622361r86342q12115P98556o08093K2543
8832b088304L31815J073006J717332J057702M16972j166032j802254o8927n93561J255690J390630m14076k95501
8819H14492o16511K49051L81120q06590l37205K22823n58476r94235P8980R80204J342246l13960P20228J102193
8805B264360o47112J16164j223071m97158l17334r3139P14813K97358k414611n10224J679097J288596O00265K150034
8791C408038n13888k541595l11500J90937O26583o67483j74189J535309n85792j266799n35839M77850K76530j395168
8777a477006j42179J037819L35356L86719P42285j12025n37007j77576K504263P01839q19873j144791m68562j308112
8763d78850j860927J460201K164755M49258j051494j040741J586516N61764r49818q99227M67860L63923k01310
8750E71910O14437P04942m61430n35494O67465K05238j51300j438085r41721j427860j83439P22034J387373P29932
8736D64002M29418k89739n99906J284718m6968p20685r87537j070812l02024L117082K116171j255348j688462
8723D49910j169830L81685K066254J369313Q04851o05070j654095m41033j9538j547941j088164K55157l84897
8710a583398j026273K2808R33131K76225m8473J422566K149794j406422k031895J47519J555166m95370j228549
8697a313171q71576K434750J287883p71664J363286M95294r72276p0888m41116j446541J230673R42870n35247l84035
8683I48242N61558J032248N25085q89526l12840p76728o12676l02979o51671j045175M07648R59003M73332J137439
8669A452960p7228n98448o9451o98248N09739O19314L47011J00639l51724j35097p9385J67446n13779k11918j485651
8654a023820j250333j86862J261353K725172J194861p62286j54687j351326J95514K12224Q42467k9443p56513
8641I16321J441021K174407o74834j203425j945727o11149j90038j623935k72291Q47523O72686k86090P26180N73867
8627E44516J469549Q9384k336452M03272O81539J309184J074213j35441j189445k102283J544450j223839k273095
8614b144448k52540L92437J389940n06515r99858J128974k42513k9219O02411J09364L02927R78206n72490p10213
8600e53537j14944m41162J155369J204012l97207j409881r22755l75946J49074J635198J053340k88170j413736
8587g20345n13226J025240J919909J074069J85910N48264j54805r07133j076742r39534L32676m42500j038357K33162
8573d73412j055377l17071J190279P08772j073696p45320L9700P42162L96092m69285K43975q4653j5319L29408
8559e83745R72649K602357o87770j527595J65712l23991o29098o58475M34326N48868l91375j60041j020690k068974
8545c327842k65665O29114J265358K290985P97141k894061p46694J502789J137317J37624N38428J370453K14561
8532B649508j184136j569181p54279J185162j005112j81530Q10542k12465q18856m54126N8006N65539N63621N82180
8518B34873k01638m3850J029440N11056r44241P93476L87033r56759j141417J004010J627204l48868Q70043l41008
8504B479354j126914m89718p37076j941671K3315K167731J564007m19455J185390j240868j178027N0469j168561
8491h32024p70028O67264M91979p70014j125153N97343J232095k59736K05239K3995K23532N16693J237498p93962
8477F44721j836713k75548r16202J500436J243909N4113J95684l80150O1292R90128N46761q3558J231563K77755
8463C254191n81682K6686j401736j076716N5213j72313P67663L90846j259195p3549j42228r19832L69936J241298
8449D78582L15806l45122J35703j268864J0291J730199o14627q94844l82117j640888q58419K75662J022552K184603
8435A48517J794969r24478k31837m17062m96331k20833j549879Q15631p00317q06054R79468N18225R87215O75001
8421E72235J488218r73370k519150m75875O62475M55800Q3828P09561K04654l94597P14004J636396k375758j614101
8407a825680J457929J490576J091607J41058j220906j46141l68027M09190P88236k01929k887K78616j048648j496261
8393f53267l1769N68326J148379k68337j881112j29683M00497j798686p23522Q83671o723o1791J235740j461448
8379b779725j287010J565710J473500P73892R66461j824147l54721j1858K11362M62699J82782Q20188k078178N38604
8365a340441J564649O65281N70640j431429j142946L74374J025385k29689P35701Q41311Q07135N99610P09864
8352C749445j302726o99422L68300J18815k253839J048719O3694j293841r60771q41447R46406L58559J45796M66646
8338h5666J344137L46703n88847O00686M11162m01128j345259r66518Q88580Q63708N8586j422330q72213L52968
8324h15431P80155Q37674o30183r96587l37621k119991n40404P71365J083781N55424R85927O39930o7844j414253
8310a268058n70174K292266K152728l19063j500497j692140o14890J75724M13463J426908J243325r4098j670109
8297b4615p30118j276262J430740P61385J038638k96625n23115J43430q79880N07548R07983j242396l59564J561760
8283A018909k70335j171000J053549R82948m5034o95549k102153q23885R61496n89510p74531J307231J938839K01671
8269I92646j228325j392897j457837R42521R45827P79395J198065r76922p11824r94586l2459J000611O20560Q16113
8255E00888k62889r00328o37184M14719J87987O03777R10630O6492j370942j393482K44781N99899R63053M40683
8241C68084m4318K52332o282J240841j511975q45113P89303O18979o89096P17087N15437j024070k080005P14201
8227i84595J120246J63353Q30622J90946n70575n82408j422959j324765m5659J367195J562170j041860J460251
8214G21962M69127o75647j691077l60597K446752J308709o31770j787705q52129J715808q0806o44254o44834p13249
8200a419710n58597M33687J281614k70225k2305k4671r45683p28489J63806R42318J464288n9928k4722M44274O68937
8185A344594L43111l36280k721094O35551K548892O67545k03093J97024j221441j441199j522422K58868Q77257
8172e72687J88050j372884j032339K0486Q43979P27526J146475P26577p12815J065332J065010K4437r14660L87069
8158A589556R4230j150704n06228J037742q8053n66816J004972N91001l5087j386625q56066r58492m41051m47432
8144b119053M57746J522644p98402o27884O56755J672399J422991q48244j588318m63328j504143J123337l20517
8131a414017j77042P40158k52361l72513O09127J503344J84858n85554p95330l28166m1453n8018N5222N77645O57475
8116C03375J97670r66449L64941J123775L34203q82572k10912k96125J04608L43954p53410k197136J983026j02708
8102f53760K58264M83467n85004q43698r69436k06726J027412L15591o9250R5492J388394l96550n71553L81872
8088c45485M45684j336707p86091k46807N74952l23742N6813J606399J249055J72399m23617n57096q82266R41272
8074A44763J701552j577236j935047J559748J436528o93800j84846M42557K99078Q2759r46775j348105j38954l08389
8060a466167k10630j33457M2449j120223q39081r4772P61692O24060R87481J702604m54289O58898m44241o88209
8046f73885J037290Q21745k67993p35778j526141r53054o66767n84908R8134Q42995J542739M88945j560947O75540
8032a462085Q69378j19403M36742J386539o43306j673436r25498R25609R98309Q74390l63808q13121J44809K403650
8018B038769J158030p58075j334723n57273J101082j998291P6095J486604O75348j214868k255815J82658J527777
8005A27318J072090J083814l83121k844112j011169O16581J540065J297831K403838m62438j996673j722335k63177
7992e41488l74364o9870n90249p89959J188595N30767P52104M09270k40839m79095p39640k53936l51027J261597
7978b88134Q56812m19017P99280K221619m93925j563641j025613p71251R78669K52086j608617K26446M7488l97245
7964a185043l18505J883554P05782L73844j234852r83336n12701k73515L25686P38687L13m32789L66984R06257
7950C60366Q52531l88022k290899R42987J220305j848155r6261J734737L42524N42483j065916j74033q62143n12935
7936a242431J068649m75685j46380J7366q42199n10215R52398j22200J215602J768576k64110l18481n99262k09323
7922B92305J196970L2776k170576r98596N5127Q23739L34832r0205L45247J750137J79581j095475j865886l73215
7908a583239R51151O81254Q46389j72573j96975J60655k70299m73638J96410m87195j771969j06302K260132N33795
7894E67596j57366J957866J86666l07854r40948p8984R58747j86802l88169r71585P73215J069515k64386M86261
7880B703772l71842j193163q86235j97589n04626j074101J380880O73671r28026r77408Q20270Q19987K86910l01437
7866B51063M85915j41375J076470K46391k527623q62864K084466Q02239j021562p64463j066051l87349J107283
7853g17460M32479R15876O0481j14981P75225r1312p99648O2226J879391J389328l49010k117697j071660P54590
7839A007828J80921m41996n36241j15444k60453m54621O37602j18299j99831m87462l45422O86369J454202Q71705
7825A878858N49680j149834k256150j59455R66609J645993J388505M1257p18312r19608j095089m85310j644411
7812a957267n25783K98719J29682o3823N95111o45680N89719J199468K329600O72406r80008j091773R06094J26278
7798A582743j307336K89179J541263J61769l97541L68636K97134j089441J06420L29683j311636j715367M09656
7785g34838Q01662o27982j77457l12982O65446Q93135J191309J54190j183018l91962N97323j61742j71624K50663
7771G92123q80207K07347Q26092K05000O67028J224038R34700q65764l035053j046625P96900M8773M08899k78694
7757D557j058987l29021L15653j803507J144162K572951k77863j682252m02930P95674l6153k02620m05489q03825
7743b169650m65341J618138N01496J022060j43956k58840j536275M26182P57533r45040j997967o87906J015528
7730b864038J711861o1857J152428M98249o13305L56519l65581k30969j8681J456627K23038l02733N01710m48806
7716I94462o5799O94684m55610M58466L82132m73350q54546q42976n81198M54747o10636j824571L12159Q23830
7702a588206R46122J392205J279099n89329m97074J14498N9632l15854J152465K00610o76106k99122J463810R24518
7688C567268K12354m63576j158256k691035p30886P27885L44971P45879n70339L06390R5258M22488J067769o34546
7674A241624o8769L44167k023770j371804L5775K513535L72038k303678q62807L90549L67638j47056J82987Q69102
7660d60469N41520K26802k45887j572858P98477J000099l12340n76187K07162J213794m92166j012408j195890j01381
7646a981732r8525M3350J057018L47124L60056j199303j734324J145513J069468P0914j3873O75009O17064N85111
7632I42870j612750j416833Q98581K8687j011940j52092J35703q33381M50931M25982o63759l63402n61393J035795
7618b697001J376510K46702O67766p8459J64023K96340q13977K84783J391213l82479o92142j46190L90745j638119
7604a630285j947010K13487O29218K352866j68194p86670J66206J731831R84627m14107l15485j127561k381302
7591b692379j893719L92675P52101J050539J636918j05864M32859K64576p48341L84319j39612j397246O35181Q91998
7577e35995J365145L8352m07895l33259J414199P96653j661795q67622K8644J124171P26672o83501j302808j013107
7563a312146n0067K78807j07514L37257J270200Q46006q71968j372372P7316J348275r47226j694577j161422K132937
7549a226494J887929k95918l98430L42254K00681j571327K150811P98977K97287o09835j230616R67263j279717
7536C2865j078609R45352Q60522j030596j26643Q65705j179280M37755K022957J818014L34926k296733j875569
7523b69334q24828J38576L20460j368128n13890n44521J063785N96624O61429R58923O46588j460461k540441J126180
7509b009038J839084P02601J190781r24027j501360q10910k90477J503300J123056j389753j088305J6897N142k33759
7495a866768L91157K163743J555484p01790l78211J147336J73600j262669j499231m62404M41099o14031l71899
7482a284584J228917N08857j32982n59359q11161O1994o943k40699M86430J224388l60142j912915p6753M89391
7468a385561J557436P65752n82094j04545K10262p56396j624486p70122R79522J79745J32196J037379j204153
7455a565065k182058p42035J832822J113181N71412j067590J78282J855299J607819n0704P3309j147101j241965
7442g64394k023983J499806J11306j458245J923205n06400r48911J492056m56022L63876J44830r57650J715020
7429A34494J426261q28662k499147K41062P22377j593414j220243O47450J512236J328777Q21541P5462J13780l321
7415H78653j330613Q6786l07777L50367k58106J569347N85586n0203N6879r71079J65416j453025o44958j033999
7401b356726P19512J102666O57556Q2454l55673J072223N17927l30386k741660j919250J984363O53730O80369N54957
7387C22062K00787J502145m18427r38335k31978J241453q0268o06542n96568j39337P11975J611967Q69496m89236
7373B959194j029059r88206q78484J005037o64360N17737m07181j863959m8017n16300P91785J179365M58970J033986
7359A550508r13975m48745j565435j144048r86258j037035J987584J495541J430011N41052J217993M68231R54459
7346C549883n13006j373832m53001J55211k55728o37545M56612m41641j416491o60117O5985J169685Q95920J841631
7332B383566j563821q71851J94091K60874J375789Q78618q96436j128799m51430j227234m9551Q72844J0759o07347
7318h19928k70318M31440m12642k16457J829514K370429j278944K8505J271850J250571q14022k040282p48423
7305E81293j452651p03917J30206q53263p58734J69455R11556J12565r76387L86491m7433Q99159p08196j10470
7291b420326K481500l18919l96544L18767j79096J042398J5171N44717J42380Q50418r22713j316893L46409L68800
7277E56069K99055K09165m14064J977937K64978k032533p46245k362562j293934k33971P14162J590137j952524
7264c424330q75451J588257K760716l71933j098401p55525J675941J014751K57770n6241M6896k23448L31185M9012
7250I19199r48357N04103j015253M35262R15856m81744J05097J02032o16309O02848m83831p29151j95855M6021
7236h40082P57113K93817p00387n32933K32914R72762o36295j718980R2907J295546o16388n58392L8279J246843
7222f73276O83168m16590J8321M91589r90030j593430J08441J808182l68784j022505N65046M97106K98100K93134
7208c01528l25403P75796q17636j013931L97683o12466L98463l46237j62900J761565J769251O66768M68497K57462
7194B915384O48084K45160k46546j557158j566687J16394k05591M64772Q4951o35533o83182n00147j048053k12111
7180b180263Q53041l77030O20327K192273K81154j916920n20723j79326J845692J10365n29118o19286M41513k52307
7166b30608k65100R92035J284186q37743m07481o39412N37406N63849m42336j473004n66629k20448J027586Q81203
7152B03504k58661r85959j73068J058703J097614n78558K3152J534389L04833j259680j383400o76375k01854M89274
7138h06086k97081J224457k3528k66998j091849J05385J451720J07814p00432j074303R12313K204303Q1291R8518
7124A925524j39533j059838k29928K68825l97392n99186l24502L61643K70300l49718j76911N64428Q8547k55859
7110e3600N67663L12361m27277j04334Q75597J138001n01729n67182j545924r84819J234083K236338k41026L07819
7096B245971j78125j395472r63283L09250N99730o90486j61221K17218J20543j86931L882o41708j113650O38125
7082a196157L49765k34480J33366L07565J577352o80280j225771O37604q108j804826J181226O42358l86580l5644
7068g42610J581533J096580L04279j453q48124j702618r41601j09397Q88621J67006r66461j148008l14374K035593
7054g01034J507359M29512J04927o32449J44094J69338m84971j153838J136420J286698M6303o89543j631005n44824
7040a013013L35746Q82023k73810O77968N48765j204238l21751j112808l83751P19424Q34859K43440O80147Q64137
7026A477138L07860N34210n5885r5172n30342j210788q28192Q74422J851527L01714r14527N64832K07738n90168
7012A894367Q29172o22178j053576j293303m38372p02361l559j3482P97600l87241q11384K764574K595851P87892
6998D344000r65998j863715m11949j280306M71698L15924o72215p75984j802207J207495J336728J385282L66396
6985A655149m17976r66242j63824n35238m33413R06186K158968m99286j281333j343050j073792K67331J806042o2035
6971A7487o35027P76259l71405J73145K55071J228691q88250P9531K3201m39881p81361j762890k58351n80947J57483
6956c007244J742062j26807R68378J506552R6041j518082n92622J246726L70940N84935j746901j143410j002440
6943b621872J92036J837480J792146J03259r49104J91802Q67174O7966j206806p85682j243248L09231N16862J028255
6929I9499p07875q15666J512811l65518j083765R70441O92763O08092J363943J324225K67705K2107k69655n21685
6915C097422K58371l61909q83016j721743M51997L04736o53480p84302Q92508j40190n04606P35449n11433P98994
6901I78798j875309k262554J384324J021816j101963p86564n9452k95J595072J708967K52579j10238k07149J34261
6887F72293o3760r1055j095779q08654O82905l10918O93413M29118j022116j361326K7396R1796N08890J135406
6873e12391r03661k59388J508203J594655M67173m84406P84721o13470n12330J99966N42027M10855o2134o77034
6859A482786j782261o63469j686885j232265J803027N78954N724J165404J844701r80149n97780r617J014014P80334
6845A722518L9341K62043p8950j382990p04683j882440k255218j613373R65350K056958K16049j051133Q52952
6832b853576J943246J221225M5593K7365J099072N19697K26088k97422q33902l54765o66663p90192O6008q62583
6818a510809r13172Q79649M43355m92995j338926j53519O83099R64184J356354P58715j077560k02768n33139o21519
6804a759051J368018M43819j134188n00787l89667L70973J209974q96469j115048j25522J693716J848077j017805
6791c960j358860Q89239N49827o60437j068375r11400j454635O8962K757355J006254l69980R2714o33156R79892
6777a16560J683187J1033K55118q34135j252894j15597L60549L67187O36066j330366q16776J59838l76650O76075
6763f93925N64241P20776j43074l81676j386706j177219n53709J093312J492860J00259n78123j492751J78355
6750b257380J555467j40852k86196N51417j772505r39642j01947k59141J460179J903447L82855J62136L64699J4684
6736F37221j887166j33779Q37562j86872M82056J482256M33903N72675m95795j068834j091247O159n26178L9935
6722h98104p86760N5280r776l1442J559497j85516l48425N73946j19550J419151R16612r67945k084406q06707Q63192
6707h50953R22644O38205L03027N80291k15087p71171j821916n53290J871195M58240j850388n65152L96157j461536
6693b919734K17397J72896J30551L13353K52227J092060J229648J533624l79917r2780q75531M90629m15233j237000
6679d87810K03818j209065j12737J606326J333406J288844j581643j659148O2116n4128O91227J317254n78624l20309
6665D99527n61758J32958M71645l19610j56501R49403k03896N26517L89295j357059R3449M75603r68683j006413
6651a035523j404395P86019K64898K71789q415K23025K3396l0040J701779m605L1171q94192l70549J064578K76257
6636H95193n41981J59041O44238Q40190l87964n61371k07932J100285P94691j63120P7840j722779r72611L61802
6622C15522N2727o3128L88128N46809o05459p88199j273106j984763j84410J165208J505397J206216Q52181J492890
6608B626013N96798j701676j895832L86245J808414J732299M35911j548401K05848o41870m72317q37874J292599
6595A986157J651962k594614k990349K87347J388013J528992j393885r96277N79496R94356J514170o10575j172371
6582A72422J94568l11268n5703J027291R19112l84539m35124N15389Q10750j92176j181961k20835k64685j67893
6568D25348m77923o20393j159491l51144Q2021j167996J106849K216451K33697j524804O8494P0340q10489N20067
6554a388973L90491j314870L71150J041689L68863n2352p29036p75533q75497j02275J347710P32267Q64124K26492
6540A04250p97767J51814J454725L71200l36399l9333k36431j988751j04058J13205K28989j468731k99097K156672
6526f89712O82032m41229K5214Q6926k427757P16077J510716K43285l53347p19000L76742j322656l08011K093377
6512e27343J436013j087186j292811P56878J25879o37693N62733J826035R90509j241800j038175Q34842m87426
6499B20455j289807K92707O20492o59440M11539K635441J512843n16716k160083j695738o85153r75979m24166Q18468
6485a895137K894608J092790j243929j856308j856314J77510J831463J426712J427518o9748l43918j394873m9647
6472A40727P78886R52484J674837L42890q4335j892063j208207J232342J404008k576473q55957L07334j427998
6459a211525p35207j13632J073233J9554j145424J447260N88072l19535q3653J11336N64420J940706J323750k546377
6445I12978j529332o41731N51572J467916J918007J87666k19921p80568J108323R64579j747892k147288j553287
6432a508978R13689k56941r95206N93637M41042Q33910O6845J93616j403818j95791k41580L66144O31764M78550
6418h3117L15437j889169p93062R21714q25348J009846k67492J38703P63092N79477n27110o98143M46670O11043
6404b97459R09083q64839j969243k32817l5592m65000K693941J511952j033323j02575l54435R88353K66483j757277
6390g42748J51687Q49288L64798k69505L75444m0472R5367M64191M00668M09075J083692n04152M7885r07773m48669
6375A328776P13731j235961L78548o938p79379J202512L98687j534933k68150K33914N18341L37602Q63579r72500
6361A177829j27343j475448j229821L95074l80150N4726L62928R70722N03594K2930j245482p48007J320179J755611
6347A357342J097298m88779m49063O9688j423840j918833r46508J226742K602915J46179n98889J91308J306933
6334B172493K32202j302056k84260m23085j813631j87217N95798n10733l20613J206234P78887J347196k0513k903039
6320a432337R92087M45821n08498n96568O39306K372125O38687O8926r51730j438699Q39602k8222n83136J49512
6306F06876l41497j126727P95418J327854J510825j674435M58152N82578J42330j083837j22941L4244j090744m03417
6292c85321M52359M24327p43859m26062K03813R49709M63331j119772o56185K27445J46951p61012l18003j13781
6278a656060M99348J608263L00953M1846J400999M4277r74933k29823k25601K75574k086438k351794O83894J019540
6264a649955q07666K62356O75527L64958k20699p74360n25899P55243K259263J203827j081062q93201M31928Q38189
6250H38449Q07019j347117j946416j399945J595716J45043M0060J274283J235613k37069l11175q94662l50516Q31415
6236B80698O89861q58180n53231j254827o08670R03287J656181R10048k30001k58927J111842J73702r4203n75952
6222A291628J35597l28305n82989k060504l13483O84666J446060J801085n18435q9527Q5384K10813K0916n04206
6208A278700O67573O49724O35444M53485j182593k108335j793519K47869J171353P62609k59615k120988r37691
6195b535984O81111K75352K2219k38341K318150Q72423j713341P65499l70017r27045m66567r03547J585580K009922
6181A375414M59799j159523o41775J805292N57498k89481m76040j606782o56897j884255m92977J214966P57523
6168a037238J275166N6337r61094N67419M3664N2743m06196j47713n92520j96142J466237J668420n26179j97347
6154A065557j033022j730869J382363l1753n29520j095425p17656j80586j615688J565730K259794J445974m51564
6141C33335p91059j015006M68797J605358P13928k72026k46518p80256J86326M19545M85503m7402l54360J98777
6127I04942r19336o29987j252698j40834J328972j94907q62840Q53287J566756Q05568K40810L59391P5768L95510
6113B530402m18754r70920l15600K35056J526887m60960j320929j556220j506435l28690J549006N94452K062703
6100A619998N66492j541545j348331L14418M30925p40065k86030J07623Q79634m07250j48831J280442m3070l04201
6086C80209J036764J356114j029213n23157j531769m41936J455598J904175j506064N5083K02307p03448j923800
6073a269137o21228q1127O26187L97011P74468O61848l3701m99440J35348K56241p76782r68933q90320Q81545
6059a408020J613811M60385k78254K84023M52315n07453N80893r09172k90299J040172J401628q41748j382096L13642
6045E29827k00958q4560J100714L34109j35987k43303k66503M5034j036696N19955J182188j973847j349424J822254
6031B42803M62303J35145m8385r88971L34680j04536K23812n11670o41727J609585N3j491574j11066j413267k89428
6016b592243J253534P37019M49586M82421l17823j31683N52020j0597o09138l49594K14649j09470Q97761J319973
6002A786415J51265j99856N20422m56142M82240K20421j497193r8134j381865j769752N62032J833413P24929j57397
5988G20798j77364J60943j62614o78072O01414J095549J626778R8336o03669j020260L54328m3591r16947j274193
5974b18564r07890J221818J425543n93236M07429O56298l13711o2466m99643r52519o95125j727029p09036J368835
5960a599296L229262M19648p6326j485732l080807L00595K018145R25525P91771j614088r95217J120642l96163
5947d42041n18350J065185R90993l19278j259611q55326M10424N65800o10203k84404J048983j309818J96019O39429
5933f82198N89094Q60475l76026q77708N83529k23776J619152N42522J17796q40206P21765J43449j793124m32638
5919d7894J61512p01525l25768N87812K019963K37989k93191J325532p18680n67961l33145K48444r6433l84405
5905A112250m61558J085860j7314j355661m72027P70845J903079O14271n32023j152018m71899o51298N6156O68737
5891A097400O36699Q96718j286092J90267l20426l38572p01342L52083K05204p40449j631736m04815J393945Q99048
5877B47932k57385J956936M31124L88469q57422j820927j786285O97628J824399r670P86780k25742L04446k186781
5863e06498p34086J076321m11775q90598l79151K429694j876675k378198J081969Q83152l56826J613289j09678
5850e59060j128792m75513J49122L095549O60020n84689j855076p01919l78300Q51139K30303q07315j05181J07364
5836a502348J231370m67683j61343R05304K27237q95407k08743M03537K95701k20132M47624j666282q30610P45732
5822a696043R2667K67699N99342J616809p28196j510369o99610q96971O88329R19793R70156O63462L80391L27340
5808I94799j124236p41433n15445m11858J596784j62912o05546L74598J274581R11037M0809j597973j535607N34291
5794i68111L80634q4425J428890O44583N09925r38394o60945L5769r06897J397205J741859j285555k38236J62911
5780A219213M08480J13140K53345o76185k494872j435821O60314Q51568J227663R07478m10099r87440j255896K64510
5766a354602J866487K116217K34664K53684j074935j851450r16247L50321J123516l98683J72206N23785P81302N4487
5752A880752j05874q54128q34882L97992K37314k52838j277489j998517r61951M08169J050343P99840P80352n04840
5738a235757q67011Q89067k35294J80303J170191l86614M31851J027758p2942j088122o80311J110522K563511
5725B807152J373016q2042r84111j424952J56597J149369j662264r50737J556366K950m61733k228776k32651J435362
5711D53546R86429P02728n3317q75596J41948J453487q81038p51968K13174K56795r58772O89195p365R17103O11179
5696B897528q03853k52095N10883P98747J022721J98066j913060k489632j434944O51938M25110j273542J836116
5683A73983n00435j105958K77726o68209Q36646J888395K16561k93940L61773j450467p22776p81610R99348K428992
5669A660029L3623j207420K80006J156498J191680j035898q74843j663581o58350N46946R06764J178207J111343
5656B625004k86642l40566r1697p13426J50346K257462j726688k148225R91440m63370M11740P84277j35087r11447
5642D03121k05818J257630j770727p02717J94846r12618m3779r29133K56131K105449J382448p66536j654410o91700
5628b077813M34993J023699O95855p3182m26713P74423J019773k52751j033372j46238q9672R28258J189041m65932
5614A500369q09285n88078K61045q50057r64120Q30203M69896M02066Q64907j25327M2661j142886j324456J56132
5600a276930R95461J8518J65173N11878J16510L55065N52983R59297J035633j51855k95691k600834j799321l0231
5586a444344N26838Q00096J190171n19026J79637M20465k83843M53463k51938j7575O72052M52619l26993o79967
5572A171655L40988N81336N12950J063535q24693j075760n71936j943419R98067J328364M40802J45504q49328q69400
5558D48665j00642J036559J822739J283393q35587p03282j164899m80474l51517q4960P28481q07281l39911O51296
5544A102580P44886j21157q13473J129010M6790O7559j206538j410785p07013p67009J758115Q59871m60361J29841
5530C52316n85872n6913R68714J59306j40894n05561K47876K33495j333256K71474Q51666N03058q73406j76212
5516h4209j145510L50835K02934M2952k50536O57332l37096P7581J11056n67464M96589J020887R41962J086086
5502B603399m68515j955227r08118K305m5312J528929j342072j932778o41377K08580N9118J023617J660647M87849
5488B81045j12864J017313K03974j778474m38460N72879j263958K13149J092096M59983k83943p99935j53949J460010
5474D68866M87114j39154j096130p11959k26328P7408R28404O35399R36561p51654K29217O83269J637P2072o00841
5459I93881m11317k53807M06797P22284j252697l38J490447K77188k68080p66888K07213R74364j84607p04095J41109
5444A371454Q53014m11937j142141k26402L78684N73115j246444L71295o52100p21016K09832K11608P71716q69121
5430e28443j058447Q69483J536137n67019k39465P16096M69831m38996p56494j104522j052747j357435J90946
5417c321075K337366P90444m63470k20083J013971O00649J60249K526145J440541J91028j254560k227471j032977
5404E40757j080104P9477O03027M95262J615829J12301j133647j052417Q70077p97701j940004K94314J625185N06846
5390G39202o65179q15406q33551l99132j80586l30595J06066n5724j5593O37685J381635N20315j54738m11669l02418
5375g79688l4332L45001L2699R86190p0472j396927j40138J158123p67218n51723K35650O26820K11472m84983O14967
5360a4559l45541J943942J332914j184178j92715J22547l32540p60878j919966O60884J324948N5983n77417Q39024
5346I52448j61897p6515J82501l57676j33037J201854J044293q88307q29408n48598k31051J07941r1580K185094
5332B356062m40749l56035j05219N78831j28706K1601R2156r05054K96372k11358n73374p58295r12063n98354r0492
5317a734677R09700J177399j04928j670421l50527j380176O70029J428933J705736l12759q44549n23443j708135
5304b737818r87424k46833Q27489J82999P35070J479584L57361J0080L15541k39162J089352J22380M51429J84236
5290A544284o71846m15168r88784j6266l41069O00505L93396K01657J088468M61908J556843r75684j742110n19768
5276A76366j662325k833168N65897K557227P57209l07484K25110p06111J370524R05605l92682M11171l405L82920
5262A446854p56008r09114p63522K77042J789559O63527P67539N11090n71883o86795m40383p88489p38199J3815
5248a84967K031024n59173j085522P4403n33580O7778J850758J66932M13965n94841j00239q32727m54609p60437
5234e01235j458473r51595k51438k51155M31960j786N70810m06511R2585l30023L57448M29401J3057J90969R94248
5219a071738J259193L46918o43722r58624L21670J295981K41158j031771m34053k32511N41751J404362p56160j38346
5205A44108J308317P59200m08560j986389m33064N68793j441778k62547K25429R91966M71902j121171l80365K23347
5191a340812M24703j510101j091575N76544k45958K682541Q41782r60803R83832L6045R37613m58684o62168J132639
5177A345598K18396L04225l9904k18310J059851Q48441j296108j490244o58300j112118R15951J220481k13509
5164H84450j051626l43022J676196l37921j279528o06124m087j6227p10015M96444O84902m70025N37338l0916N27403
5149d2758J584962J37499n93788J036780J561688M29246j296801j311322p9128N98244j086773P30895k05457o50639
5135H12648N54156l79647p76014j87869J097308O4965j73592J91098r27347J05386Q09779m74624k296608n73406K816
5120b150951M07132j480326o70535K797181K514435O95603j338019k51877j58721P16822J490731o88583r44487n9632
5106H78773p15522k68497N74591j383552j646105N94159Q09027N66315P49201K759050K025249j044380j922537
5093A975772j935462k554799Q04648J130435o01997M64250J862442J152116l12969r60012j289893j310743O62474
5080i13738n07463P33289L72311n5705N84105n71936j448025L38950J369257Q59092J49113j87632j237366q49477
5066a365225O59204M89203R96031M40856L89904k28326j049100k411855o08242J589570P86041l39374j207909M39181
5052a420041q6243o99500J00490N26533N01418R75623o88892p53110J081650N68649O64898K43642m7242J462374
5038B430249j93690j461028m34120J125393L09863K15204K43189K9014j1219q07060j816007j921955m09655N74675
5024b127147K868587K043056n93564k37303j211554r99710J173483p51002o2739J202481o06192M38915r17967N2959
5010B72303K61084k467602j756810R50757O25900J149649J783786L37874j46183j202974j081566P59737j14584
4997f28629J052580L98588o53080p52564j980801o38778Q32769J319531N29064k66191J043427J171333o03930n81216
4983B42103J61395k74643j259908m61088N25563J274536J69350Q56339p31715m33777J048199J81433J340330j266519
4969A371598j760991l31102n1047L74358P03995j279994R06699J315936L26552m23798N986j052112m72071n74456
4955i40447Q27980p39009l01938l90350o5175J417417J043236o27231j491312n0257N60144P67269j183644o78316
4941a851633P19511p49030Q85365N34448R11803N83734j109618K18350J96333j11811R4135K077458j401902k476095
4927a478952j326633J609009M53773O47795R01675K88765j390202r75483J573736R54441j42696k649014j933781
4914c467567L60273O95678J62640R63862J442994R43490R55264j13205k530891n14269J068174N35065r23462k57701
4900f79655K93008k83933k63622l12789Q09840M70640l40232j578844J01918N27163n37151J403973J164356m39975
4886C34697r8466n76527l41648J926663O86278k05324m49602j387815j256669k30099P42968J91133J173657k6883
4872D82363j916888p89217R70092J659771Q63639n77021Q2127K74397n41845j65676K42953o63302j260756l6165
4858a375528M36699j050059K036147J981974k479173k485316J41915Q13751J249167O70760K97679O05099j032810
4845a89695l86081J30177r19461j542651K75067J126093R70425k9791j404862j87214L71363N34153O51974O08102
4831G599L99927J039706k375249j298317J996579K558971o28037j368523M5100o07088p65521N761P17238R45288
4817F73434m01606K46347l07125M1162J440043N90519j397481o22465k17640j157331j23816J2857r64669R24222
4803a263549J976619j9294M31809J205549q064r96536q54096j3827j96032Q37250j80518P57816K07876p7838k275668
4788d68503K00386J631012p50451p25285R7746K70679n97283j228187l51251J180493O71555m67996L40849J01011
4774i5225J14180j7655q35415n20350J190120M36990j035619O14363l2852J324518m45947j268797R48787N01911
4760H79009J121327R07358k022328k310572M93010L29596M63433Q98606J067040K100377O0620k459802j167107
4747C60567P50945l73937N33308l36485j544108p19835J343666J552063l41884k54315l91871P75930P63682j791441
4733C26285j302843L7025M98143n38677J243742l59394o02980l36683M26231K8658N04929J138657m54599r45341
4719c36847k33561o64397O94287n96591n79234O01043k74540j444889K316993K188017K16761N2507O39380q69795
4705A709134k139637k62922N11474P82757M62q2552J58322M22474j80763p62040p43413r61407P03358K12964P64619
4690A32830n5372j18235L6028L66157m09320j416149j478643r07745K259803K896888M41607p21856q82357J451702
4676A595338J501316k129470k837546J078599J289573o11803J21820K088518o27561P42817J73802j423102j086187
4663a23886m86527J515410J809873Q82178n02608j974578k007215Q24222K170134j266342q02846n22315q30068
4650a314568j21667O04444q28101r0281Q77102j41788P33384j337178K47800M55471J11754J95940j527824j150138
4636c285650O43137J520209n57171M04891K069622Q080j048567K60344R4168J65014L89087J023166M99002j985791
4622A99541m71421o64760M54356n14036k55283L47335O06304M95146q8226J01520J34816K33373m47777n06267
4608c75379J011264J51043K54701k61001o53132j168624J029800J271768P8974k98592j766366o35186M97642O2453
4594h00635j106772k25722R96244J871194L99548o75173m53640m57531j229545j161395J645508J403426Q37652
4581A043159J446797m8607q76995O76349j212775j322980o05809L16600L15762m77619P51116L7712p88899j887878
4567b634067J44358J185146k0474J819664j53754j07251K11300J21873Q32937K07597j215510m04223Q62753P68078
4553A618427J630447L33798n75514j050447k327235j534133L87014R49966O10084J06636j133029L21731M69147K2765
4539a70343O58012r13325j686960j015642r83414n170L36169l65668P08581K905563J71162j637055j81967O30435
4525a549622O59389J289141J258325l78251j760168p42833R45061K25503j85852K49165M57080J84097p28P85400
4511A435707O41853j812194k001616M7432N71606J954878J159729j226768j869445K69043J717731q5466j145703
4498c43213k50815k071068l42783J959182J96856J064141J378945l83100j050362j638962j07297J445414M37299
4485B94237J69993J67419K61997l47412j02547o46030q46821l6799M86671m03486j01795J470446J575467M30637
4471B371977m48265r37814j414240o07728l0565j719252J32297K491286J963501M68249p06759p93154r23212j35018
4457b88697n66573o52980j627376N14721l75752M92867J945240J85426j388007N11179l70704j529j312841k00582
4443c135608L37212K01547M4224K94700K305494R35297n12415N9324j137149j020680J711923q42334k08233l4020
4429a000718r11620J77752J29587J655509j56173L54138K52207l5762m63406j170959R94297N57776q9339o44278
4415c50989n75210j707269K38821R3930J057259J325343j4648J98564J257479K71994J3995j43905l87150n79470
4401F98744L00302R49713j237428j719749o69337M7810K2318O83703J296617l00228Q87599q59444j358548N21751
4387g36177L7321K99343j218300j366646J263589J545371R61359Q58198J51064m63299K01843j442020k011824o85370
4373b605548J396739j685157j943858J014984L238619K383259j695232k054870j699666Q9614K094593Q66009n06435
4360a106949J37593o17436j085348J25719M58901K78724J408999R54489M86m33176j97495K15344J426565m14667
4346A151749m23405m54448j361594J7112O40883m18766l4837j087387N80656J101847k42889o72594n40875j332405
4332c076953J763248J035633l34153R37197J01184J26457M55015r26869l59797Q77275o42839k01553J62069r25082
4318a009168j255397m97655n38828P6720M32775L32751L2848O63014Q86341J35321j36589J836273K30678n80505
4304F08579q01576j208189j341552n40067R62043O28273j28998l69187P23361j21950k64770N71949j032395J76269
4290b138210O53936R98884L2024j372985l23931n05452J04025K709415J073540j005921j64317O12318m25669j451500
4276a203843M297J222375j56443m20202K25040l14233m22498N75953K1842j588885q23626K23015J150174J710399
4262B03365q50497j606513j003921l79547O47705P26645J186317J053369J377721l28812o78438J16074j573046
4249a109578p46559k78164J267168J139911Q67689J001085j529858K96047L38729m60826j737103k339427r22810
4236d213696J850887K708346J549039o7360j713507J9133n65464q99772j009420K02842J040833J31387n9977P67842
4222b58887P945J73854q01996k20745N39979r60479J529132P54938R54370L34302R92916j95298j164038l99978
4208A286015n59653l10738J620727M79511q10430J99007p17417j343162j652344o52767m69223Q87130L81483n67104
4194b228965N80314L40557R0269k7404K829346N56569j528714j659k73993o23627j438858k65854K101888P90372
4180I00241j028371o1342M16873M65467k68970J1753J34128L95775k10540N59528n78272q74907J594982J50372M8908
4165A655625j547382k47622K57238P51376j362124j137178P0399J928310J564233q83280o62349p38806j602207
4152a953767M63429n27683M98983J700549l92228p04270K93747J77288P65179j201929r60226J049942j82456M90956
4138d82486Q85301J112061j365557n57685M63397K71293j84315P24372j11567p52075N64593J445778m83015l24366
4124A205729J74357j71033n24262k48301K57783j198612J22200J339552J569329N59719j017318j021689O91769n9221
4110A680002N34638j295540j708779K23422Q61719j77646m23466N08646J647008J276281j715673n68561M5179k72195
4096F15035j156794j27288N42618P41884J057661J629818q96868k321282j015921N87057J039147M19868M07734
4083A522669J902621J025032j117028j279338N61853j365524n05090P16269m87931L8652m53776l3533L72248n57854
4069C39270p49910p31027l58953J201890N47468p06452p389J09841J882539K66382j613733n28576N0381n62225
4055h60494J224920J653288R7105j761900m15052J26735O65549n19408R06666P79321M70472j39143l09812k76004
4041A642243j552447j427862m51284q58865m08060l52887J053292J951585J355377n8667j079113l58459k09386
4028g54533j587152J274485J553301L63288q75002p1918j011971n6227J108671q63297j746180q00982o14652J206982
4014b875187R73409j48954J002182K96894k4989L69958n5248J337812J087178l7045j842519j834710K26164M80945
4000a044110K076323O71544P0360k89647L95831k69951k480505n35133O30864p49719M4970N75651J399400O27065
3986A122943Q86123j071574R3501j117595p79284K27414K07143p98957n19990L10050q58563p64109O10153J436352
3972a016393N28828J908647Q82033n74835m60539q0251K78116o56484p45724M94785P15811J263570O51546R87266
3958D176376j66928j278145j488823O86856m68507l57426R94080q76346j056755N12396N64020L34958j124074l02719
3944A48963J297449l2233j049338n69957R91608N21785j252290j705464M4212j33671R77390M64011K25829j19814
3930a91520J096221N37105k03422J46701o23999p99114Q08887J338385o60377l64903l57915q91686j917060j45055
3916b227752k67505Q62254P17011m30004J981185N68477J90692L4886l04327j231875J97064J352191L60359j278482
3902E24174J064118Q72558p34168j294730p88875R05195M74567r03997J93070j6320Q17734P3503m64128j406494
3888f83793p08170K37028o45591o65294J477937K032423K668503q18932q64991k73348n4350N90316M21670p31343
3874A982065k109332k3436L67035p4136m08464J590740L21368j618321n49381J038174Q48310N15055k82415j255778
3860C41484J113276K199434j858510j339816L65827J20403m54389R58212l28743j044894J402977M22311L75702
3847B273274J260483j930524j161941M03837k394180o39271K020763k00749j69492L09205J310393P66825L54948
3834B203571m46459q06349r01048R4818O81172k37227j268328p08944r2070K53153J289776R67760k30721n2728
3820G46376l13616J313737k41837n83115k26350N38780P7226k22262M1048O72351q95862j809080n70297k66196
3806a739097l05111O41695J695631J346949M56698j848906j2110K6572n28549J392852J06250j108129K96376n70934
3792a49813p32455O86731L02629o80820j664429l36437K546766K137405J088610j95043p67588j20945J6008K34176
3778B364795N70650k282680j062227q0081J03429k56761p5723R83771j45939q79341O63317k87237j145996J4276
3764a515747r3709N07313j29151q86706N60478P61868K95417P64114J329524o95281k335079K60037K611194Q55100
3750B289372n93243k096930j570686J118172J958666k039472j188068R58289L23686K57847J174674J22671N32623
3737A247601j011698j109894Q3564j783315M82505O74958l4611q08010M67040J789063l3834J99241K22907j449848
3723a064331q17249O91494J975314K077179M87602k377238o41998J843375J284588P97412k315420j440542M83986
3710I84172R97105P00671o77912p90699n43233Q4159j654246j782153R32321K499895P04320j769400j0306l01395
3696f26701l96562j136109k88111K7027p506J742899J553086J610136J066653K34926l2669p9425j282527l79422
3682B005695q05623O85690j4173k015744m14522K70548j74928J08706m45049O06429R0170j116846j25548L51856
3668i93339Q74302k9476j84459J213041O32682m13448N08589O78736q21583j144839o56246j09246R10197N35209
3654A000120m14042k6302j249877o79619K74005N18354P00447j78904p88041J346011J587409K06433P62632j064940
3640A993686J96248q45036j459290k5999J209276j249791k210610j045462Q8373J640636J254861K51129J23807
3627g8172j34822j19832k35506K81780J2438R74581q61781j188200M69878J38934k82385M84385Q09041J533528
3613A803867m82861j208626j092530j227764m88115n55713K051541J766588l38378q76634L52911J30644K34248
3600F9178k176931k92888J361211m13101L67635L93485N42987J71375J094883O65440J49159J016013p61005k107594
3586G9847o03891P62175j041847l55414J234009j761694m69894J350611M21264m92305n67248P41948o5634l52052
3572a120125J810703J109900K74135J58074l29647j199400p34422r0017R95269p35631j640256l28559J857384
3559B7408K622813k31924j274339n92487j298786j116170J715250R63091o28395n11601m98881l38641J003477
3546a59185J110943k35696J182490J069923M18118l40130j033838m00901J78645q22233Q11752J52558j362214o83462
3532a13230O94203Q27565k99552p08389Q67072j185144m10699N52320q74451j904106K19926J925797K59681P8876
3518g0131O26929k21908k5127P28792p83907N75470J133140N4874k42748o72206j590188J24082J177379r53914
3504a39463j73013K65568j248072j093046J199461J093829N98051K6025n97895L44534j716864l83018p62532O7652
3490b518783J95657m81197J318145Q44073L43828o373J096742J88395L26127n70421o71406j819281j452535Q4274
3476c122755l54825Q89643O13955J115242Q8350m05168J159739j130702M67807R14774j18284Q68664j373108j215578
3462a602246K89994Q68567J127285R46677j101059Q1340k475093j409344P87219J333835J497746L09707j566263
3449i11635j059455Q61561J024469J081456J7666L67510N69117n58221j173809Q97628Q06797o92267k06358J232396
3435B256855l45907j074293r98016l33292j53629P06309J818252j330892j011886Q15583R53956n05206j028493
3422b30659p81864Q28104M76342n29813m78050k18190j87086J97492m0884k7907J762055J83692p6954P71447q8024
3407A559701K00391m16889j884783k184196L38770J286387R58837O67469j52489k48153N79339r70924M17343j46015
3393D788M93164J432167M08960j345686j046052O43783p85927l09864J11061k090805j336818K866374J175254
3380B20399j231830k56670J606598N06832j88101k11362j546619N34103P89127j653694L10496L53360N60564r21177
3366a127974j139350k90169R61378J008941p82951m87448J9930L41686J70071K057805O65325o23636k05115p23596
3352a55103M3186J320633J727047J741409l34183r8010J09563j675440k033266j518026k01675J81835J11819O82629
3338i7582K95011j125657p89351O89610R46113L59247N76290P33708l04108r24260q44748p02641k071738J255228
3324b004878P21320k90347m10450L56459O29103j415385j553331p5337O92392O57681k04400N25621N44125n05381
3310b332808J221818J731559J048323J85551J98663l4341m36846j156272N69981K146773j941503j188820j51877
3297a39799P61103O37379k344880k171575P35348J215289P48812K15279J765612J018991o70752j951554j480796
3284a661543O82880J663876R34347j209495j179378n593r76304R32595K048168J029755j263252j153792N23802
3271C66066m95840j449824P90749L64799Q33346r38029o23383K653928J156704M16774k24408n56404r11704j235386
3257A47388M41587R35452R19584K1205l74314j190002L20295j65860j193767J94636M79928M20548o35106j62022
3243A59552n6779O26115O7483j57213L73117k81352o93548p08889O8477Q02941J608259M03897j673091O7842O95015
3228A301826o10124l63457n39682O05921r25648P62055J773197k64235k213731J06740J492743K89151O91170r16064
3214A189862j337088j125409N34229n12206J98317k27924p8977o82198j69106L30877J8826R3724L86115J738135
3200C57177j001498n7850J085059M43277J18290q6100O7612j815382o46880J025606L84657J062042J035687O27494
3186B599191M27976j080557j82821j306308j458221j663709j66925L32627J251526O78884L9762M48695L43432j49680
3172A13872n31944k99073J471701n71647r68940M73963j89718R340M94565j15600M5926J037868o43193O86445k15896
3157G97669r29651O2211l55036N63157n08765R41497N00612K6022J252936L49084o04651n62480k39667J497461j4606
3142B775793k044674j466405q56217J032429J203019p27491n31663j032016k6882M18450N73690P11635k34413r32894
3128a137639J06638K576404p41235j052862O23089L91806q98641p83301q03509P01179J741053Q83126j357809
3115B48299j491333N60733J785779j55906j488951k536942p11121N90508K475166J386554o99819R66576K778207
3102C707750J41930m22305N57192j578781k202602j648584L90302R52720l46270Q97382J399716k54053o59258M66444
3088A401583j64929J32018r31379j287404j23305J689812J042121j10850l19823k13651j051132J23920J135656
3075A322637l92602n49618j6244j64148J12504J083370j033379k17380K181942J012239j285955m93381J39984N66737
3061B266706j122862j372495m24199j77897N50256Q68501q07387n78616K03327Q82264L4844R81632o71051o27153
3047E870P47095p71515k73926N45293N0554R76906P85164O51429L58261o34347M60270m86538j779832l55392J000824
3032A280116o39551j247891k314321J392996K442028N06534J019329L27401p28315O18864R68150q20825n90028N2055
3018B266542j336009N29245K2973j655028k69450J48007Q56163o31668m83050p31082m00509M1456J069747J316708
3004G44045L68731j682705r95331K543549K0848l41940m6438j888675j492916q02269O12387J474049J486327r30660
2990i30998m5553J00174n63101K36938N18326q73896M4862M20158O89882J152057j074284l30385j94946L22745
2976e28021R13914o34456k77005o0152n36377L95067m77711k19597R77301N63819j036566j698880L27956J866092
2962d24616J389538l6077J114560k96234q68060J23184m13632k313941j374351m54772J204114J408090J416623
2949D74426N53580j631370J105796J049516p33271m43919j80912m59803j20663J182064J585871N5093j245401
2936A191007j121210J15170K77798j434634j50036k48547q13538O40569K292580n82220m9214J87268J82179j071144
2922e83972J068466J466423J090701r7640r53439p48336j40015j236260r22840n33281J38592o7668J066826Q79560
2908D27117n81531j556142k038479L33311J862471J337357l15061J007537O87269O63935n13429o90176j216908
2895e92729j33780R80363M39430L91562P27721k32779r0552p32926j82329M96740m44964q30153k09525K96970k29473
2880c46424m52045j34752J086038K84839m04020j600686O10874J073659L06266j875054n30553K737624J539862
2867B295628j047331j268185N1224L08533L50537Q8438r669j340899j574757q48666Q31004N27767K157824J864260
2853B385708P64401n20479k043029j368672J70871j008365k220625M87288J753896J066230P0162m53134J18428
2840g97320J113554l18598L2032Q33337o61154P5991J001577M71190M59847j603917k753631M82524m5854L00258
2826a410164J717073L83012M25971J01030m48893j596241M06010K211800l75669l71147l47591l19304J64790J57617
2812F98294J791884J97212k38559O38096n95045p56356j191149j101578j032284j677466m4488J036635j58201N88386
2798a844619J417368L48946j177010Q90179J723901n15727m34489k45227k08923Q15077J72868J659254M8299j751155
2784H98742J3469j524337j727699K14363J598549J499811P65360o33406j75972j719300l87873l86850J45210q93955
2770b313888m27578L2302l5425J486688j36406l60646j543587q37509J612782J445718J022272L41387o26448L71572
2756C1234N60984p1575o11983P92514R36565L90523m18857n98147N28998j079512J59143Q95341M9147p33480j132127
2741c01232j640018L55750J324063O67981k72860L03587k17953J278754p0453l49165J15589q40544m62912Q94939
2727G85526l84279L47388J607645J650037k053115k422589J86675K76541J6401r45630J44133K48841r92237r26615
2713b461278Q44167K350803M92564r5434P42407j118372o56723l83233j57689r30034p7330N26379L24365K06314
2699c93094L14286J063641K28215l86769n02915j409674J092573n71627j134152j26988j66989K49258J207465N66932
2685C0162m64600R7372J75574j14722j456785l83688j21814J7920P32173r60302m61149J922471J374545j95580r9070
2670I2507J216736M42062p9997j42944n71514l90011K44172j68931j030071q05850j084548N88846Q22557m57444
2656a324430j179796N08169M74411O85180n99813J95960N81267J837312k2648j050287K84846M0679j178634j009237
2642a757021K66091Q56387p12505p18298J323349o87615j585348N21882R25204J799754j165222p23141M3107K20006
2628a393370J230992J101689P99321k78589k126365p19908L69800j94211P2167M53907J14165M25416q78499m01372
2614a424857l19488o55861j338788J517603K085696j33132m39041r21923k93000R21495P79603J025063r32667
2601a29297J317416r98635L86877J803246K13730J007890o65137n9983J174421r67478j054078j345109J29477j33291
2587F80049r45781J115139M649m11954j425j26647r11345j547762q4664K265614M52372p53664l33199Q8159l27590
2572h38049j179357n68930P31843L14009M57438j70171J115727J150508j393813j979315N72199P67258Q54713k89355
2558d55295l51305R82747j39433j264119r73602J383400J139933P67493J54358o31438k156471j097885J133023
2545a508594n33352j69199K47121L30938O89098Q39183j81409j00370P07905N16551L49984J64886p5295p78320
2531D99127m50899q39305m08916N17041R20767r10414p11206J834582J367848m95992J123350k0589N85150P08935
2517C719479q25765j320927j231243J652205l36081o30979j08013j243498K97496M3259J22800m28318n21756k89489
2503a100830j549696J950329R15829p36922J697532P2933l19869j834742j077336O24089n81473N34473Q60279
2490e45404J534815R3689r72765k997192j37856K92737R80723J700312L29794J97123K81790K86081j015033j593408
2476a564594j475945Q20094K105075J527664M44366j839021q45312K283496N74136J192948M47230j40288M10319
2463C940168r65597j625975J371923k24912k61824K81182o45541p66196K30681Q34685j50852k44173p61872N3747
2449A065444J45234j488453j339837O12335N2846L01198R60832R94053R41295K18191q31401m36243j048762j006433
2435h59701J301488K103512P01456j767043j772518j460133P86921j50632j13133j10425P77158J290438J201206
2422A928594j137356n74035N02690j69009r28054p81506J121834R43893L53742j480248J18516J27086J020019j74363
2408H71803L39035j019234p87272j383451J73048J710419J514594J298373p5545j181085p49942J120246O54726
2395B485715j148885j810391r87998o45988M51270M96507K023137J73375j187320m05952J428878K076844M2338
2382B991530r10408j572121o00499O77705o59612k85924J099295o22532j060670J221080K68748o73170k41557m27666
2368g95801J569009J715056m95433j352074j352335M70946J845002j72697j236072p55652P38707L1820p20701N35173
2354B4948J164781K160207j949835m190331L224R36773L22988K49801L95368M87274O73203j66264p28661o01225
2340a217749J56103J891792J122688j305289q39122j078583k07684J935655P71544j620798j686495n06562k99145
2327b883645R59061j01273J047806J052556j750669K36170P2976O26694R99533M03251m69085p82784O12317l70425
2313c47517o90624N93521J270145n48782l75669l22279j588281j11085J101765K75136n06333L3066J011942Q09227
2299F04232p87847K291394r8828r74301L89807j260425K21117L01859j874747j218684J342375k5988j389403k60989
2285b740428R65565M44903m1430m5803l08465m12465J324496J213237l74022l76766J540832J742462n42373k203744
2271A85999n34269N07344J20273K9041n91032m01387q37211l06256K057888J008632j427993L99871p45178m53176
2257i87454j062815p67383P45748K548098J79504J063734K64030n57163p08277l95311j1653K5479n59925j06361
2243c29749R36554J12125p2305P45753j90420o38030K70268O51725K07208L91261p2209j073639N96234P40525m86170
2228A789131j525527J231031L96814j661194n69474O15479p24505K93548J299852k42464Q67446p20978j443901
2215c94742J140620N61789j337281K89747J332027l02933j017041P64341m54667k271693J022122J605226K06724
2202A144239R00386N41393k59721k77585p42704j039885p48230K7533Q73798J168106m21389o26208L67736M94841
2188A402310o46608j026587Q9140J397626n38319m82398n30803k36530P30066q0092p48100n17882L62259j99855
2174a025773k99870o4894Q60536K371763q5197r10193M99956n28350j384793q96468L52830o24508P43992j14975
2160a105944J177270Q85588p97838J55753Q37298L33108O73378M97255O4527j102545p94609r99135O42321J553973
2146B020400j204661p86091j082606Q84947L04921j30510j637006q59822K110841K28066j330390j804723L32406
2133b954228K327764K47717j561464Q71584J216872k87445j46662L80033K4403K18160M58607k66344r9849P30712
2119A159860N49555m2227J403164J143141j683771j466076J030790L47503j111953p73916m55497J431728p95006
2106G37295j691621J06750O14062Q02230J285764j242428k682693Q20306R41367j426140q49638O33188Q2484P7776
2092a791298O71866L6838m34395k77356J591428R68068N57440p15440n15224P61202k71478O72661Q71737L70603
2078B496652P6878j304006J041470N23067O73301j38623m31999P54108m16907r12766j852212j317232k33027J315115
2064B73819J16030M8852j97219m26713J171975q4551m22934M9048l89479n34776p34939r08217O13538L91012o5299
2049a099853j50280k93486J375610j7198j204521j107265R01121Q6164j010647J174550J996930l06850O26686N98758
2035A569719j587286l15121p85537J08948P01641o29543J000969L36047o3267N31664J38433O14411p87285Q21113
2021A654906J031766k93119J72310j38895m49316p74339j671844q02940q94854K84182J640948J405695O40650
2008A805150j067723m28202j02185r6328q99005j915810O7871J061754J013380J427224M67199l44847J042632O68141
1994B699251j562872M07596J815460M74959j227223k268049j631773K202586J534105n95703p61095j475047o32520
1981a020325M08352Q01300j314565q01402k15535R09207J388218J44224q96398o92329m17875K004081J396999P53355
1967B447307o7637k516966r39792J83588J307610O72705R53149j96009m34773J029623P28753O48950J164423K74499
1953E255430l65189k220847k099733r60312o06982R71101J120576q58220m99131J064157Q29889q59543j656392
1940h85196J29259K65724l71251J673757L65172L01210j06356l48503k56458R1972j012287J76510K504040M42433
1926B970026k330012j124006M31559L78393Q21958K73708M12363r38551l5829r2295M49954j67538p90638M50054
1912G09146p64440j096552q01683R22820J122250n25834J796263J447785K8467m76160r86744q76245k357005J9804
1898a838128K209559N86762q42476m24053o39993o2679o08510l51252J86726o51362K71506P41636J092942J328743
1884I99421j217451j282730N78062m9472j730570L65588P31029J364500J743816j025282J53018L43820j380017
1871d06268P67529K13864m42091o49956p77380J42091M54788Q02375M65017J41416J044336R86778n63507j086959
1857A092033r27881P13900M07118q8094Q03823O08013l36844k78501r1797j555953j178360J140804J231137m06240
1843A133158o97307m64553O15068L25145n26696J097766M26900j001621p25735l94877l45960J092327K530391
1830C064006j768239j181377q06246K62819M14661j844980O35825J947185m53068k142765p56359K222942K035832
1817A630236K01246Q24738r60863p34768n770j055155j447881R09273J029615j433377m33192L48888j96300P75600
1803e47710K89162j55823M14009L66957l93246L21873J120419P79167r00489o44123q60476l17989K341601k97052
1789A516280l82000j315609j371872J838470Q39674k016385j158939N52182N51650J398485N72784m32908k369438
1776a777626K25519Q85693M05957N03767l36828O1879O45900P00983j377347J220822J348042j96313j97823K42881
1762B355506p1051N46456n71692q08273j09198r85832p02497J765236P74238j115892l22082O64333n55138K52444
1748A116558L89350R6387q97957k57721n77761r47202r63773J774055J871136M95481J4484j411733k225929m00224
1734a924849K138230J207325p10286o01410K91444j77491j160926l61600j648121N70551Q90544J388956M73101
1721C75468R67337Q25084m98513J48751K09720J84702j550631j410832J68107J386858R94115p27660L25834p13093
1707F85247l78122M03202L22335J466618p75180j571414l43688J175450m12790k545944m69994K853126J360894
1694A769740l17347p58872n06262n71874J400756R97857n57355n33266L89090o44878J08219K058986Q98875n79347
1680C154322j634099o84346K24179N65979L14329j319975m5907J423949j646182q16044Q00697O7842j455603j757851
1666b808710l10245N04091J365648K170825R49403k342124q85757J459135J079778L62909j541282l8015r81136
1653a015480J77717J920312r99781m53515j6647O08808Q2775K4826O21030M93543K89578r25376k080029l32506
1639a604745J111835J094585n60075j935994J246062P30729q70673N38676P1355l07006J40764K37626J082397Q9048
1625A064584j619457N31994N76220M75030k40124J111597J581259p81556J49268L78180k49346q63888j342295
1612G71466j354278o62015N77455K62567J107116j7011q66308j336270j103953R20103J250391M17030R43349M23111
1598A332753J67720O14973m4579j045738K511872k14356k223389k163546q17570O28543J024005L77130M81401k30019
1584C99200m20042O73157J001447N76065k74635o15188Q64468q92387r00086K30935L47175O36494p17688l147326
1570b238411p7661J961816p33512j716975l68054J419515J634522L6200k622q46963j556258m22840L69440N52618
1556a989185o40265j089353j50076O57393Q19107M88743N54327J926437K55268j447987q91418J097269K269649
1543A859909k04257L62782j527400n87113J085953m32806q79916k81924p97305o75203p84973O6037L09385R37406
1529a549425J528667O88523j221215J68886J337119l45659j116297o29133J37706Q12311O00724O2216m53619J478157
1515A498961J446947j215280j974499K17880K68219m09258j071229j33406O31353K626859O00580o62361N73049
1502B397815p10659k44628Q9682j058589Q9955P27772j030818j140879r94352j072052R23111Q43500p39171l37408
1488b256721n2097J205539m77363R3456j408723k81987M53945m9685O16490O63526J79694P82059j03244M12490M6212
1473a76409Q68688J0980q7040j187849R3278J552334m94752j82258n06459k60726J181755j364579K79899r8937O1705
1458c10370m19498P85096k47103j313009J026453J535045p25259n05012J085188L28614J42028r1635K14413R81557
1444B486508O00302j948751q79966J261412q63752j465380L58857o67002O70192N07796j602201j28651N09595k46181
1430a407222l16239J376984J054806J4401J8727L53655k21486O92458J280686P37915j068189j425653o23216K36541
1416G04168N04636k30069o5351j270453l29635P0864j19065k84815J18480j296351o28100l65986J299714J611487
1402b80476M43401n93518N94299J813188n72126j846160o79399N02052j32543n6072N1485k07317l7620J240085
1388B39279n95335J13737J306053k34572p14632P86735M38597k81083Q37536M79892o69420r40368j065133p34259
1374a032973n13187q06937l40497J10474L76011m17532J431544J152279p04734M50488l0009r70673j611794L91709
1360b515831N08231L43733L81098R96920j549218o24950m67675j03031Q26066J25926M90830N41271K8158j212480
1346b230952j36525l23154O24657M4837l09008Q6862l39318K64608J574392L06339P80546j032847j284992L80719
1332a593836J623140L74944n88153j73079Q77851l0016o03261O68995k98988m93208J37369N04147j61481M6628j3877
1317B77175o91267K37314j17945L932j051298K26563J488092J220846l04224o94251J531380O54798n10939j504598
1303G65578k161183p2874m39238L44648J36612n40956j73243O0183k63935L72103r68911l47991k95172L19999
1289c264380K319187J181806O39192j38636n04292O48405p13792K75293J451872M59201p86669r99541p61540J438192
1275A244298J193286k227094r32555P60193K75994m84759O4987J770480n57026j408005p91316l76737P51480j6935
1261g33709j141255J16808q9224J452613K117997j259661l68511k091114m86795J996452K194569P60640p23761p987
1247A737062j97597L23368M14044k117J029015l27835q05564q05368p03486j15410j160177N16458J176583k075742
1233i96766o27286R71873l6840j099754O29466O30144l552R13250k9581K75190J429423N214k211669J26406J475409
1218A450927R37388l6024j136088p28140P97437Q10160m74394J52020l18302M15819J53464j117770O7514j362145
1204c88134j679182J322650J383616l11070j301970m78524j353917j91399K001635P52365J20858K64759n62324
1191d20637j372481P6269Q99210l77178j217382L89483M11293P66967K229698R33211j563720j751083L27903k6061
1177f94508m79865K10890K92043J696568j370329j229778R18441J06555J434782J215868k89273o31429N36855q10018
1163I06802k326466j135079K53050K62235O11821j95773q48950r0878J637246J809242k45388o56111j322114k721073
1149d061436J00865J578893K693526Q41031N77182r5554m12163j116182l86324n79708j971021j193653K230741
1136a793803J455776J468105P26846r53238l38722O56609Q68962n88902p94489j327202q5339J293963k51856r40289
1122f03579K17620J32155k19025J218562L76782N89985R70246O55937j301407j750918o22060J14237Q27581O00355
1108A206471j334793l00465r28837j325639J2062J204037J630015O93542q0105K1187j182719J131819J365347r27588
1094A184334p84137J587326J264539j342368q37432l52780r93273l63218J701104l23576k23965J119664J39872
1081A776090j535264j04616L75497j176159o91505J024030Q27603P31568K44615k95746L62580J089525l73913m13046
1067A841259j12660k635664o1696J366557j8603J31601j454123l78957M4800m16495J59659M70774Q67765k77533
1053d73316q36814M002R14933J082299m2320J079093p60401k16787j50381j492673k08499N61947j2805J372378
1039H20656J71725l80889N55863m87377j182071j171404J268022J338120m97369N3141J7942p94153KK71725k4880
1024d0947k82158r07978k086013K26499J470667K04211P41540M45444J31929l40032q08831l2130J050140Q47546
1010F19887r7051J65919j596500o82765O03747M12287Q02215m20712N64108q18900J53521P69281J079913j24019
996A430931n75182J135357P30408n00909j649832j392506n0020L08098Q46765j88756j77028j072104j12026n41164
982a807968q17555P62035J585098P68959L16259N83292L56771j33037J74830O26777j218724k004179J201148L22753
968G16459j934757P56071N2964J262222j91346P21340J11593k23322j84514j013434l15101j205695n94802O28027
954a414295J246453O72375M90766J534061R63274j134385j294414p69934p46803k069930Q96965J152948L36309
941a36610L40625n44885o51021N8622l11719Q56733R9400J438730O99466l27882j356519p78579J066755m21966
927C1150k27419m39783J542578j11509q6698M42421p07035j017196j085320J17110r78294k61602J007522J48542
913a625533q64268l29068J506479J533732o97594k18292P39687q28726O9810j93193P89449J575521J71075k559424
899i30345k88618J577890N8009M52193M77407o3327j120588J81572J085377j135K76556R84342n21073j427936
885G40324j060578L82785R62903P47309j169181k146662o68001o40852O0064J289342J318630q78306L48652M23865
871b89706j76299R25398m79808k343018R2105k7626K08512J489811p4545P53566L87280q54117j216290j045779
857b650516q85110m6149J244720L081567K034572J211290j803569j016155L77013P01579q19677j225576O37713
844H41702M22536l48954j223840P20179R69814o12422j291373J043646K58492j592453j85285J360403L3029k24745
830A70729O82451j529320j086162J021182R77611k00258o32659N7035P26900r63854o71654k74862J68842M57702
816a096317J022490L14408J36594J509268n25452j101097N42567m86187o24977M83287p62827M21599M45370l66263
802h7537K1137j159003j261332N44766J828029J272825l45662j585660o74533J93216J13604J119291J96428l33369
788a57800q77707r50453K75585J359771M12114L84531N5572m36353m59444r63P58103J043273k212173j851348j63612
773b820904J497378Q64503J561283J095087r85390m60739n16242k52072o44568L76232O99276M64988L81931j59405
759A101358p4810K45183N46081k38028j180583j58816J258678r68360l74278R1808O39199M96235q34900Q39870
745A388637K47191l83057q15735p2466j054654j139464m1119p15603J482706Q70517j030479j259382o60647J192142
731a991413J888852J220916j604303n72827J400189J04692j013019q81267j2102J785319J200018M39812J69808
718B134675P09983Q5659n84675N7460m80346p30981J42792J56495j98106n53748K79867q79658P7273J295212k050871
703e38969l085154r91730J41777j14705l02393P35755K458275N30948j498617r90783J163000J257365J08230j16676
689a243677j090908m6684R51535J68276P25699M34606J70142J59686J96723o699J13132O83131N31068M2863j76228
674A612665q7173p47948k247580j356365l46360J22354N77829j227314J717346L842695J241779j101878j698012
661C02038j930125j373549O06089P96411K27838J221002O67465o5860j195179P52544P2912m02746j141137J59501
647a302796J767787O27287p6482j116260k54710r04386N95809Q46216L38885l56524k136885o09259J324325O58120
633e98873K38698K32518J119816l42490r67541j20932L31831J248184J150999J04343N2365J77644j219236r42888
619D64438p48453J110552J359954o70303K2573K43533m75623P0861N62698Q31083o78697k561754Q5425R49437J36705
604G02429j36962N70005M84238r76118j13151o79306J231523J832602j85990r64231j63751j99595j495158p40431
590h33896N27073k65120j85116N52692q89328j298730M69888R18904J582699j3017J00311N55050j030891m27570
576b37051p44372P70944J106934K958R05631J064375o20527k322791o72652J203027l59935n56652M49316J131590
562A120795M98440j071708q96445R51940j43665j039882R58059M79017l16111l57764J97968J628182j419444r84055
548c94673j81898L35434J592322M2322j115403L25534j56728j464752j73364M14890R84055j05411j166842K49800
534h14714J204558J331636R15569j074415o71338l00091l21673R40542j95829j37647N76359j78496l81689j302212
520d09440l74014N81423R67389K22471o96241l02723q83183J209543J522495j007501k017038r08360P15031J240623
506a39525Q63986J278300j53855k20531n38741k43460K93115p01453j293605J014556J426230n42410j437859q78437
492a273689L28729L51214J367911N75483p02600j97733n12132k46649P55845p98941j25692K92704M56412p17153
478d46291j145771M06334J405796L58599k51359j22861m91118J063802L96932j591426K34973J361518k61638q72534
464D4956j001525K7053m80216j007552N71813J70189p08240J303194M14137j024633j27335Q43628q55983j194144
450c024658p38141J854924J965056k43089l96181O87995N59122j447431K82316K75560K48204L2380k45195k30905
436d20043L31285M45033q71643j848N142j82381L32725J402246m12030J42454P32743j073223r11570o91417l28656
421a501183R4990j27640J505413J412285j454184L86924O60581m72589o7090j120687k35736O49143O42055J78417
407E50699j146440p35152J34565J06939J025563l65605j667306P56267Q16190l14272M93098K18386M99592Q40849
393A213373J17791p170q01365l76909l78618J354335J223762o85379n92396m87844J17913K21720J31414o11281
379D39346j430413p78605J191029J547691R28333J296391n89661j114635q76693j807321k51740J778786R31560
366A264068j05147K2674q37202k44863L511m64423L70536Q04201P81054p51402p9796q38207r7676N01659Q1437
351D10424j20333m31490r7317J16070m78005Q6317r34983P6642J583279L68165J81063m58246j44408k86486n0088
336a79396l40376N16006O95506k0728j023996J23713J806053J030031L54132k37532j418687L66012l66910n90426
322G13402J308338R05414j588174k236709j321533Q29435J098934L71382Q68655K47241j441826j498067k7747L95055
308a376200O82716N23451o77219o39773L49383P24755O94078k59287M1159m9840O596k87020O97568p75628N10776
293A65515O2122p32902o25698J148441J760611N6610j661931j433603r0606J007372L83109n38723K37719J31371
279a30593M84667j021433o74263n68179j02040j16391R53230O12504J79451M14758L53165L05796O50389j93707
265A147354L34269o65990j072443Q8780j008439M95795K50710q54993K78374K36277j77582N78308R52951n98244
251a4873j766658j075384M32941P6449J783850J626680J140552N2886r60275l03247o41407p46947M12032J122815
237A139414R57649m0613K70063j06358k7407n23260j271123k57778m73954j67428j41086J90712K96538r56325q52756
222a963712Q26197J22425q14408J32564J662614M33549l89624j256815M41507q83261n5357M3893j266510O30886
208b336052K033942m45982m89148K12657n18713J89400L91004N70121q63674k94703J803099o52962p28345M62827
194f66529J48044K57105K65925l66767n80551l2934k34896k8546M29443l84905k77587l25989Q01683K66169k5739
179g56074L46294O90811J786432R98455n7802n63345L59006J06325j038490q608J92895o16491m85160l10207L05309
164I49350Q69397J122684j208939j687655m95803j82012M24209Q38683k92787r35401J246178r20671p19534J746546
150G54245O28391n07789j294717j332848R59761N82300j052597Q85910J185547K45454L84488l3206M4903L61575
136A811417L2252j45444j162623l17543Q20315l35078q2407J61602l43414n76996M83254M69296O723m03874p92334
121c74854j24587O90324J237610K3607m88209o97012K46562m54290j132376l05161P66965J414271L07991m03854
107G06987l64736J73349m97424K84488P89173J45212R24431K22744r70319o14429P3740k8895j023113n51595l67055
92a097442N60126K11029q12829m03048O94025M5887k76389L87916Q33046N48305p27339O16923q8440Q699o40295
77a39826o43930L2969P99228l74308r73166p90313l03390N42727m0856k5693L9704O26888K65043K60976J75387q3370
61f31930M0944K10266l78398k40263k09994P19556J244917J280071m27473q88464J48526k44837j038310m67838
47h83227P83167N75522J257802p0628j685270q78193m03268N809N35045k48881k76677O84786K42918q92515l56491
32a610101N15354O46706R48272n47106m27000Q4498k33489M1336o6101J65292m70525n9404N91684m92965r32408
17a845957J59510K06882l9460M10042M729r27267R2933M67709R80643O80359p50542j237497k64219Q72420J028087
2a61628N46583m9757
0C35198
##END=