##TITLE=Acetic Acid
##JCAMP-DX=6.00
##DATA TYPE= NMR SPECTRUM
##DATA CLASS= XYDATA
##ORIGIN=
##OWNER=
##.SHIFT REFERENCE=INTERNAL, , 1, 220
##.OBSERVE FREQUENCY=500
##.OBSERVE NUCLEUS=13C
##.SOLVENT=
##$OFFSET=-5
##$SW=225
##$BF1=500
##XUNITS=HZ
##YUNITS=ARBITRARY UNITS
##XFACTOR=0.8583134331774381
##YFACTOR=0.04656612875245797
##DELTAX=0.8583134331775
##FIRSTX=0
##FIRSTY=0
##LASTX=112500
##MAXY=100000000
##MINY=0
##NPOINTS=131072
##XYDATA=(X++(Y..Y))
131071@%S4967JR9962J12869531K034514153j460820926o82969528l692859l34%s1160K1742M7647251J710303344
24933A757972337o67453878j079139594j1376868j997%T4929
0@
##END=