##TITLE=Acetic Acid
##JCAMP-DX=6.00
##DATA TYPE= NMR SPECTRUM
##DATA CLASS= XYDATA
##ORIGIN=
##OWNER=
##.SHIFT REFERENCE=INTERNAL, , 1, 12
##.OBSERVE FREQUENCY=500
##.OBSERVE NUCLEUS=1H
##.SOLVENT=
##$OFFSET=-1
##$SW=13
##$BF1=500
##XUNITS=HZ
##YUNITS=ARBITRARY UNITS
##XFACTOR=0.04959144280580754
##YFACTOR=0.04656612875245797
##DELTAX=0.04959144280581995
##FIRSTX=0
##FIRSTY=0
##LASTX=6500
##MAXY=100000000
##MINY=0
##NPOINTS=131072
##XYDATA=(X++(Y..Y))
131071@%U0539M2076K9906M9494Q0749J29864K05873L21699M95465P52093J125121J658707K409644L449186M864347
100518A5614224O758286R249276J2467744J6550853K1634219K7840538L5265195M3959365N3911557O5029125
100508C08280382P7121715Q9888965J02914958J15671727J27533601J37803351J45749841J50655520J51870654
100499A407490714J48869856J41305579J29052857J12239851R1259868O6762068L9620391J0882463j8297389
100490B129186258m6735063p3296401r6972236j16941817j32619108j43678388j50057959j51943083j49731339
100481A067210864j43985109j35376781j24632318j12478376r9597078q6591197p3961043o2093012n1258584
100472A77237366m1621826l3253009k6145862k0236230j5420245j1570667q550527o223716m462496l152248k193900
100461D406640j504536j016737o77119m44423k87494j83308j15207p1373m3588k6241l6614%S00450
0@
##END=