##TITLE=Aspirin
##JCAMP-DX=6.00
##DATA TYPE= NMR SPECTRUM
##DATA CLASS= XYDATA
##ORIGIN=
##OWNER=
##.SHIFT REFERENCE=INTERNAL, , 1, 12
##.OBSERVE FREQUENCY=500
##.OBSERVE NUCLEUS=1H
##.SOLVENT=
##$OFFSET=-1
##$SW=13
##$BF1=500
##XUNITS=HZ
##YUNITS=ARBITRARY UNITS
##XFACTOR=0.04959144280580754
##YFACTOR=0.04656612875245797
##DELTAX=0.04959144280581995
##FIRSTX=0
##FIRSTY=0
##LASTX=6500
##MAXY=100000000
##MINY=0
##NPOINTS=131072
##XYDATA=(X++(Y..Y))
131071@%U1376M5966L2496N3658Q7338J40135K21639L45522N30909Q03996J199923J764779K557617L652208N138229
99681A6574415P121451R722435J3073195J7311352K2571345K8972547L6604426M5509292N5663719O6960221P9191203
99670C99275601R2037593J05064608J17726915J29384863J39332559J46837280J51188342J51752043J48028120
99661A580627924J39702227J26688754J09158636Q7548059O2545602L5057723O154722k2998321n1219474p7389456
99651A995876396j00525269j19841210j34792021j45094961j50730018j51919725j49092052j42831315j33822697
99642G67227128j22796041j10473941r7528034q4546012p2010427o0289038m9635331m0197193l2031276k5120649
99632G2599186j9393485j4741034j1033570q133566n905769m224259k976773k066813j414003r53292o33366m14729
99620G08527k67656j70261j06757o5985m0204n7664%W3436J588J129J870L052M910P788J2174J8756K8484M2627O5062
46167A87440R2900J33352J88664K63064L61495M89544O53300Q59099J113172J421177J787620K215217K704217
46154A2470261L251746L851259M494119N160990N837042O498884P121611P678807Q143947Q491944Q700697Q754110
46142I0455417Q636726Q346366P884143P259431O488743N595162M607458L558991K486435J428358M23694m89867
46130A46681057j277574j909322k361337k617722k671746k526745k196480j704873j085035l77622L71404J113450
46118A29437455J800192K386441K832763L107625L188931L064863K734053K205111J495675O31075l57221j433277
46106A51093686k558376l692679m796825n833437o768559p572937q223171q702606r001953r120351r060770q839191
46094F6922831q472803p984821p401532o750667o059790n354848m660013l991171l367751k798883k291257j847744
46082E941551j467974j149031q86150o73391n04237l72074k70565j93899j36950r5335o6666m3700k9176j9198j2449
46067B0756p958n013l114j906j151j614%V5K075J461K411L917O276R912J5429K3672L5796N5042P9550J15370J64914
46003E15825K32340L22603M41446N95295P91069J035863J336518J699063K128040K625782L191645L821313M506211
45990B3243013N235757N986073O740202P470794Q149359Q746135R231703R578735R763724R770641R583349R202333
45978A22701818Q630977P882121O976506N942034M812710L627348K428072J258676J62851q17686j645125k287520
45966A59672782k720657k929745k910751k671231k230535j619238q77803n4479P97408J622590K367162K981766
45954A51427269L424410L662700L675339L452846K997499K322634J451399M15135p48436j997150l286316m570601
45942A62226728n805821o950640p968145q827265r503966r982169j0255657j0320845j0192526r885236r422044
45931F3112414q830652q141623p386510o596102n798858n020635m278588l592245k970659k419907j941942j535307
45919D599386j195919r17868o94151n17300l79898k74946j96109j37860r5518o6438m3390k8833j8883j2188p755m863
45903G467l006j832k629%X77J656J174J939L161N077Q038J2544J9295K9252M3704O4346R3356J33455J87963K60799
45208H65759L56449M79835O36113Q30343J067064J349732J680087K057457K478065K934423L414884L905364M381339
45195B6436914M822951N202949N494137N670119N707393N587509N299136M839750M216813L448224K561949J594837
45183H0882681N90624m02677j335828k161586k837836l330383l615182l679871l524515l161560k615027j919060
45171E2889780j115936k53665O16651J443621K178345K777090L203702L431656L445580L242180K830435K231031
45159G6920470J475023O01797l43541j313167k259677l139113l913646m553654n039096n360062n516522n517355
45147D2041457n378809n122572m773679m358446l903915l429229k960058k510697k093498j716710j384855j099289
45135C309700q58856o60568n00240l73053k74003j98234j41285r9206o8637m6792l1435k0813j3581q734n537l460
45119E266k131j294j841%V5J996J415K339L811O122R692J5127K3270L5277N2709P9147J13701J62798K29711L19409
45056A056524M37638N90832P85897J029892J329571J690798K117855K612679L174079L797024M472080N187272
45044B8282141N918649O647462P345839P984921Q535147Q968059R258175R384787R333503R099126Q678808Q085406
45032A27522023P335039O451630N464592M407332L315663K226253J175200J96737o77903j421542k012010k433072
45020A51549942k675277k736691k623408k349744j937978j417585q23906j96330M23925R96229J482948J851613
45008A41543738K076663K140598K034523J758044J318657P30738J4316q06240j703469k647971l609408m557410
44996A38292779n462411o296483p034208p653570q136848q473023q649837q672983q545327q278285p888388p396212
44984D5805204o825072o199575n544169m881830m233859l614174l039638k517942k054519j651362j307581j020029
44972B915454p83970n93676m42982l25709k35993j68506j18575q3473n5681l7562k4971j6361j0566o725m219k609
44956C876j591k285%V5J891J350K239L659N897R367J4667K2633L4424N1603P6227J10962J59156K24915L13130M29435
44893A461555N80076P71673J010835J303624J654891K067457K541239L072338L652228M267117M899684N520373
44881C2803090O103668O615198P019949P283359P373963P266192O943065O398529N639123M684798L568680K335773
44869A04035387J040613k55942j490535k601444l532652m237558m682009m846464m727168m336277l701030k862036
44857F7802885j870856p87050L25145J400325K375443L193225L805284M174790M278558M108375L671472K990044
44845I5467640K099819J047703j11318j317834k511917l636986m643290n490735o150852o607763o858118o910128
44833E4376221o781789o498589o090918n591449n032732m446251l854906l285127k751854k266749j836663j464286
44821D474908j148939q87431o74864n05373l72720k70759j93759j36602r4888o4948m3806k9118j9075j2316p838m917
44805G555l041j853k661%V28J%JTKTMOQJ3J7K5L4M7O2Q2J07J37J72K14K60L12L67M26M84N41N91O35O65O82O81O60O18
44341G857N56M73L72K57J32Jj29k55l70m71n54o18o59o80o83o66o35n92n42m85m27l69l13k61k14j73j37j08q3o2m7l4
44309H1k5j8j2romkTjT%j%V5J%TJKTLNQJ0J6K1L0M2N5P4R6J24J57J96K40K90L44M00M59N17N69O15O51O73O79O65O32
44219G577N78N03M09L00J79N1q0k07l26m31n22n92o41o70o79o70o44o05n58n04m46l87l32k78k30j86j50j17r1o9n2l8
44187I2k8k0j4j0pnlkjT%j%Y14J796J284K132L487N624Q939J4008K1634L2930M9400P3032J06395J52725K16000
43447F89386L00960M13077N58435P43496R74732J258120J598484J998711K458893K975441L540275M140194M756547
43434B6406751N365307N937645O441065O841086P105865P198172P096827O782394O247148N495298M543782L422099
43422I8883439K171112Q40887n12252j829211l051816m126386n006872n657286o053308o182950o046388n655071
43410E7773898n030308m201572l204740k080412q72442L73308J610034K790972L870425M804937N554704O085220
43398F7474024O369111O387999O134198N612031M838498L843156K667052J360742j8528j410262k754483l995501
43386I6508037n085313n986353o673346p134117p369373p391514p223775o891717o433679n883399n275789m642975
43374B0516687m012768l407749k844871k335570j886243j498976j172429r02735o84374n10921l75665k72074j94115
43361D18197j36445r4498o4490m3370k8743j8775j2088p670m798k958j798k564%V0J516J085J799K945M748P549J1829
43302C1471J8270K7811M1722O3545R1185J31183J86010K59938L57989M85865O49812Q56382J112076J422876J793666
43287G529801K227580K725307L284417L898774M558125N247924N949457O640310P295172P888997Q389585Q774678
43275G4410127R019415R104168R014547Q742265Q285650P649773O846254N895369M814273L636053K391066J114312
43263A50923272j56894j383783k527138l548441m411253n082782n535595n749383n712595n423794m892551m139698
43251A02359365l196882k105362r14088L22783J548780K708157L748863M625169N299786N745342N945130N893174
43239A31980217N593699N060108M313671L382055K297845J097152j81651j499064k815507m092322n292810o384237
43227A33459156p333842q121131q726471r138903r355014r379057r222596q903712q447251p875417p223330o518187
43215C3214245n788392n059696m354138l689393l078484k529847k047710j632661j282359r92294p56510n68277
43203A434484m20629l06800k20521j56208j09051p6255n0362l3710k2236j4457r264n851l643k236j352j909%V0J589
43146A589J126J861L031M869P708J2027J8497K8038M1886O1661Q9449J27853J80049K49785L41351M59449O09004
43129B239233P94848J021309J291675J607591J968392K370443K806556L265574L732192M187129M607671M968655
43117C4861268N243857N409894N438817N316813N031073M578252L964273L204731K324538J356800L40995o79405
43105G6391906j659631k556423l330655l949580m388496m631753m673082m515273m169384l653577k991798k212430
43093C3659824j347062m29390N05680J422843K287139L064759L723979M236265M577533M729528M681160M429678
43081F5541936L981489L352460K567585J659970O69122l61306j386180k361713l248190m012354m629238n083285
43069E6690296n368699n489012n457254n287584n008133m642582m217393l757923l287036k824128k384565j979537
43057F986450j616225j298244j026216p98447o11594m61279l42618k50647j80622j28226q9687o1809m1976k8091
43043E0769j8527j2044p716m873l033j862j126j588%T777K176J531K521M095O557J0347J6094K4674L7281N7250Q2700
40247B45226J19842J71168K40950L34281M57040O15798Q17604J069667J378898J751338K191473K701479L280460
40234A5375224L923726M622233N362220O125161O888070P624195Q305711Q898066R374112R704559R864827R835635
40222A05903739R604246R165342Q521456P683004O670222N502631M215698K844005J427367Q363j368871k659915
40210A57517287l821455m812797n597522o145228o433257o448328o187860n660871m888281l902531k746443j471385
40198I9401329j34803J202702K480524L641215M633407N414270N951359O223746O222408N949918N419557M653966
40186A51059598L683525K544603J277801p3721j465775k854553m197906n456549o596530p583026q397259r019663
40174A12920545r440437r657547r676661r510678r178852q705540q119656p447751o723819n974961n227239m502977
40162A8754427l820112l191904k627015k129852j701151j338659j037903p92915n96901m42795l23703k33214j65594
40149C52709j15885p9933n5326l5994k3811j5524r977o319l946k428j473k093%V1J790J268K098L418N490Q695J3570
40089C6329K0876L1652M7296P2035J02721J47213K07935K89462L97113N36885P15271R38997J214613J547993J943710
40074H250101K404348K929783L516501M157025M839539N547770O261198O955615P604051Q180340Q650498Q992279
40062G8289048R180569R196259R026110Q663626Q109549P371947O467804N414462M243026K984652J675398L54105
40050A50976555r38673k161807l274829m239281n020219n587797n918908n998747n822153n394590m732598l863632
40038I8023321k825193j663275m30201Q18023K024632L135079M099864M876944N433626N747781N808360N615249
40026A30664210N178539M517333L658288K633970J481224K39603j050082k347067l611826m807183n900780o858338
40014A23797891p661538q290068q732821q985843r052387q942594q672796q264448p743841p134833o469829n774338
40002B8072555n073487m389160l739280l137452k592935k110903j692932j337627j041310p98729o03691m49623
39990A105426l30004k38696j70154j19546q2781n7543l7562k4946j6328j0533o698m198k594j579k264%U9975
0@
##END=