##TITLE=Aspirin
##JCAMP-DX=6.00
##DATA TYPE= NMR SPECTRUM
##DATA CLASS= XYDATA
##ORIGIN=
##OWNER=
##.SHIFT REFERENCE=INTERNAL, , 1, 220
##.OBSERVE FREQUENCY=500
##.OBSERVE NUCLEUS=13C
##.SOLVENT=
##$OFFSET=-5
##$SW=225
##$BF1=500
##XUNITS=HZ
##YUNITS=ARBITRARY UNITS
##XFACTOR=0.8583134331774381
##YFACTOR=0.04656612875245797
##DELTAX=0.8583134331775
##FIRSTX=0
##FIRSTY=0
##LASTX=112500
##MAXY=100000000
##MINY=0
##NPOINTS=131072
##XYDATA=(X++(Y..Y))
131071@%S4950M46M280373O87416774J188270922j794021696q5880726o6092j%W9172L86L904613O61059405
56938F64964404J239710001j812907092r1692943p4369j%V76O0986Q2118395J780501658j152516400p05610309
56452D554330m553839m91%W28KJ10537J13991743J867042420j402538632n75763608k842227k35%V944L36L575491
50968C575827O36509683J287192924j829668089r7527189q3155j%S233K810J3506383J078832833L93363734
49725A485705760j451715703l3976977j3080%s686K1N88473K73514266J873380887j864480513k82375802o27309k3%S0664
29364@PK72150J84387363J922843124j702917924m03278261j306388p1%U42J774J0177756R72509000O13003059
29010A595691589j552107603m3563962k0024%T9007
0@
##END=