##TITLE=Salicylic Acid
##JCAMP-DX=6.00
##DATA TYPE= NMR SPECTRUM
##DATA CLASS= XYDATA
##ORIGIN=
##OWNER=
##.SHIFT REFERENCE=INTERNAL, , 1, 220
##.OBSERVE FREQUENCY=500
##.OBSERVE NUCLEUS=13C
##.SOLVENT=
##$OFFSET=-5
##$SW=225
##$BF1=500
##XUNITS=HZ
##YUNITS=ARBITRARY UNITS
##XFACTOR=0.8583134331774381
##YFACTOR=0.04656612875245797
##DELTAX=0.8583134331775
##FIRSTX=0
##FIRSTY=0
##LASTX=112500
##MAXY=100000000
##MINY=0
##NPOINTS=131072
##XYDATA=(X++(Y..Y))
131071@%X9551K0N56872K66084769J880841986j856561591k90259125o62906k5%T322LJ53624J36216032J899800920
59186B036170579j524776748n09233393k160284j54%S099K7O94727K97080338J849021572j886458176k59807444
58077E31044n31026j8%X633O3J206527L88384820J726350945j922637299j93008007k97041q%T264K09K635386
49168B635595N56840635J438220280j877712795j19862499j21214k%S5895PK79548J87004132J923174652j710422834
33262D00035505l98760050j275387o8%X225JP1239Q9541841J806491903j221268936o70796069m039572m07%T7026
0@
##END=