##TITLE=Salicylic Acid
##JCAMP-DX=6.00
##DATA TYPE= NMR SPECTRUM
##DATA CLASS= XYDATA
##ORIGIN=
##OWNER=
##.SHIFT REFERENCE=INTERNAL, , 1, 12
##.OBSERVE FREQUENCY=500
##.OBSERVE NUCLEUS=1H
##.SOLVENT=
##$OFFSET=-1
##$SW=13
##$BF1=500
##XUNITS=HZ
##YUNITS=ARBITRARY UNITS
##XFACTOR=0.04959144280580754
##YFACTOR=0.04656612875245797
##DELTAX=0.04959144280581995
##FIRSTX=0
##FIRSTY=0
##LASTX=6500
##MAXY=100000000
##MINY=0
##NPOINTS=131072
##XYDATA=(X++(Y..Y))
131071@%Z1030K5468J7910K9505M7915P6705J21037J88254K88589M36015O68149R66141J399793J998904K813253
50027I077638L902089N333833P184830R536926J2473668J6075010K0410587K5531770L1462911L8192481M5664858
50016B24846601N3799108O2376354P1232699Q0089018Q8639032R6547653J03467723J09059471J13011150J15059226
50006A118128035J15038455J12758311J08258190J01590321R2920054Q2501267P0666130N7811504M4382816L0856214
49996A934911297J7719494N452169n495066j4721142k1895132k6775586k9227374k9234504k6907236k2482031
49986A781344889j6313316q856835o45217P742671J5716212K2708555K8210113L1797387L3154930L2089249K8534267
49975A955482905K2548899J4307934M087781p751236k0784618l4544253m8539117o2275630p5277418q7104238
49965A660151009r7369653j05756850j12031755j16052480j17789785j17242014j14614514j10102806j03992377
49956F65198775r6612578q8315682p9455897p0370069o1361475n2699900m4547946l7103249l0438834k4598617
49946G9694528j9583532j5360210j1870111r038323o781390n013814l653056k623022j856190j294599r06375n95950
49934A117956l98606k62753j70705j09309o8992m2925k6326j5916k2424%W2L2377K2532L6950N9735R5192J49524
49867C96310K31498L53253N31256Q11657J167132J683279K392722L352065M628065O297017Q443054J1155098
49855D1442406J4522278J8627769K3541112K9309364L5947580M3429419N1678779O0595850O9915051P9453227
49845D68462835Q8892427R7892463J06087427J13104718J18586494J22211886J23742154J22936007J19746627
49836A481663038J14165639J06301371R6362329Q4649320P1543261N7489614M2980386K8534414J4676457J915407
49826B100281236r278048j8493917k5404784k9785988l1532585l0671357k7366107k1914784j4737617o356290
49816A884739759K634826J1603380J9916930K6980875L2273236L5373521L5983716L3940292K9217253K1920996
49806B134584784J2278475O20388j2638832k7022775m2015431n7083494p1698197q5356408r7600658j08037619
49796A646030233j16354258j22330727j25848949j26910004j25555424j22025740j16561238j09487807j01171139
49787E79784947r1993924q2333701p2543027o2952363n3755863m5230079l7483116l0597700k4604815j9492143
49777E8798216j5213687j1699568q865208o619323m870397l531512k523601j777307j233679q58883n62778l74620
49765F67653k45764j58909j01275o3620l9395k4049l4641%S716K9582K0582L3752N4559Q6936J36546K11388L22540
48034H95885M85027P18788J049685J510463K141501K991200M115744N578003P445305R785842J2663579J6131619
48022F5512641K0224210K4947784L0271679L6119449M2361863M8841072N5249074O1349191O6792082P1221926
48012E22890971P4282457P5643514P5029720P2248757O7216400N9975476N0706253L9726436K7479944J4514701
48002A079714629J450850j1058205k2368785l1890362l9125928m3706055m5414173m4201400m0190197l3667040
47992G69543334k5064997j4937693l926510P276952J7971022K7484562L5215908M0667997M3477694M3437353
47982I41145622M0507064L4816363K6654934J6452542M749422p840841k0673089l3113662m4581227n4582040
47972I03535088o2736838o8797497p2652600p4322252p3943435p1748083o8036516o3149095n7438747n1246606
47962B39463419m4895153l8605022l2638592k7129114k2177539j7836005j4115691j0995754q432401o367298m734803
47951A1536047l467764k501777j778056j245031q58994n83994l91260k58337j68112j07826o8168m2481k6096j5803
47937B2348k2348%V2K9924K0960L4469N5879Q9295J40656K18384L34184N04006P49106J097186J583494K251736
47881G109279L154607M375563N933993P949692J0489227J3629350J7437687K1964551K7233709L3232753L9904036
47870A92414447M7137333N4793648O2584272P0291044P7583894Q4126716Q9583676R3645534R6057345R6644730
47860I64862639R5335580R2174223Q7325666Q1068449P3775947O5908166N7886019N0208882M3272066L7396617
47850A649214254L2790966K9536216K7584453K6769882K6830995K7440739K8240910K8876843K9028773K8437136
47840A934751167K6920117K4382904K0819062J6305193J0990337N081608j172696p501546j3630559j9301760
47830A997643827k4293059k8436529l1634176l3869571l5213590l5822715l5928894l5820873l5818022l6238837
47820A664567561l7367299l9420843m2523839m6689988n1816053n7687967o4014825p0369601p6414318q1725557
47810A096537271q5949026q8801973r0094939q9743376q7768681q4289481p9504977p3672925o7085041o0042606
47800B89584246n2834577m5730811l8910437l2584626k6850689k1775766j7383587j3662167j0572430q056760
47790B1222396o046824m486146l248415k331411j648460j148389p88291n33216l55441k33511j51197r6494o0701
47777I3900l7641k3008j3865j9386%V1K2219J5893K6377M3152O9595J10637J73369K67769M07612O11516R04103
47721B652242J317185J890871K674418L726563N115124O915491R207756J2072188J5582914J9799797K4758768
47710A05713317L0461101L6862490M3862991N1319975N8955069O6512975P3626717P9896750Q4900297Q8218804
47700G20330486Q9469890Q8341384Q4624339P8241682O9269171N7945780M4671618K9992487J4571693q49094
47690A276609436j5496865k8618386l9531132m7669906n2625469n4172385n2284312m7136079l9092935k8688185
47680H71293782j6591054l567017R566970K1989834L2923803M1679432M7695738N0573140N0097014M6250080
47670A151911722L9212380K9348388J7181719L359019j1394451k6324054m0695947n3843981o5209581p4371460
47660I69173754q1063152q5177605q6759365q5986051q3141778p8585646p2718639o5951951n8679304n1268751
47650B19841512m3972577l7082841l0747192k5074505k0117948j5884391j2344942r445446p116126n279791l858321
47639H917432k777402j969621j376167r47412o42717m29678k83098j83832j17659p4227m6159k8296j7100k4064%T196
45429@K6856J8978L1329N0983Q1787J29328K01572L09659M68843O99575J028678J490501K127940K993116M147483
45414A3806628N661039P610396J0075346J3133753J6854638K1289542K6462525L2359374L8917002M6014169N3464938
45403B85649350O1016300O8351238P5098250Q0877205Q5195571Q7702178Q8016263Q5853291Q1038771P3533639
45393A072332056O3451067N1062319L6790233K1190224M919998j1299599k6729174m0656852n2441830o1551791
45383A057066651o7591455p0320666o9661626o5696036n8653829m8895629l6891259k3196313q428271O757045
45373F14488612K1688485L5702420M8165888N8500427O6206544P0888101P2275247P0243890O4829384N6232117
45363A179221115M4813122L1078677J5653958p52905j7393864l3527585m8465624o1614075p2506989q0828835
45353I55676995q6424401q9295960q9588809q7567365q3604120p8041593p1388147o4033970n6368896m8730820
45343B00632914m1394274l4565722k8384694k2929525j8226229j4259079j0981645q327252o218159m573068l312773
45332G460494k364075j662104j151386p85928n28658l50449k28960j47435r3577n8545l6105k1950l1322%U8K1562
45280B1562J5338K5391M1441O6669J05726J65265K54621L86636N78601Q53298J240040J775627K505029L481602
45266A1516846M766567O427504Q535578J1161265J4368496J8236783K2725320K7889674L3668426L9968076M6639923
45255B45904458N3477725O0220177O6559134P2177545P6669237P9743554Q1093263Q0498303P7840391P3125910
45245I67309697O6500471N8252582M8804801L8691968K8527505J8960139J0624631M090921j83519j893461r13932
45234A238771803K686396Q647685J6569749K5803202L5742382M5648631N4804722O2544673O8296261P1614280
45224A631129784P2202793O9925864O4807424N7021820M6877122L4793495K1278689O902280p730254k2003215
45214A975205802l5316016m7108352n6885230o4241560o8885447p0658758o9553044o5718644n9464889n1249769
45204A386124093m1658282l1369777k1115815j1631356l614101K385845N878165O612361M515065k86755p478213
45193A288361230j6584192k7009584l8088181m9135456n9500268o8610792p6010860q1384031q4564205q5533018
45183G01940643q4405576q1407110p6858746p1064219o4457523n7377097n0155037m3075121l6363397l0184934
45173A06591883k4645785j9816864j5645109j2176496r329832p038932n229812l827094k758712j959042j370633
45162B793572r44878o41860m29679k83476j84322j18129p4622m6466k8521j7258k4361%U8K3876J6807K7699M5002
45109A13384P2071J13773J77031K71501M10373O11293Q97331J297957J849858K597463L592953M895521O569606
45096B3470115Q681889J1296844J4470795J8244554K2634964K7625858L3159290L9127986M5370224N1668332
45086B95750851N7751835O3306059O8012631P1456695P3351265P3383780P1326086O7044649O0521029N1864946
45076I53769826M1317988K9246953J6126801K514381j0984962k3754927l5206670m4814708n2147396n6889794
45066H19177492n8857681n8002538n4408205m8280704l9933026k9766830j8252695n910084O712304J9055777
45056E31533810L0570708M0735867M9078261N5193424N8765471N9585729N7568252N2760293M5345830L5640713
45046A016778358K4078648J1188243k437681j6178258k9423324m1611318n2263004o1008040o7602245p1934399
45036G09586980p4022558p4000948p2099335o8632550o3890732n8291503n2156526m5803452l9505399l3482260
45026A27701717k7897475k2859553j8427199j4616925j1411895q771049o637627m946617l630751k625002j869622
45015D008002j311930r07063o17972m14890k74510j79008j15053p2887m5515k8017j7001k4156%U918K2546J6052
41083C8598K6585M3405O9857J10827J73305K67114M05769O07479R24948J323114J899644K688073L748759N152210
41069A7479687O978154R313412J2248349J5871740K0264045K5489234L1585562L8555900M6358464N4898940O4025059
41058C43068546P3524667Q3128086R2539242J01344616J09212509J15747850J20589052J23415897J23969658
41049A286540123J22069917J17626821J10648050J01271042Q9627339P6070032O0951085M4705557K7819927J0817489
41039B048147382n756994k1353661l5435410m7497569n7089387o3836803o7465327o7821241o4888946n8802157
41029A558199887m9846852l8454558k5185351j0701172M268984J8969347L2659895M4657559N4372718O1338214
41019A650278671O5228940O5871215O3242209N7460682M8770946L7522372K4146643R134706o985253k3668062
41009A991003069m0369929n6565139p1761544q5515161r7443968j07252497j14677864j19639930j22087800
41000A175689237j22088306j19799571j15460057j09372928j01886875r3391089q4206048p4755837o5338020
40991B89390506n6230784m7656891l9780267l2706971k6489806k1135584j6614028j2867277r819136p383411n470901
40980A3235450l994831k874715k038756j425041j000689o58563m41470k91657j89902j21871p7091m8069k9545j7902
40966B5348k5348%V3K6119J8377L0280M9183P8751J24289J93353K96464M48005O86382R92923J438856K055052
40909F438034K892784M013099N486506P391716R813136J2836959J6545716K1011340K6286952L2397851L9332333
40898A84446426M7033218N5391084O4240214P3358152Q2469598R1282723R9382426J06459998J12140745J16092476
40888A032297060J18029684J17731720J15057304J09954380J02485382R2738504Q0979617O7502626N2682988
40879A889459265L6953367K0790222M699747j0796928k5179672l7946805m8634389n6837140o2230280o4590988
40869A645686399o3817597n9944343n3149533m3755298l2217787j9107650n081653R152644K2876421L5400074
40859A436041677M6101247N4457352O0070164O2681043O2176371N8583828N2060986M2878233L1398226J8053956
40849A924503083L327054j2272540k8225139m4018073n9161026p3200380q5732794r6434232j04983391j11264322
40839A312538240j15159065j16670737j15893534j13005604j08257025j01953629r4437898q6081212p7194590
40830C83884946o8161980n9257220n0727976m2767463l5512686k9046641k3403690j8577141j4528036j1194212
40820C0707901q498887o358202m687387l405424k438225j720505j196560q35030n47816l65372k40165j55589r9351
40807A59388o2532l8796k3728j4305k0027%V0802
0@
##END=