##TITLE=N2 Flow 5 min
##JCAMP-DX=5.01  $$ Nicolet v. 1
##DATATYPE=INFRARED SPECTRUM
##ORIGIN=Thermo Fisher Scientific Corporation
##OWNER=Nicolet
##LONGDATE=2026/03/03
##TIME=18:59:56
##SPECTROMETER/DATA SYSTEM=Nicolet iS20
##DATA PROCESSING=
Ratio against background
%Transmittance->Absorbance
Truncated
ElementMultiply or ElementDivide
##COMMENTS=
Number of sample scans: 4
Collection length: 21.22 sec
Sample gain: 4.0
Background collected on: Tue Mar 03 18:40:12 2026 (GMT-07:00);;
Number of background scans: 4
Background gain: 4.0
Sample spacing:  1.000
Number of scan points: 50541
Resolution points: 65536
Number of FFT points: 524288
Apodization: N-B strong;
Phase correction: Mertz;
Laser frequency: 15798.00 cm-1
Number of rejected sample scans: 0
Number of rejected background scans: 0
Bench serial number: BEP2311074;;
##RESOLUTION= 0.500
##XUNITS=1/CM
##YUNITS=ABSORBANCE
##FIRSTX=399.976074
##LASTX=4000.001953
##FIRSTY=0.002907
##MAXX=4000.001953
##MINX=399.976074
##MAXY=0.347793
##MINY=-0.552549
##XFACTOR=1.000000
##YFACTOR=1.000000E-09
##NPOINTS=59738
##DELTAX=0.060265
##ZPD=1525
##XYDATA=(X++(Y..Y))
399.976 2906747 55168772 120807464 191642064 258888272 313681920 346096256 
400.398 347792992 316634112 259259696 188660464 117496808 54296288 1078027 
400.820 -44663168 -86712080 -126844240 -163318752 -190995328 -204257472 
401.182 -200199648 -181416176 -155092128 -130781608 -117159792 -119674016 
401.543 -140243216 -176354800 -221264608 -262479008 -284867424 -277772704 
401.905 -243346368 -194733792 -146312128 -106850368 -78456272 -59561672 
402.266 -46832368 -36851804 -26680844 -14907407 -1844130 11216266 22647758 
402.688 30903260 34395980 32031362 23589124 10277598 -5283884 -19478774 
403.110 -28902634 -31843644 -28823234 -22652240 -17117600 -15705185 
403.472 -19413284 -25879830 -29888268 -26450200 -13704952 5803731 26541918 
403.894 42260612 48374408 43752292 30904894 15376076 3356159 -219987 5276378 
404.376 15429769 21328228 13199608 -15935631 -67221816 -134555216 -205332032 
404.798 -263858624 -298881184 -308233536 -298503040 -278809728 -257186528 
405.159 -238947680 -227256192 -224532112 -232415152 -251539552 -280601600 
405.521 -315691488 -349497504 -370709760 -367610816 -333402784 -271490976 
405.883 -193257488 -110321784 -30337548 43104872 107943208 162251488 
406.244 203538752 228054000 232531344 215532720 179042448 128785896 73937072 
406.666 25691292 -6408845 -16962572 -7280571 16183779 44549928 69897024 
407.088 86758208 91288952 81047392 54065888 8648033 -56465252 -140306976 
407.510 -235654496 -325245120 -379898112 -375114528 -315191360 -227983184 
407.872 -140083984 -66424832 -14747649 12234017 14890536 -4289190 -40949156 
408.294 -89292968 -141607360 -189168784 -222258704 -233043072 -219541888 
408.655 -186485056 -142607904 -96012720 -52815872 -16343795 12092980 
409.017 32142524 44095392 48544148 46420568 38877396 27555456 14941117 
409.439 4331873 -28461 5716936 22845626 49183668 80027408 110550304 
409.861 136719760 155695872 165265600 163239376 148083632 119411256 78802552 
410.283 29651910 -22850550 -72472576 -113276544 -139778464 -148510544 
410.644 -139060000 -115045216 -83347704 -52129656 -29144126 -19014656 
411.006 -22719538 -38139752 -61580152 -88699192 -114957136 -136151168 
411.368 -147982416 -147149488 -132870152 -108106928 -78848536 -51180648 
411.729 -29049770 -13222117 -2498297 4853891 10077472 13692458 15702728 
412.151 16079480 15246061 14293858 14615927 17464362 23209754 31103252 
412.573 39379604 46165452 50503864 53100236 55922504 60721588 67347760 
412.995 73438456 75436920 70418048 57617940 38808444 18125004 551700 
413.417 -9302079 -9443264 -1134748 11692369 24406128 33257720 36291196 
413.839 33818580 28008932 22176970 19459114 22257038 31581652 47100756 
414.261 67293240 89582584 110498304 125236032 128511816 115551248 83743576 
414.682 34552272 -25194602 -83388600 -126727056 -145405152 -138753472 
415.044 -114302784 -83204712 -55001116 -35308576 -26163626 -25652134 
415.406 -28791700 -28821312 -20818734 -3947126 18361190 40877344 58617816 
415.828 68165440 68163064 58912648 42450124 22029948 2021799 -13446946 
416.250 -21802856 -22796604 -18437258 -11721428 -5230427 -3578 4346063 
416.671 9065466 15285425 23235096 31531018 37179972 35733684 23101798 
417.093 -2318715 -38366212 -80441680 -124293072 -167909648 -212340192 
417.455 -260277696 -312641504 -361933024 -383081216 -347225824 -263693808 
417.817 -171549344 -95588392 -39916556 -1430060 24024012 39130368 44181520 
418.239 35765308 2747966 -80078224 -237635632 -362155648 -295148864 
418.600 -173259296 -77173744 -3704544 58178788 114756816 168184192 216569504 
419.022 252593760 266717376 253964368 220325840 178826864 140968576 
419.384 112689056 95142808 87626920 88404224 94922224 102309288 102523680 
419.806 86206352 49397048 833590 -43921300 -74232392 -88774312 -91244728 
420.228 -86444016 -78205568 -69121504 -60359164 -51760288 -42328768 
420.589 -31077676 -18077398 -5163244 4272709 6082634 -4080445 -29409014 
421.011 -70914152 -125515464 -185249536 -236276160 -262463296 -254031264 
421.373 -213240928 -152324880 -85041976 -22307284 29509288 67713512 91567712 
421.795 101800192 99714320 86943280 65325744 37272604 6043792 -24714114 
422.217 -51084420 -70125952 -80826872 -84339856 -83330400 -80823768 
422.578 -79847064 -82910984 -92148168 -109161672 -134207312 -164243408 
422.940 -191447936 -206867856 -207132704 -196443856 -180868704 -164141872 
423.301 -147052160 -128864152 -108699584 -86586664 -63921688 -43574044 
423.663 -28869400 -22841842 -27397548 -42548308 -65933428 -92546360 
424.025 -115974048 -129677072 -129966688 -117365680 -95686976 -69756152 
424.386 -43595592 -20282436 -1780909 10543874 15675418 13191171 3440880 
424.808 -12171171 -31516638 -51819108 -70383592 -85279600 -95471976 
425.170 -100928208 -102158048 -99873272 -94563096 -86712808 -77106224 
425.531 -66872708 -57310060 -49730264 -45102684 -44014304 -46274672 
425.893 -50798772 -55596240 -58624820 -58876088 -56829596 -53899744 
426.255 -51106956 -47990120 -42464032 -31681988 -13478072 12140271 42912480 
426.677 74838584 103552952 124522600 134022744 129905280 111973536 82455408 
427.099 45444376 6532419 -29020018 -57322052 -76577464 -87284888 -91699872 
427.520 -92864912 -93182040 -93803392 -94173496 -92640224 -87156328 
427.882 -76179608 -59068336 -36013604 -8075948 22908878 54089644 82143160 
428.304 103339184 114141648 112371344 98128400 74706184 47902540 24903974 
428.726 11237483 8691773 15362140 26953262 38613560 45715708 45115164 
429.148 35479772 17640350 -5846173 -31359206 -55282764 -75043976 -88987032 
429.570 -96391704 -97071728 -91175600 -79033224 -61207232 -38627752 
429.931 -12608636 15083390 42018880 65361792 81854176 88485912 83739760 
430.353 68346816 45497060 19418192 -6025969 -28916430 -49423644 -68997256 
430.775 -89244328 -110770704 -131810160 -147531360 -150395072 -134178264 
431.137 -100089496 -57382648 -17276328 13293924 31726844 38688608 36433792 
431.559 28165240 17490094 7679987 840396 -3134736 -6250176 -11348825 
431.981 -20573010 -34849368 -53583372 -74964056 -96018456 -113175448 
432.342 -123097176 -123090936 -112103992 -91077792 -62985288 -31987414 
432.704 -2497835 21551434 37821976 45686368 46319956 42042932 35608832 
433.126 29006348 22631736 15214798 4354966 -12356032 -36284792 -66577360 
433.548 -99609480 -128791600 -146894224 -148928992 -135248384 -111436552 
433.909 -85894560 -66257380 -56875148 -59058332 -71372312 -90792576 
434.271 -112990544 -133031752 -145995376 -147682704 -136565648 -114657136 
434.633 -87464232 -61855524 -44696412 -40797704 -51231212 -72739808 
434.994 -98578224 -121663176 -137032400 -144174464 -146241008 -148118176 
435.356 -153524768 -163285680 -174588528 -182224016 -180668064 -166916160 
435.717 -142185328 -111366616 -81053696 -56774536 -42243216 -38639120 
436.079 -45423712 -61141552 -83836800 -110418256 -134782432 -148364064 
436.441 -143978384 -121904136 -89741944 -56718416 -29615470 -12048047 
436.802 -6140129 -12277961 -28732530 -50708564 -71043920 -82703512 -81612872 
437.224 -68809744 -49088156 -28534500 -11716880 -994802 3853035 4878821 
437.646 4970208 6388816 9833070 14543045 19063218 22279464 23873704 24262520 
438.128 23995368 23187874 21313402 17532078 11460359 3794805 -3629732 
438.550 -8552157 -9412787 -5915276 651837 7923483 12910227 13116171 7217355 
439.032 -4500589 -20136538 -36446876 -49495520 -56069916 -54495964 -45236136 
439.454 -30358866 -12797848 4454276 18883330 28346044 31556386 28244334 
439.876 19161032 5817029 -9914350 -26076704 -41072072 -53510232 -62196628 
440.298 -66179828 -64747216 -57634408 -45157424 -28295992 -8649837 11793305 
440.720 30737144 46330424 57685332 65223156 70389992 74943792 80035464 
441.142 85636712 90646920 93469616 92878688 88450048 80757624 70917688 
441.564 60176096 49378448 38982968 29515352 22053442 18642018 22044518 
441.986 34194572 54147740 76830424 95306432 104000152 101478536 89879400 
442.408 72999680 54692584 37990788 25064678 16746454 12740547 11963126 
442.830 13254295 15840648 19526102 24432064 30508988 37187624 43513716 
443.252 48485760 51707672 53683132 55810400 59742716 66426972 74930080 
443.673 82268000 84709952 80071520 68920616 53727864 37576048 22969378 
444.095 11707585 4398945 455832 -1739890 -4208474 -8639151 -15921544 
444.517 -25894284 -37596936 -49625528 -60658652 -69559040 -75462528 
444.879 -77804192 -76305376 -71193064 -63342372 -54368664 -46306900 
445.241 -41162012 -40661104 -45670988 -55962708 -69886912 -84718880 
445.602 -97137416 -104498016 -106002736 -102757016 -96889224 -90175536 
445.964 -83396312 -76024576 -66726932 -54063372 -37473856 -17714792 3188768 
446.386 22791952 38815504 49651840 54645160 53900388 48219800 38897076 
446.808 27906314 17666646 10515427 8165428 10887975 17507792 25771694 
447.229 33187974 37487904 37071628 31559914 21988364 10788236 877347 
447.651 -5112719 -6103734 -2931031 1982820 5795403 6461923 3397566 -2247586 
448.134 -8055977 -11007530 -8714502 -39659 14402387 32650250 52133216 
448.555 70648368 86856216 99915496 109180512 113901768 113152560 106308432 
448.977 93495384 75958320 55750496 35348448 17078068 2467897 -7841714 
449.399 -14201136 -17609266 -19398234 -20687928 -22142450 -24081182 
449.761 -26557900 -29454934 -32403194 -34714248 -35343920 -33136438 
450.123 -27404268 -18328286 -7131151 4336291 13857585 19428102 19724216 
450.544 14232465 3483264 -11148226 -27688314 -44272344 -59513196 -72603736 
450.966 -83206680 -91025528 -95497992 -95799320 -90979664 -80499440 
451.328 -64701916 -45111796 -24211502 -4801650 10293476 18966048 20057038 
451.750 13601679 975035 -15071617 -30699186 -42148840 -46375184 -42081836 
452.172 -29985812 -12528035 6863189 24673602 37286756 41567244 34966968 
452.594 16079068 -14102869 -50395612 -82629312 -99898208 -96482664 -75523936 
453.016 -45341128 -14635794 10299651 26016544 30771286 24685422 9384019 
453.438 -12060454 -35871248 -58155368 -75490552 -85816824 -88433024 
453.799 -83905880 -73558496 -59255096 -43125208 -27327766 -14264017 -6307688 
454.221 -5590094 -14041440 -32976430 -62900296 -103003048 -150919728 
454.583 -201987056 -248852848 -282955936 -296284608 -285208800 -252356944 
454.944 -205637344 -154816752 -108236064 -71963376 -48439532 -36885500 
455.306 -34245744 -36787724 -41297096 -45777960 -49696132 -53426532 
455.668 -57567464 -62231572 -66666632 -69404696 -69015656 -64709992 
456.029 -56808056 -46451324 -35117708 -24033312 -14089878 -6091319 -950105 
456.451 -48770 -5200700 -18136066 -39835820 -69512704 -104220960 -138386400 
456.873 -165271552 -179435536 -178994592 -166560992 -147354016 -126788872 
457.235 -108102280 -92239088 -78190040 -63764796 -46244260 -23239866 6287617 
457.657 39830748 69136576 82721456 76137728 57455924 37386088 21179336 
458.078 9103226 -237936 -8196106 -15505853 -22185868 -27638976 -31042202 
458.500 -31653802 -29392108 -25062794 -20327718 -17101576 -16821422 
458.862 -19951860 -25612934 -31751384 -35616560 -35001348 -29085654 
459.224 -19179922 -8346915 -851008 -810265 -10880747 -31661782 -61013940 
459.646 -94318296 -124469232 -144290992 -149336128 -140236304 -122118744 
460.007 -101713264 -84403864 -72583488 -66263548 -63764444 -62859564 
460.369 -61376588 -57912672 -51990224 -43801672 -33912728 -23090622 
460.730 -12495134 -3698269 1317251 556378 -7151490 -21692298 -41315840 
461.152 -63047992 -82657520 -95643688 -98684592 -90974640 -75049304 
461.514 -55417204 -36577132 -21004688 -9220213 -737434 4913235 7577710 
461.936 6444469 585707 -10465828 -26015698 -44073820 -61334440 -74236832 
462.358 -80289048 -78864616 -71427160 -60595460 -49163020 -39019872 
462.719 -30982692 -24794612 -19477634 -13741678 -6550485 2398424 12481138 
463.141 22191650 29596432 32662504 30098882 21894996 9755903 -3212495 
463.563 -13132178 -16490461 -11740584 62793 15448275 30192500 40458388 
463.985 44084688 40795772 31737394 18895996 4444033 -9437136 -21063878 
464.407 -29289568 -33478424 -33461458 -29404060 -21762236 -11220043 1282522 
464.829 14648140 27834310 39835180 49842484 57284856 61775324 63213288 
465.251 61814172 58147688 53000876 47264168 41748132 36951544 33049118 
465.673 29894700 27212608 24836292 22958270 22166892 23379764 27488772 
466.095 35038508 45969860 59506520 74273280 88586744 100994960 110361576 
466.517 115845304 116781056 112477496 102433144 86701280 66430448 44024692 
466.939 22713216 5994372 -3738348 -5856438 -1697217 6109919 14410641 
467.360 20445368 22644722 20577538 14926301 7091375 -828653 -6381714 
467.782 -7260858 -1934193 9271693 23955976 38305232 48881012 53553164 
468.204 51921472 45150016 35597864 26329018 20172500 19201898 23710148 
468.626 32108024 41339416 48304744 51063460 49349604 44497320 38716316 
469.048 34263156 32480896 33573372 36619300 40168188 42683472 43108204 
469.470 41126972 37204912 32512854 28634076 27292764 29643432 35901148 
469.892 45254220 56219660 66975044 75669160 80829824 81383000 77004824 
470.314 68207104 56298824 42861092 29102002 15606273 2332860 -10901815 
470.736 -23851412 -35563020 -44460936 -48950592 -48347796 -43343868 
471.097 -35853220 -28048780 -21717672 -17548140 -15108516 -13177504 
471.459 -10424489 -6015512 161492 7604347 15599576 23559250 31246006 
471.881 38601940 45457544 51256104 54868348 54941440 50650796 42289064 
472.303 31231408 19112036 7074906 -4840022 -17560330 -32405100 -49916884 
472.725 -68579352 -84262056 -92124800 -89165624 -76260536 -57319640 
473.086 -37571868 -21774462 -13141405 -13270035 -21570804 -35592232 
473.448 -51419076 -65052932 -73308248 -74753440 -70051064 -61430892 
473.810 -51670932 -42857568 -35987192 -30719100 -25836966 -19756684 
474.171 -11348760 -498646 11630799 22985170 31294114 34816556 33006322 
474.593 26580876 17485058 8325055 2105229 1263248 6783384 17860356 32123614 
475.075 46623632 58503760 65912372 68097296 65305560 58504596 49089980 
475.497 38548128 28027876 18297560 9684306 2254616 -3940033 -8693457 
475.919 -11630693 -12279926 -10310544 -5739587 847135 8333195 15211916 
476.341 20004990 21910782 21100718 18695976 16190039 15032930 16118405 
476.763 19595770 24839098 30459156 34469940 34413336 28244262 15145624 
477.185 -3715779 -25524652 -46764272 -64612552 -77856656 -86673592 -92110080 
477.607 -95258872 -96760440 -96483488 -93738560 -87732344 -78250016 
477.968 -65994456 -52554788 -39738864 -28991504 -20815480 -14608530 -8921778 
478.390 -2165237 6543385 17052944 28249108 38716132 47234464 53336080 
478.812 57336656 60132864 62653176 65327092 67632008 68203080 65195432 
479.234 57010584 42925248 23363748 26640 -24430996 -46449092 -62542856 
479.656 -70196424 -68510792 -58518732 -42699484 -24297514 -6292274 8819604 
480.078 19313666 24429962 24197774 19438046 11468286 1964147 -7558612 
480.500 -16094601 -23180942 -28806026 -33026486 -35634112 -36113164 
480.861 -33869544 -28686846 -21065706 -12302537 -4217136 1410318 3010799 
481.283 -343629 -8840229 -21960636 -38675068 -57674564 -77324976 -95795520 
481.705 -110797608 -119637032 -120069248 -111211056 -94502912 -73331864 
482.067 -52303472 -35854688 -27294070 -28816414 -40847860 -61860612 
482.428 -88002400 -113999272 -134285344 -144529840 -143154416 -131299808 
482.790 -112236816 -89935880 -68518688 -51260272 -39970684 -35016664 
483.152 -35314348 -38899224 -43376732 -46814104 -48145496 -47260664 
483.513 -44764416 -41552784 -38474792 -36092400 -34743400 -34537656 
483.875 -35381516 -36939640 -38677404 -40052124 -40741200 -40920992 
484.237 -41285140 -42940776 -46969092 -54072088 -64107112 -75857864 
484.598 -86908856 -94167224 -95154768 -88970864 -77073312 -62567956 
484.960 -49248524 -40066112 -36428108 -38064088 -43169456 -48985728 
485.322 -52657876 -52597440 -48998068 -43707124 -39089192 -37290448 
485.683 -39475116 -45628152 -54529896 -64010620 -71607104 -75273592 
486.045 -74438896 -70150704 -64598844 -59994832 -58013568 -59379356 
486.406 -63739300 -69701968 -75133704 -77983456 -76946464 -72279320 
486.768 -65671368 -59738488 -56870728 -58433416 -64324380 -72919184 
487.130 -81504184 -87125232 -87894160 -83481232 -75222512 -65302140 
487.491 -56119708 -49424588 -45894148 -45174836 -46133708 -47394192 
487.853 -47674552 -46167640 -42478964 -36490868 -28289008 -18170832 -6760199 
488.275 5012573 15873089 24465612 29719744 31010218 28468966 22966130 
488.697 16045064 9372677 4229713 1122008 -375180 -1385177 -3331901 -7376681 
489.179 -14173396 -23534024 -34427232 -45007196 -53177308 -57335440 
489.541 -56831280 -52243336 -45023056 -37063060 -29959836 -24686442 
489.902 -21338566 -19182016 -16973248 -13554033 -8444251 -2004053 4685520 
490.324 10342642 13853959 14822887 13720910 11795348 10481142 10835554 
490.746 13126791 16794666 20747076 23835478 25379874 25322760 24187370 
491.168 22652018 21179892 19717628 17785442 14733551 10164193 4205423 
491.590 -2361755 -8379807 -12631488 -14261676 -13042703 -9296662 -3659632 
492.012 3230860 10814222 18603488 26069106 32506604 37166904 39471328 
492.434 39260840 37039688 34002972 31875726 32284766 36365912 44251332 
492.856 55011688 66819316 77493288 85149160 88334416 86321416 78986760 
493.277 66692224 50205500 30774452 10312002 -8907041 -24428992 -34304808 
493.699 -37787812 -35545736 -29524096 -22186876 -16093930 -12974050 
494.061 -13221506 -15705377 -18179156 -18145980 -13758275 -4669732 7989323 
494.483 22028658 35167224 45526716 52229392 55509044 56457884 56502752 
494.905 56779156 57824904 59364500 60537536 60223408 57595164 52387716 
495.327 45020736 36400792 27745930 20317540 15114094 12841931 13691979 
495.749 17281342 22599868 28269404 32932006 35536332 35709188 33745520 
496.171 30478634 26872816 23710184 21232428 19040334 16209470 11693085 
496.592 4819414 -4400462 -15047006 -25458286 -33419184 -36980480 -35095216 
497.014 -28028558 -17200442 -4646294 7639653 18306650 26589788 32244042 
497.436 35333356 36043076 34615744 31354866 26697276 21173490 15328741 
497.858 9643616 4378226 -437877 -4961242 -9390576 -13828249 -18170482 
498.280 -22153092 -25462316 -27931910 -29649266 -30970382 -32391478 
498.642 -34350304 -37092992 -40585816 -44613688 -48946472 -53497696 
499.003 -58320448 -63456500 -68714664 -73447408 -76565488 -76926624 
499.365 -73684048 -66767648 -56923368 -45577528 -34374856 -24817238 
499.727 -18015544 -14324741 -13326304 -13909282 -14726639 -14485166 
500.088 -12348207 -8112926 -2168699 4604407 11052413 15759245 17348342 
500.510 14690741 7112459 -5276879 -21432686 -39286316 -56251444 -69534192 
500.932 -76946832 -77707568 -72709232 -64314632 -55367532 -48550776 
501.294 -45421712 -46176280 -49731976 -54186872 -57415540 -57733864 
501.655 -54628344 -48811232 -41863172 -35381208 -30566846 -27785420 
502.017 -26499206 -25241968 -22097578 -15755929 -6628254 2989112 10361407 
502.439 13702000 12766036 8382207 2091878 -4318946 -8961345 -10401295 
502.861 -8218670 -3168387 3039894 8470246 11369399 10738884 6438080 -776398 
503.343 -9465601 -17786168 -23919370 -26711660 -25859350 -21998248 -16401740 
503.765 -10804414 -6952432 -6144311 -9068149 -15551602 -24701218 -35058876 
504.187 -45072160 -53407080 -59246020 -62574932 -64145356 -65191804 
504.548 -66800268 -69532584 -73126512 -76677672 -78915432 -78758776 
504.910 -75730048 -70132352 -62976600 -55628332 -49485912 -45519708 
505.272 -44225152 -45615148 -49315048 -54573348 -60288860 -65205032 
505.633 -68014208 -67840416 -64544244 -58726972 -51440180 -43756708 
505.995 -36542684 -30235076 -24930632 -20542988 -17020692 -14530126 
506.357 -13494679 -14402061 -17584354 -22931426 -29811616 -36955284 
506.718 -42735516 -45650880 -44904868 -41004660 -35633228 -30924932 
507.080 -28317256 -28165338 -29760074 -31876434 -33212564 -32916386 
507.441 -30854634 -27572404 -24039236 -21254616 -20091966 -21101216 
507.803 -24544366 -30395324 -38279908 -47334384 -56100724 -62835992 
508.165 -65767832 -63772484 -56877876 -46422292 -34745112 -24366720 
508.526 -17446554 -14937180 -16465804 -20567766 -25408256 -29391828 
508.888 -31673920 -32433576 -32715060 -33975456 -37311120 -42987716 
509.250 -50151604 -57228020 -62379776 -64296776 -62567240 -57691100 
509.611 -50787748 -43139400 -35782648 -29119646 -22946074 -16678851 -9835807 
510.033 -2375003 5085415 11450766 15329942 15509599 11290904 2637276 
510.455 -9739689 -24493102 -39677024 -53197828 -62971412 -67299600 -65391852 
510.877 -57628084 -45662544 -31891796 -19094570 -9653919 -5073914 -5966197 
511.299 -11860442 -21343518 -32120708 -41717276 -48060636 -50122172 
511.660 -48189832 -43516436 -37652300 -31698160 -26099576 -20613648 
512.022 -14711329 -8010277 -680305 6539483 12510909 16193271 16987128 
512.444 14993349 11036439 6500970 2924960 1397952 2351016 5398545 9564010 
512.926 13417923 15442335 14372349 9397224 524961 -11369289 -24615160 
513.347 -37298380 -47598716 -54168824 -56463072 -54725276 -49949284 
513.709 -43507264 -36926980 -31383156 -27437522 -25112332 -24105726 
514.070 -24121398 -25039524 -26918030 -29799954 -33454742 -37288592 
514.432 -40402628 -41924072 -41428588 -39116716 -35836348 -32769694 
514.793 -31226018 -32154988 -35873752 -41958668 -49382832 -56819276 
515.155 -62928244 -66767364 -67842552 -66147396 -62042008 -56111380 
515.516 -48966160 -41059168 -32683898 -24001962 -15181057 -6599406 1064807 
515.938 6827812 9465590 7940220 1702446 -8975951 -23012322 -38582492 
516.359 -53467608 -65582544 -72973912 -74224488 -68703264 -56918016 
516.721 -40708772 -22946262 -6926018 4874096 11206882 11974706 7866021 
517.143 -12988 -10294171 -21592810 -32446862 -41622032 -48377768 -52497888 
517.564 -54303584 -54415672 -53571832 -52351320 -51121596 -50092000 
517.926 -49381712 -49093516 -49277660 -49855000 -50552664 -50916900 
518.287 -50467800 -48846500 -46052956 -42507476 -39003152 -36385356 
518.649 -35253892 -35771448 -37592288 -39971504 -41967932 -42785996 
519.010 -41889956 -39116960 -34626176 -28843326 -22421808 -16212018 
519.372 -11419607 -9443167 -11604112 -18695268 -30363594 -44897280 -59573140 
519.793 -71859344 -80137464 -84140216 -84655576 -82998448 -80440032 
520.155 -77792336 -75376328 -73049000 -70475240 -67356352 -63607500 
520.516 -59324008 -54665712 -49724944 -44515908 -39076716 -33612456 
520.878 -28607096 -24750798 -22676928 -22784908 -25015722 -28869400 
521.239 -33453788 -37758684 -40880704 -42136900 -41190820 -37946116 
521.601 -32433700 -24766822 -15240598 -4511180 6389791 16051836 23075730 
522.022 26535862 26227886 22906714 18115020 13942977 12219567 13947460 
522.444 18868382 25622922 32254070 36963560 38757396 37453664 33562884 
522.866 27851514 21058596 13589988 5503195 -3326377 -12961444 -23201452 
523.287 -33495876 -43094456 -51182976 -57093412 -60499076 -61446344 
523.649 -60362796 -57914500 -54948860 -52282436 -50523524 -49982152 
524.010 -50510664 -51471904 -51698788 -49797068 -44434616 -34835360 
524.372 -21218456 -4823769 12411750 28557494 41910892 51339296 56326516 
524.793 56845056 53352156 46664508 37919080 28297590 18938774 10888621 
525.215 4927980 1574497 928313 2613142 5758266 9222412 11928625 12906575 
525.697 11432327 7009508 -520720 -10682842 -22034812 -32193202 -38906132 
526.119 -41028028 -38832204 -33407524 -26032580 -17855274 -9788835 -2709647 
526.540 2641177 5769783 6501341 5078945 2065177 -1776421 -5720654 -9140635 
527.022 -11567204 -12774137 -12787103 -11923244 -10694060 -9717915 -9468519 
527.444 -10067542 -11178098 -12061904 -11837163 -9760424 -5641610 25215 
527.866 6092748 11178051 13917351 13328978 9071049 1515475 -8200072 
528.287 -18441164 -27226388 -32924618 -34768540 -33006374 -28657256 
528.649 -22986834 -17100622 -11613209 -6720169 -2329986 1720142 5479471 
529.070 8778962 11285599 12593752 12444346 10886447 8384808 5748227 3908531 
529.552 3653374 5255551 8392070 12224032 15755087 18005870 18231176 16033581 
530.034 11323349 4331773 -4463236 -14319740 -24385860 -33829792 -41907856 
530.456 -48130044 -52272948 -54379044 -54692296 -53576548 -51395260 
530.818 -48374952 -44580204 -39940648 -34386948 -28006752 -21166264 
531.179 -14485166 -8768538 -4710868 -2700657 -2727032 -4447593 -7367168 
531.601 -11032500 -15178434 -19665208 -24354346 -28967638 -32952476 
531.962 -35562532 -36097220 -34113132 -29699892 -23501914 -16633444 
532.324 -10271811 -5395981 -2552091 -1760516 -2649088 -4628624 -7139430 
532.745 -9722938 -12134118 -14357792 -16611280 -19314510 -23017034 -28344760 
533.167 -35775264 -45469696 -57058552 -69619720 -81695480 -91611664 
533.528 -98071808 -100458712 -99089768 -94945208 -89324856 -83307912 
533.890 -77466544 -71880456 -66263348 -60236832 -53555808 -46242772 
534.251 -38532556 -30718420 -22971058 -15297698 -7621388 48610 7443873 
534.673 13978666 18881704 21334772 20835712 17397588 11605172 4393121 
535.095 -3202101 -10274400 -16250320 -20804806 -23803706 -25236436 -25185628 
535.516 -23857714 -21594576 -18913792 -16410483 -14660621 -14171665 
535.878 -15249491 -17974790 -22170064 -27456122 -33286932 -39030652 
536.239 -44106752 -47990596 -50300748 -50868064 -49781292 -47417396 
536.601 -44357796 -41296528 -38787024 -37113620 -36255596 -35953888 
536.962 -35857552 -35699492 -35450568 -35367956 -35940680 -37671804 
537.324 -40923284 -45715516 -51696496 -58132564 -64078012 -68562944 
537.685 -70782952 -70436816 -67844448 -63912360 -59754512 -56442068 
538.047 -54716600 -54870316 -56834944 -60265440 -64704224 -69635728 
538.408 -74595312 -79160952 -82860672 -85193408 -85664984 -83939152 
538.769 -80069568 -74622904 -68630848 -63185608 -59132796 -56649236 
539.131 -55179564 -53554668 -50475472 -45082856 -37339732 -28164346 
539.492 -19061370 -11587013 -6637587 -4276722 -3789788 -4135783 -4306873 
539.914 -3743768 -2464725 -913934 372884 1080452 1167056 742704 -174316 
540.396 -1818262 -4588660 -8811009 -14380040 -20585398 -26111618 -29450568 
540.818 -29592040 -26426038 -20972138 -14955427 -10380267 -8668416 -10175596 
541.239 -14069509 -18737700 -22463374 -24053596 -23262070 -20612858 
541.601 -17061246 -13522269 -10748400 -9256314 -9415867 -11628500 -16316287 
542.022 -23783912 -33959952 -46141276 -58894580 -70132688 -77852920 
542.384 -80708904 -78552432 -72372280 -63885076 -54887836 -46689236 
542.745 -40095056 -35354608 -32365184 -30851578 -30489140 -30915674 
543.107 -31631932 -32019302 -31354058 -28945196 -24404560 -17790874 -9695590 
543.529 -1038602 7111819 13900416 18895788 22046260 23578106 23798448 
543.950 22988768 21348308 19035486 16222576 13077958 9730149 6180021 2275400 
544.432 -2238489 -7555844 -13627059 -20023374 -25997878 -30766762 -33814284 
544.854 -35215212 -35610456 -35991248 -37211164 -39677964 -43095656 
545.215 -46559892 -48822396 -48900472 -46591172 -42553052 -37998428 
545.577 -34105564 -31694804 -30893118 -31184482 -31589140 -31145994 
545.938 -29270426 -25996598 -21899712 -17853872 -14675645 -12808111 
546.300 -12253062 -12609344 -13341534 -13998611 -14437478 -14802894 
546.661 -15394577 -16461274 -18086552 -20141000 -22349900 -24379250 
547.023 -25952124 -26942226 -27378508 -27421904 -27290306 -27239366 
547.384 -27507688 -28278358 -29632954 -31455680 -33369788 -34701856 
547.745 -34682312 -32649386 -28332530 -22007822 -14471930 -6840638 -156099 
548.167 4786147 7708519 8842463 8796409 8273990 7829887 7756280 8028035 
548.649 8409129 8585541 8317084 7465278 5978012 3850695 1131077 -2004581 
549.131 -5180696 -7737505 -8899639 -8083623 -5224959 -998240 3283539 5939045 
549.613 5529639 1145030 -7223221 -18632518 -31175416 -42469620 -50515620 
550.035 -54240564 -53979432 -51104716 -47461536 -44517940 -43025860 
550.396 -43007856 -43941752 -45048596 -45553512 -44945268 -43000952 
550.758 -39789600 -35558288 -30658866 -25455662 -20266940 -15368192 
551.119 -10917099 -6924584 -3244726 349870 4059510 7918624 11719908 14998013 
551.601 17116702 17490198 15701149 11697986 5824786 -1184019 -8397552 
552.023 -14912529 -19979674 -23236882 -24738778 -24917618 -24368506 
552.384 -23664320 -23156784 -22879470 -22608964 -22016042 -20880476 
552.745 -19242150 -17483664 -16214157 -16101561 -17526406 -20388674 
553.107 -24042936 -27545972 -29923836 -30496430 -29106262 -26089340 
553.468 -22120188 -17883922 -13885857 -10245373 -6739548 -2959103 1421022 
553.890 6462159 11918749 17341996 22229836 26154858 28867550 30232604 
554.312 30166856 28586476 25393012 20559300 14229555 6859789 -793927 
554.733 -7819586 -13299954 -16625822 -17589858 -16390892 -13517997 -9677413 
555.155 -5717319 -2458828 -676037 -904180 -3296093 -7567306 -13006723 
555.577 -18650516 -23399732 -26401720 -27275586 -26228074 -23930346 
555.938 -21241394 -18868428 -17077526 -15684700 -14170574 -11978494 -8725803 
556.360 -4428701 506649 5376906 9442733 12123371 13069524 12236948 9845305 
556.842 6354218 2330895 -1605850 -4942438 -7425835 -9096476 -10269125 
557.264 -11375906 -12847872 -14920885 -17546072 -20345424 -22723156 
557.625 -24041370 -23827198 -21979032 -18778002 -14804271 -10719469 -7197574 
558.047 -4777990 -3755463 -4140542 -5590552 -7486350 -9008146 -9424880 
558.468 -8292273 -5597290 -1792459 2285992 5610824 7354391 7082922 4956936 
558.950 1624614 -1948575 -4849983 -6516181 -6806618 -5999728 -4590660 
559.372 -3117170 -1955667 -1304150 -1237085 -1784440 -2993097 -4906730 
559.794 -7481856 -10485170 -13469463 -15897971 -17274004 -17388462 -16430296 
560.215 -15027066 -14084585 -14588955 -17384768 -22850016 -30762472 
560.577 -40229660 -49946180 -58348256 -64027488 -66095180 -64247080 
560.938 -58844580 -50732972 -41099108 -31113486 -21724604 -13601594 -7085582 
561.360 -2371510 340652 797804 -1279142 -5983617 -13005822 -21408748 
561.782 -29714280 -36324812 -39845768 -39614844 -35793544 -29284830 
562.143 -21383076 -13508233 -6982528 -2713664 -1205530 -2513912 -6315591 
562.565 -11917860 -18302206 -24263236 -28425984 -29660992 -27441502 
562.926 -22076984 -14706716 -7002743 -828025 2376768 1778993 -2597644 
563.348 -9911403 -18600330 -26818952 -33068892 -36468872 -37003148 -35276504 
563.770 -32205660 -28613612 -25051064 -21789998 -18863922 -16209720 
564.131 -13783055 -11623919 -9853783 -8623560 -8047065 -8181572 -9028235 
564.553 -10573783 -12827960 -15839798 -19667836 -24302464 -29586870 
564.914 -35169292 -40523460 -45133268 -48638176 -51002848 -52520640 
565.276 -53707948 -55040728 -56688844 -58361872 -59323660 -58676288 
565.637 -55718340 -50435736 -43662540 -36983948 -32101720 -30387630 
565.999 -32376994 -37582140 -44588512 -51483176 -56570592 -58696868 
566.360 -57624484 -53871472 -48418044 -42262096 -36169904 -30649942 
566.722 -25953154 -22229440 -19615964 -18230184 -18107020 -19108110 
567.083 -20924462 -23114468 -25274544 -27181540 -28811452 -30274294 
567.444 -31659316 -32918752 -33866392 -34294552 -34161004 -33721796 
567.806 -33553052 -34391112 -36788244 -40848044 -45968848 -50963572 
568.167 -54244252 -54436164 -50842600 -43606680 -33655724 -22409440 
568.529 -11543265 -2529922 3448094 5685009 4063423 -996488 -8608943 
568.951 -17675664 -26910430 -35132712 -41466868 -45457432 -47180180 
569.312 -47121204 -45975560 -44310912 -42450272 -40485704 -38404520 
569.673 -36255320 -34235028 -32632142 -31729114 -31625770 -32166280 
570.035 -32957818 -33538942 -33565748 -32923114 -31769738 -30452660 
570.396 -29374984 -28805064 -28796940 -29163798 -29577492 -29649822 
570.758 -29054666 -27595198 -25195258 -21912534 -17923986 -13544013 -9185697 
571.179 -5327875 -2485086 -1092115 -1488412 -3862963 -8208591 -14286364 
571.601 -21597066 -29463972 -37024296 -43417720 -47957960 -50201876 
571.963 -50098380 -47987540 -44576492 -40706088 -37179744 -34570640 
572.324 -33087746 -32648954 -32988992 -33825964 -34915780 -36086272 
572.685 -37195804 -38061176 -38463268 -38207516 -37207060 -35552212 
573.047 -33492320 -31366236 -29459452 -27942194 -26824496 -26004556 
573.408 -25361846 -24867086 -24608366 -24730640 -25288204 -26119418 
573.770 -26779048 -26673644 -25277950 -22389268 -18296870 -13734198 -9664904 
574.192 -6903191 -5987277 -7039225 -9812970 -13760072 -18176678 -22353236 
574.613 -25584602 -27294256 -27055222 -24621138 -20032390 -13689701 -6407539 
575.035 780444 6755989 10642709 12069745 11199470 8675041 5354766 2166130 
575.517 -193790 -1378109 -1388645 -509402 820676 2109690 2951180 3046901 
575.999 2275599 726773 -1296849 -3365570 -5086915 -6199288 -6649661 -6539942 
576.481 -6030021 -5218346 -4076474 -2444759 -126520 2983074 6748787 10775532 
576.963 14454657 17166094 18515688 18409826 17075758 14914197 12355839 
577.384 9669873 6900185 3897966 450326 -3582972 -8161802 -13061320 -17910632 
577.866 -22281412 -25798720 -28134006 -29061236 -28480478 -26447176 
578.228 -23209746 -19192824 -14979917 -11129818 -8040983 -5812925 -4211296 
578.649 -2761275 -975529 1365411 4091987 6646326 8314719 8398759 6509278 
579.131 2681049 -2601597 -8555438 -14299157 -19035524 -22307978 -24034942 
579.553 -24505754 -24227798 -23829456 -23883024 -24741596 -26483808 
579.914 -28849682 -31332388 -33274506 -34127652 -33626348 -31881914 
580.276 -29342126 -26662646 -24507038 -23278056 -23018918 -23391788 
580.637 -23881048 -23976878 -23402588 -22153878 -20398916 -18320600 
580.999 -15989350 -13349663 -10306046 -6868948 -3281722 2551 2391860 3342969 
581.481 2579709 188010 -3346796 -7314228 -10925339 -13622338 -15230264 
581.902 -15978619 -16411854 -17238468 -19208992 -22879880 -28512346 
582.264 -35944248 -44604628 -53535628 -61571440 -67648504 -70916336 
582.625 -71029544 -68220496 -63277444 -57288196 -51326436 -46236604 
582.987 -42388156 -39737228 -37961056 -36692188 -35654688 -34752240 
583.348 -34037408 -33627296 -33602244 -33944964 -34523060 -35112576 
583.710 -35428336 -35107560 -33752580 -30957052 -26390774 -19975624 
584.071 -12034317 -3404135 4728763 10904759 13759521 12383044 6461217 
584.493 -3526019 -16381703 -30196380 -42840128 -52357192 -57322892 -57262028 
584.915 -52622068 -44634856 -34865392 -25021944 -16605062 -10621316 -7607843 
585.336 -7533506 -9911467 -13879695 -18426332 -22567474 -25449506 -26597234 
585.758 -25978464 -24060022 -21657626 -19807276 -19485364 -21304400 
586.119 -25410944 -31375974 -38336212 -45103820 -50572332 -54037916 
586.481 -55357852 -54959224 -53598132 -52058300 -50803280 -49903416 
586.842 -49082064 -47970392 -46346956 -44345440 -42409164 -41134616 
587.204 -40928200 -41773200 -43145216 -44200376 -44099868 -42326544 
587.565 -38930700 -34472288 -29802768 -25664908 -22507232 -20319338 
587.927 -18721452 -17143910 -15144165 -12622444 -9864408 -7402285 -5780361 
588.348 -5388519 -6321207 -8407659 -11297110 -14631053 -18126088 -21647728 
588.770 -25192664 -28806334 -32492518 -36153444 -39565360 -42432480 
589.131 -44471136 -45476832 -45413772 -44430368 -42848804 -41061940 
589.493 -39463952 -38339884 -37776604 -37648836 -37647648 -37409172 
589.854 -36610696 -35125684 -33065482 -30731788 -28443240 -26365734 
590.216 -24402366 -22228402 -19426594 -15698440 -11061475 -5924918 -1019794 
590.638 2879696 5127490 5466419 4064861 1448382 -1717383 -4842151 -7522239 
591.119 -9620345 -11172963 -12280796 -13022607 -13475535 -13815314 -14406067 
591.541 -15900368 -19113342 -24705476 -32867238 -43010436 -53819424 
591.903 -63405828 -69953032 -72159688 -69628952 -63030744 -53901380 
592.264 -44201964 -35621540 -29387338 -26023750 -25431600 -27081310 
592.625 -30211928 -34025884 -37705952 -40560436 -42042740 -41773048 
592.987 -39634624 -35790336 -30692148 -24949058 -19259330 -14252410 
593.348 -10360790 -7848711 -6804791 -7209534 -8984941 -12017526 -16138084 
593.770 -21040044 -26259982 -31141738 -34863800 -36658752 -35935584 
594.132 -32525938 -26794374 -19668564 -12459075 -6513374 -3099734 -3055615 
594.553 -6672632 -13648957 -23154146 -33964884 -44614168 -53809592 -60576208 
594.975 -64490436 -65732324 -65004276 -63289984 -61491008 -60276168 
595.336 -59863044 -60045588 -60301436 -60044780 -58855720 -56644408 
595.698 -53699368 -50578940 -47906896 -46086656 -45181404 -44840448 
596.059 -44447120 -43279628 -40851208 -37144340 -32696068 -28445630 
596.421 -25416788 -24453110 -25869404 -29372320 -34055268 -38707412 
596.782 -42034048 -43078220 -41549352 -37859576 -32970258 -27972734 
597.144 -23850534 -21140416 -19882010 -19686424 -19944136 -20051406 
597.505 -19603610 -18546296 -17151490 -15910015 -15306942 -15699752 
597.867 -17179646 -19575200 -22527334 -25655602 -28710790 -31624970 
598.228 -34496128 -37475528 -40641160 -43905396 -46997344 -49527152 
598.589 -51150400 -51664136 -51084632 -49584236 -47376128 -44551044 
598.951 -41012380 -36517064 -30855220 -24036416 -16424585 -8693391 -1705006 
599.373 3689396 6952301 7934922 6909577 4389473 981046 -2821489 -6721800 
599.854 -10530611 -14081922 -17136712 -19354158 -20429644 -20246292 
600.216 -18985892 -17071888 -15035868 -13327749 -12154030 -11475826 
600.577 -11060022 -10638937 -10033094 -9261796 -8523210 -8114649 -8281545 
600.999 -9135314 -10640553 -12666793 -15066209 -17729456 -20605590 -23659488 
601.421 -26821818 -29970844 -32928396 -35514596 -37603500 -39134796 
601.782 -40107836 -40542176 -40460828 -39905040 -38987496 -37947300 
602.144 -37106500 -36799568 -37198512 -38166944 -39185752 -39443104 
602.505 -38104336 -34496372 -28415216 -20197334 -10688596 -954403 7980413 
602.927 15314805 20643484 23872374 25141244 24722458 23010952 20510840 
603.349 17770290 15354897 13641510 12663544 12027844 11015299 8831338 
603.770 4896245 -825247 -7726536 -14634192 -20271654 -23589918 -24217206 
604.192 -22559234 -19657766 -16760854 -14842633 -14391547 -15234775 
604.553 -16690936 -17786294 -17692334 -15970252 -12713357 -8462904 -4049622 
604.975 -348132 2003258 2685483 1824476 -90711 -2324680 -4210278 -5407631 
605.457 -6033485 -6619378 -7890361 -10476599 -14573832 -19814366 -25293582 
605.879 -29939982 -32806624 -33483974 -32210708 -29743550 -26987160 
606.240 -24615942 -22942144 -21884684 -21163800 -20497098 -19758710 
606.602 -18966130 -18178362 -17369360 -16384702 -15042718 -13325789 
606.963 -11541297 -10321707 -10388387 -12299445 -16086714 -21154902 
607.324 -26334676 -30356024 -32257530 -31745654 -29260206 -25742360 
607.686 -22230572 -19430174 -17622216 -16658476 -16204389 -15973479 
608.047 -15927773 -16259352 -17241844 -19001432 -21400516 -24026322 
608.409 -26365734 -27954964 -28547810 -28180648 -27116362 -25722654 
608.770 -24334326 -23243070 -22677558 -22819838 -23810762 -25676246 
609.132 -28266252 -31214888 -34048616 -36314996 -37749024 -38352960 
609.493 -38318164 -37848400 -36979536 -35514716 -33115684 -29528986 
609.855 -24796552 -19369494 -13973650 -9372256 -5959400 -3591188 -1605421 
610.276 814004 4275553 8782749 13679704 17810436 20004886 19579756 16531484 
610.758 11561581 5750141 267474 -4089964 -7025337 -8688001 -9437364 -9600479 
611.240 -9317386 -8556056 -7260141 -5511615 -3583827 -1909749 -896344 
611.662 -754601 -1434353 -2667168 -4118027 -5531768 -6848205 -8169020 
612.084 -9643549 -11317641 -13055790 -14546629 -15435126 -15410438 -14327242 
612.505 -12228000 -9318197 -5899129 -2306916 1093307 3977912 6084414 7268498 
612.987 7569854 7231100 6660087 6269128 6357479 6944086 7763060 8346806 
613.469 8264534 7332284 5709382 3837925 2246189 1307979 1012463 923432 
613.951 306399 -1518757 -4943421 -9839660 -15614608 -21320774 -25995756 
614.373 -28966336 -29974556 -29246358 -27332652 -24928098 -22600660 
614.734 -20708810 -19377290 -18546264 -18056452 -17717210 -17365190 
615.096 -16860212 -16101625 -15029627 -13613154 -11845836 -9730617 -7267537 
615.517 -4453955 -1307222 2088015 5550110 8755363 11249350 12552038 12201267 
615.999 9890013 5542492 -661811 -8304300 -16797736 -25380160 -33256888 
616.421 -39663928 -43941840 -45704868 -44878548 -41737592 -36814516 
616.782 -30848308 -24641740 -18884798 -14150433 -10785312 -8913468 -8493448 
617.204 -9377768 -11376648 -14272097 -17838386 -21797876 -25785638 -29398208 
617.626 -32205478 -33862988 -34228504 -33414274 -31786800 -29841282 
617.987 -28111984 -26993700 -26669158 -27109514 -28120806 -29433012 
618.349 -30789172 -32040756 -33155594 -34196656 -35251268 -36365612 
618.710 -37497136 -38529192 -39305320 -39709868 -39717668 -39394176 
619.072 -38839204 -38113684 -37187928 -35957972 -34310752 -32218982 
619.433 -29793270 -27272320 -24918212 -22867588 -21043422 -19130052 
619.794 -16701745 -13380122 -9082102 -4129515 743733 4667233 6881636 7020048 
620.276 5254411 2251785 -1037049 -3764397 -5377425 -5835385 -5526762 
620.698 -5087472 -5060191 -5657276 -6683073 -7656028 -8060791 -7632685 
621.120 -6552933 -5453245 -5238971 -6706173 -10314847 -15918192 -22789938 
621.542 -29700324 -35325164 -38660552 -39259256 -37393972 -33865472 
621.903 -29727090 -25846582 -22765698 -20634660 -19309090 -18507530 
622.264 -17961534 -17508554 -17063924 -16574604 -15971594 -15167587 
622.626 -14133884 -12986206 -12045726 -11746679 -12490595 -14432286 
622.987 -17347586 -20638672 -23513088 -25316306 -25719094 -24907418 
623.349 -23487882 -22324030 -22142890 -23255128 -25432850 -28008054 
623.710 -30138052 -31125362 -30734626 -29232048 -27271322 -25555986 
624.072 -24635666 -24685348 -25506092 -26626062 -27520190 -27807082 
624.433 -27318370 -26120730 -24418124 -22454846 -20409540 -18372786 
624.795 -16356878 -14338174 -12313198 -10353706 -8623918 -7398864 -7006818 
625.216 -7726015 -9689855 -12766737 -16540509 -20338910 -23462330 -25356188 
625.638 -25804620 -25021694 -23600024 -22327270 -21873656 -22645038 
625.999 -24612466 -27362892 -30188900 -32348208 -33288990 -32764562 
626.361 -30898610 -28086300 -24860610 -21689840 -18918456 -16711373 
626.722 -15061760 -13845804 -12893806 -12082497 -11397434 -10979714 
627.084 -11096552 -12090295 -14228105 -17589762 -21971914 -26905758 
627.445 -31716734 -35675992 -38241620 -39128468 -38372372 -36230844 
627.807 -33075034 -29248836 -25010652 -20600504 -16296247 -12484123 -9696499 
628.228 -8476811 -9278565 -12313005 -17437006 -24094974 -31355754 -38159904 
628.650 -43441284 -46479872 -47097540 -45692132 -43094812 -40279160 
629.011 -38145396 -37192704 -37433792 -38376284 -39228196 -39100640 
629.373 -37346576 -33850976 -29119244 -24163458 -20089624 -17809446 
629.734 -17633606 -19208200 -21603058 -23690330 -24504064 -23510390 
630.096 -20783232 -16895844 -12695755 -8943201 -6192559 -4679926 -4375763 
630.518 -5090157 -6567326 -8541371 -10701431 -12707017 -14203092 -14857586 
630.939 -14483756 -13090514 -10896807 -8224717 -5398533 -2627681 30318 
631.361 2599608 5080688 7370870 9233717 10386926 10627192 9923709 8457238 
631.843 6558387 4600556 2837271 1353811 61832 -1206621 -2601564 -4160266 
632.325 -5793864 -7324393 -8571585 -9420990 -9827708 -9797452 -9344173 
632.746 -8478923 -7234170 -5712936 -4123312 -2726012 -1767248 -1344153 
633.168 -1341577 -1444888 -1278118 -586705 652700 2186843 3586017 4378895 
633.650 4268861 3212067 1417199 -798160 -3145230 -5490251 -7858180 -10323227 
634.132 -12849224 -15196319 -16893804 -17398616 -16309362 -13539773 -9425237 
634.554 -4655538 -119001 3430995 5513497 6033444 5222786 3517267 1383592 
635.036 -821939 -2847692 -4548692 -5825283 -6570949 -6689892 -6149276 
635.457 -5051218 -3647870 -2320462 -1510469 -1584953 -2788930 -5139014 
635.879 -8387900 -11996835 -15246356 -17445058 -18061760 -16930230 -14254013 
636.301 -10541574 -6407670 -2438269 923399 3466297 5149720 6020072 6092008 
636.783 5271951 3368681 209789 -4217202 -9627670 -15431064 -20752910 
637.204 -24712988 -26647346 -26345996 -24176904 -21026786 -18043642 
637.566 -16183928 -16011674 -17475262 -19993124 -22591914 -24275142 
637.927 -24369570 -22714948 -19759408 -16388467 -13680615 -12444875 
638.289 -12995917 -15009814 -17703500 -20080672 -21332384 -21127824 
638.650 -19633982 -17413672 -15142084 -13428924 -12581857 -12575612 
639.012 -13110350 -13786458 -14247985 -14290212 -13889579 -13131150 
639.373 -12121519 -10920104 -9544795 -8015189 -6402511 -4868331 -3618593 
639.795 -2808189 -2430559 -2264397 -1932280 -1043197 600737 2927395 5576589 
640.277 8035224 9725100 10186139 9208130 6845046 3385945 -782649 -5262083 
640.759 -9769916 -14145334 -18288134 -22092982 -25362190 -27772988 -28964972 
641.180 -28644540 -26780512 -23700872 -20110378 -16873406 -14707677 
641.542 -14032906 -14829537 -16735828 -19196184 -21721358 -24039300 
641.903 -26176042 -28380052 -30942088 -33945304 -37110148 -39749356 
642.265 -40965320 -40004680 -36487060 -30617646 -23104070 -15051935 -7613346 
642.686 -1795824 1686379 2557011 916061 -2869746 -8336774 -14942239 
643.108 -22055474 -28957906 -34761872 -38615112 -39949864 -38670344 
643.469 -35285392 -30769356 -26345062 -23023068 -21411998 -21589184 
643.831 -23192908 -25600534 -28160558 -30385562 -31926558 -32572974 
644.192 -32205168 -30797474 -28493388 -25663908 -22913984 -20882148 
644.554 -20074850 -20712128 -22658248 -25467318 -28487956 -31081408 
644.915 -32701478 -33043190 -32058116 -29892506 -26805964 -23098916 
645.277 -19129450 -15289445 -12029258 -9859452 -9228484 -10453990 -13560520 
645.698 -18186242 -23500438 -28374806 -31787474 -33078440 -32167942 
646.060 -29408270 -25366534 -20600944 -15604252 -10867885 -6860990 -4066265 
646.482 -2902562 -3570550 -5962047 -9588844 -13706396 -17400018 -19884954 
646.903 -20733484 -19934896 -17872158 -15141669 -12411356 -10179544 -8696282 
647.325 -7934382 -7687703 -7712279 -7864135 -8133446 -8575126 -9210189 
647.747 -9965711 -10658303 -11060636 -11007561 -10490248 -9715421 -9074380 
648.168 -9056630 -10059546 -12301668 -15741391 -20117210 -24984408 -29821608 
648.590 -34154328 -37557252 -39738076 -40561100 -40074696 -38499808 
648.951 -36184904 -33556916 -31013110 -28898604 -27482436 -26906412 
649.313 -27193836 -28228806 -29799242 -31636276 -33513270 -35318992 
649.674 -37075380 -38917884 -41021424 -43540744 -46549352 -50035308 
650.036 -53899100 -57970892 -61950888 -65357476 -67568872 -67885200 
650.397 -65825268 -61392408 -55135732 -47964488 -40830128 -34573516 
650.759 -29717530 -26469250 -24740656 -24220934 -24501118 -25241030 
651.120 -26322016 -27868490 -30171096 -33493790 -37906340 -43150080 
651.482 -48668004 -53625224 -57132488 -58398716 -56891072 -52565560 
651.843 -45983396 -38251696 -30586238 -23974056 -18875280 -15253522 
652.205 -12787585 -11069356 -9755888 -8607935 -7527221 -6530510 -5712740 
652.626 -5188979 -5059438 -5389468 -6204155 -7502080 -9259817 -11432775 
653.048 -13920257 -16537862 -19015894 -20985494 -22095436 -22159326 
653.409 -21300804 -19962238 -18741158 -18156404 -18408390 -19370000 
653.771 -20669508 -21899712 -22757208 -23198656 -23445160 -23903158 
654.132 -24964450 -26824154 -29400840 -32362354 -35269384 -37730860 
654.494 -39583932 -40908448 -41956140 -42966768 -44013644 -44868328 
654.855 -45056540 -44006548 -41388648 -37331736 -32397042 -27313858 
655.217 -22707840 -19006062 -16379565 -14831426 -14259977 -14512886 
655.578 -15403371 -16712107 -18203178 -19595566 -20591970 -20928756 
655.940 -20391616 -18879944 -16420245 -13176475 -9412689 -5478505 -1818559 
656.361 1108620 2865287 3165337 2001627 -311447 -3222098 -6153621 -8612808 
656.843 -10328631 -11261307 -11556622 -11482441 -11353441 -11489863 
657.205 -12138339 -13467312 -15555055 -18387936 -21869214 -25830286 
657.566 -30074862 -34370752 -38481888 -42172952 -45146648 -47050124 
657.927 -47495308 -46142972 -42896324 -38029604 -32205384 -26255368 
658.289 -21023724 -17178404 -15062881 -14699957 -15740495 -17568538 
658.650 -19385242 -20495234 -20526176 -19519418 -17899344 -16291905 
659.012 -15327093 -15388628 -16561337 -18627916 -21201984 -23804710 
659.373 -25980026 -27378262 -27755458 -27025302 -25268980 -22733218 
659.735 -19768588 -16764967 -14124711 -12184992 -11218525 -11394950 
660.096 -12730282 -15067585 -18086932 -21386670 -24508260 -27039218 
660.458 -28674626 -29210640 -28578556 -26828236 -24125880 -20723184 
660.819 -16958780 -13277556 -10160350 -8104632 -7477231 -8344282 -10361859 
661.241 -12796143 -14758827 -15364866 -14058409 -10766146 -5958125 -546566 
661.662 4323942 7507247 8250080 6298442 1986981 -3911565 -10298054 -16042363 
662.144 -20305456 -22616826 -22972348 -21700524 -19339958 -16448513 
662.506 -13522462 -10987532 -9127397 -8083395 -7823361 -8160696 -8785196 
662.928 -9346118 -9563207 -9266305 -8458062 -7301391 -6099552 -5207051 
663.349 -4946959 -5564056 -7143798 -9597464 -12647129 -15893595 -18852470 
663.771 -21057154 -22194966 -22154918 -21100902 -19423330 -17700732 
664.132 -16500829 -16187120 -16794200 -17985122 -19175230 -19704440 
664.494 -19100374 -17144006 -13897954 -9628350 -4737482 318103 5113040 
664.916 9224443 12292912 14064013 14410025 13390413 11252819 8419197 5349835 
665.397 2459066 24188 -1861715 -3223019 -4114450 -4535183 -4411122 -3660914 
665.879 -2311959 -606823 999012 1948005 1708965 8184 -3082988 -7114365 
666.361 -11427192 -15307390 -18229010 -20027550 -20898380 -21301626 
666.723 -21743956 -22667588 -24311706 -26725494 -29829774 -33517778 
667.084 -37716584 -42390228 -47595216 -53472648 -60358880 -69129576 
667.446 -82225072 -106379112 -157896288 -265331744 -431034016 -552549312 
667.807 -542873728 -458174112 -360403136 -271899776 -198978704 -142385040 
668.169 -100495808 -70447296 -49386352 -34834232 -24862956 -18159042 
668.530 -13872378 -11461175 -10570387 -10910960 -12207705 -14178207 
668.891 -16551863 -19083124 -21560588 -23842380 -25842024 -27532040 
669.253 -28936890 -30104294 -31075394 -31852574 -32371580 -32506570 
669.614 -32114894 -31087826 -29424434 -27243846 -24750390 -22147046 
669.976 -19593666 -17194328 -15017560 -13167121 -11822654 -11226533 
670.337 -11671628 -13390211 -16460124 -20737778 -25850704 -31262834 
670.699 -36344284 -40573984 -43619416 -45397332 -46043596 -45840488 
671.060 -45123116 -44175952 -43222912 -42379048 -41648704 -40941892 
671.422 -40117896 -39043284 -37628144 -35867468 -33840828 -31694494 
671.783 -29578326 -27597592 -25762500 -23990454 -22154478 -20183352 
672.145 -18143852 -16292607 -15024249 -14744159 -15766505 -18180460 
672.506 -21829104 -26311070 -31107440 -35648612 -39451488 -42262908 
672.867 -44088876 -45140108 -45670004 -45871524 -45805128 -45429264 
673.229 -44658176 -43432800 -41763688 -39747568 -37545672 -35363772 
673.590 -33427224 -31927756 -31017738 -30764880 -31128014 -31942536 
673.952 -32942984 -33831236 -34304684 -34142384 -33250750 -31707060 
674.313 -29772264 -27872034 -26526762 -26168836 -27060640 -29225602 
674.675 -32458392 -36340928 -40274480 -43580788 -45515560 -45489660 
675.036 -43231884 -38881380 -32997220 -26439632 -20252078 -15355400 
675.398 -12453987 -11898324 -13640898 -17276584 -22130988 -27445048 
675.759 -32376964 -36193624 -38423752 -38987980 -38262948 -36909572 
676.120 -35611036 -34747772 -34358876 -34227464 -34073800 -33692240 
676.482 -33064534 -32362264 -31885732 -31913136 -32554190 -33678352 
676.843 -34929936 -35860360 -36062520 -35367620 -33899272 -32053314 
677.205 -30326764 -29210456 -29042984 -29912858 -31622350 -33726732 
677.566 -35723388 -37225124 -38134504 -38596468 -38860504 -39114328 
677.928 -39419656 -39710896 -39849936 -39691812 -39158168 -38277728 
678.289 -37180448 -36050320 -35045760 -34262340 -33695000 -33258024 
678.651 -32822602 -32282662 -31591016 -30764694 -29853656 -28888684 
679.012 -27828092 -26552820 -24915616 -22866362 -20545296 -18271898 
679.374 -16429307 -15310877 -15065505 -15638325 -16807204 -18236000 
679.735 -19612890 -20746370 -21628718 -22411108 -23307008 -24457714 
680.096 -25837560 -27244374 -28385142 -29029968 -29106322 -28753712 
680.458 -28248802 -27887104 -27777556 -27718436 -27185306 -25610592 
680.819 -22686896 -18596012 -13925616 -9464467 -5946947 -3852815 -3418829 
681.241 -4573939 -6998472 -10164170 -13480353 -16411919 -18541534 -19674454 
681.663 -19831428 -19239550 -18250200 -17300114 -16829580 -17188308 
682.024 -18616742 -21155942 -24595998 -28376916 -31685252 -33712020 
682.386 -33954252 -32454700 -29676250 -26251220 -22709602 -19431156 
682.747 -16640173 -14425267 -12801033 -11738068 -11198279 -11142413 
683.109 -11531391 -12309816 -13370452 -14555056 -15673386 -16548038 
683.470 -17099920 -17390850 -17644646 -18183318 -19358908 -21376450 
683.831 -24124562 -27065652 -29389940 -30396342 -29748224 -27593270 
684.193 -24394788 -20768040 -17283684 -14420042 -12515609 -11705398 
684.554 -11950773 -13066915 -14811604 -16925578 -19188988 -21445934 
684.916 -23583296 -25538366 -27282682 -28793188 -30024092 -30873336 
685.277 -31169156 -30722588 -29426664 -27406414 -25062012 -23002296 
685.639 -21771658 -21598516 -22348956 -23592712 -24790732 -25412162 
686.000 -25138632 -23944896 -22129540 -20195468 -18701172 -18078066 
686.362 -18488320 -19839976 -21843660 -24149104 -26393300 -28279414 
686.723 -29592132 -30162256 -29891576 -28786428 -27046972 -25089190 
687.084 -23496106 -22811978 -23245080 -24559334 -26142320 -27289776 
687.446 -27358816 -25986704 -23174690 -19284528 -14937148 -10811492 -7499312 
687.868 -5291085 -4160857 -3811663 -3832847 -3818790 -3502355 -2836204 
688.289 -1993103 -1323409 -1244882 -2183732 -4409875 -7902562 -12208961 
688.711 -16508166 -19869350 -21604192 -21592116 -20248568 -18328572 
689.072 -16585417 -15632987 -15772289 -16940458 -18748966 -20610236 
689.434 -21949706 -22325162 -21601292 -19967778 -17923636 -16120525 
689.795 -15244116 -15875228 -18324060 -22586978 -28289224 -34762548 
690.157 -41026008 -46012304 -48886820 -49276180 -47442792 -44091124 
690.518 -40079740 -36047820 -32326032 -28992682 -25992946 -23274318 
690.880 -20855210 -18809288 -17213852 -16069887 -15278889 -14664241 
691.241 -14063927 -13414564 -12774588 -12274740 -12015721 -11968373 
691.603 -11940039 -11609402 -10652516 -8932587 -6648616 -4381240 -2876823 
692.024 -2818921 -4490095 -7689298 -11814850 -16095174 -19795212 -22299920 
692.446 -23264896 -22611258 -20531390 -17422616 -13854181 -10485494 -7918017 
692.868 -6663137 -6986212 -8831334 -11790505 -15197567 -18316850 -20485498 
693.289 -21362412 -20994144 -19818070 -18467522 -17594724 -17641910 
693.651 -18713296 -20626382 -23023790 -25527182 -27762794 -29417778 
694.012 -30252568 -30106056 -28969094 -27016802 -24626744 -22273542 
694.374 -20438370 -19470758 -19455964 -20189804 -21222368 -22050308 
694.735 -22243542 -21625912 -20308620 -18662038 -17179040 -16321458 
695.097 -16390989 -17387824 -19007616 -20723626 -22009176 -22448270 
695.458 -21840826 -20225892 -17855526 -15153412 -12610149 -10746331 -9952920 
695.880 -10402848 -12002281 -14394015 -17024960 -19243386 -20523964 
696.241 -20572000 -19419084 -17370794 -14922325 -12611726 -10881264 
696.603 -10074211 -10371500 -11793084 -14202002 -17337970 -20864022 
696.964 -24400050 -27604276 -30177804 -31879942 -32566424 -32194864 
697.326 -30861516 -28794708 -26356912 -23968412 -22001932 -20731556 
697.687 -20235982 -20396830 -20928060 -21497242 -21824220 -21771688 
698.048 -21386070 -20863296 -20467860 -20413238 -20803542 -21595490 
698.410 -22649096 -23792820 -24905196 -25936330 -26872340 -27689682 
698.771 -28321386 -28663242 -28635790 -28239862 -27595632 -26899592 
699.133 -26365580 -26116392 -26127156 -26237464 -26241112 -26015136 
699.494 -25608156 -25258256 -25310180 -26101852 -27795958 -30303930 
699.856 -33260386 -36159048 -38474212 -39862632 -40268256 -39889656 
700.217 -39061696 -38095960 -37217368 -36512952 -35964288 -35490260 
700.579 -34990008 -34360684 -33506554 -32361000 -30902836 -29187498 
700.940 -27347150 -25587132 -24124720 -23114374 -22619216 -22601634 
701.302 -22977408 -23675302 -24686474 -26048964 -27781380 -29800138 
701.663 -31863072 -33592492 -34627092 -34735872 -33952136 -32563444 
702.024 -31047138 -29879452 -29357704 -29511558 -30083796 -30652042 
702.386 -30780746 -30229574 -29012146 -27374870 -25651198 -24158256 
702.747 -23096466 -22530952 -22449466 -22816662 -23610632 -24804440 
703.109 -26319054 -27981122 -29503818 -30577500 -30962822 -30590346 
703.470 -29594020 -28269572 -26968102 -25949002 -25323464 -25009998 
703.832 -24793862 -24398704 -23618036 -22400568 -20886444 -19367782 
704.193 -18209692 -17765876 -18255062 -19724832 -22018058 -24821212 
704.555 -27688750 -30152766 -31858544 -32619756 -32492212 -31722338 
704.916 -30677576 -29695962 -28995098 -28641002 -28557086 -28582496 
705.277 -28533630 -28274260 -27724654 -26875362 -25778424 -24558614 
705.639 -23413326 -22602608 -22439710 -23188542 -24965140 -27649608 
706.000 -30867072 -34041820 -36513836 -37777000 -37577096 -36011652 
706.362 -33466060 -30526604 -27780448 -25633206 -24272950 -23654466 
706.723 -23604260 -23915482 -24444056 -25122652 -25930866 -26852810 
707.085 -27840834 -28809776 -29670184 -30350030 -30816056 -31062314 
707.446 -31079866 -30826888 -30224352 -29171730 -27602442 -25528900 
707.808 -23075478 -20456704 -17943318 -15805647 -14229002 -13288835 
708.169 -12919087 -12939124 -13080161 -13074406 -12745309 -12056877 
708.531 -11144706 -10271811 -9773836 -9927239 -10875545 -12566471 -14771190 
708.952 -17138144 -19310328 -21055576 -22291012 -23076138 -23529252 
709.314 -23757656 -23802576 -23653714 -23303680 -22808992 -22318868 
709.675 -22056198 -22219114 -22905404 -24042090 -25402098 -26645194 
710.037 -27421128 -27476246 -26664484 -24960946 -22420044 -19156240 
710.398 -15338416 -11214973 -7156835 -3588756 -932483 523170 757474 59844 
710.880 -1009215 -1823772 -1825224 -753609 1276806 3794538 6141070 7685922 
711.362 7963809 6830740 4447079 1228989 -2304675 -5595230 -8152826 -9668177 
711.844 -10034777 -9397482 -8096404 -6615462 -5419607 -4818624 -4900767 
712.266 -5505595 -6310856 -6963616 -7271447 -7282493 -7286631 -7658209 
712.687 -8712715 -10534200 -12939285 -15523341 -17834762 -19567376 -20655608 
713.109 -21298438 -21838116 -22607736 -23750630 -25168088 -26544156 
713.470 -27500162 -27713774 -27058928 -25645108 -23786704 -21893756 
713.832 -20340586 -19425706 -19302024 -19977618 -21311690 -23030042 
714.193 -24736868 -25951934 -26257458 -25379286 -23307040 -20301250 
714.555 -16851288 -13523972 -10771382 -8862955 -7808586 -7423002 -7416324 
714.976 -7534027 -7629006 -7682722 -7775911 -8032429 -8569505 -9465958 
715.398 -10778364 -12552017 -14817464 -17562810 -20684326 -23962046 
715.760 -27036448 -29504684 -31029000 -31438760 -30817938 -29486512 
716.121 -27928616 -26613470 -25911920 -25980494 -26736242 -27881668 
716.482 -28999130 -29688844 -29630634 -28685512 -26902114 -24494888 
716.844 -21768096 -19054774 -16659273 -14779740 -13508330 -12829183 
717.205 -12655078 -12861704 -13329774 -13972334 -14730995 -15573628 
717.567 -16485581 -17459572 -18495718 -19595882 -20754078 -21942366 
717.928 -23091000 -24081808 -24777494 -25047970 -24824842 -24131584 
718.290 -23083302 -21841518 -20545296 -19272610 -18015924 -16720174 
718.651 -15349674 -13956645 -12715319 -11903869 -11797212 -12586073 
719.013 -14277387 -16683061 -19450798 -22182908 -24564906 -26404556 
719.374 -27667142 -28420058 -28774118 -28826956 -28658776 -28362048 
719.735 -28059558 -27914076 -28079810 -28614232 -29406042 -30138918 
720.097 -30376602 -29650936 -27675444 -24474218 -20427084 -16154110 
720.458 -12336355 -9541489 -8023744 -7710815 -8254010 -9205258 -10122220 
720.880 -10682681 -10720568 -10168798 -9028072 -7336122 -5182202 -2730095 
721.302 -237572 1927503 3381069 3782773 2929497 830204 -2281636 -5985087 
721.784 -9807106 -13288257 -16115129 -18172260 -19524962 -20379538 -21009864 
722.205 -21718648 -22751422 -24262454 -26276514 -28672642 -31180134 
722.567 -33409212 -34953568 -35433100 -34613936 -32478806 -29252120 
722.928 -25362314 -21334118 -17727548 -14978188 -13341824 -12871386 
723.290 -13428313 -14728785 -16402984 -18097136 -19483970 -20308714 
723.651 -20411752 -19705138 -18181984 -15913049 -13060324 -9872958 -6681115 
724.073 -3899874 -1932841 -1119513 -1640412 -3436614 -6183707 -9329418 
724.495 -12265174 -14421997 -15477173 -15444207 -14668822 -13691403 
724.856 -13033507 -13037913 -13708258 -14719144 -15499459 -15476981 
725.217 -14244426 -11753388 -8347532 -4718046 -1694544 30650 7587 -1833770 
725.699 -5237268 -9699835 -14650370 -19557526 -23972866 -27598990 -30250622 
726.121 -31853434 -32444860 -32184280 -31345766 -30249230 -29219252 
726.483 -28475016 -28072820 -27905966 -27763258 -27429496 -26774842 
726.844 -25827538 -24763692 -23849498 -23313196 -23271492 -23662594 
727.205 -24277526 -24808444 -24964606 -24569572 -23586938 -22123116 
727.567 -20370622 -18557568 -16868656 -15414564 -14215310 -13206143 
727.928 -12260696 -11232538 -10018168 -8602381 -7104228 -5762999 -4921767 
728.350 -4911873 -5942404 -8017954 -10903884 -14179041 -17319472 -19885144 
728.772 -21596310 -22399842 -22442512 -22011034 -21432750 -20974284 
729.133 -20829630 -21095788 -21792612 -22883118 -24276272 -25822510 
729.495 -27296528 -28441782 -29007590 -28815296 -27826506 -26148964 
729.856 -24007166 -21645332 -19279076 -17028942 -14921717 -12933400 
730.218 -11043903 -9276878 -7714004 -6465487 -5635526 -5297271 -5481090 
730.639 -6194454 -7441470 -9226149 -11523776 -14226758 -17114764 -19815064 
731.061 -21875768 -22887486 -22581284 -20968222 -18361480 -15357318 
731.422 -12647676 -10905887 -10628331 -11999800 -14888548 -18864810 
731.784 -23346858 -27658564 -31212638 -33636132 -34803648 -34863800 
732.145 -34157208 -33129774 -32167356 -31524096 -31278930 -31356004 
732.507 -31604386 -31902422 -32238026 -32722406 -33529710 -34780776 
732.868 -36443312 -38271504 -39850480 -40671328 -40339464 -38689768 
733.230 -35851636 -32179664 -28147204 -24209778 -20684642 -17777740 
733.591 -15600608 -14215791 -13667644 -13955200 -14987407 -16527846 
733.953 -18227008 -19696524 -20611278 -20853852 -20550984 -20050774 
734.314 -19762162 -20031694 -20980726 -22470830 -24152144 -25625304 
734.675 -26616090 -27046038 -27042830 -26823782 -26561548 -26262230 
735.037 -25758066 -24790700 -23182104 -20958372 -18422364 -16060116 
735.398 -14448888 -14039836 -15006805 -17209648 -20241800 -23587282 
735.760 -26735182 -29354512 -31316482 -32658790 -33492166 -33917296 
736.121 -33972788 -33647472 -32931466 -31875140 -30601310 -29297372 
736.483 -28143942 -27243440 -26586854 -26052708 -25462066 -24644996 
736.844 -23525486 -22149850 -20683348 -19341448 -18341340 -17824808 
737.206 -17812436 -18193200 -18744142 -19194854 -19261454 -18743856 
737.567 -17573216 -15842387 -13791947 -11769093 -10158635 -9252747 -9203247 
737.989 -9973839 -11382846 -13160403 -15053663 -16908844 -18676670 -20395408 
738.410 -22117510 -23834506 -25434568 -26714526 -27434348 -27430210 
738.772 -26676450 -25324308 -23643610 -21963504 -20550636 -19521446 
739.133 -18836162 -18335210 -17841566 -17240856 -16549727 -15903274 
739.495 -15501921 -15498212 -15923206 -16631404 -17341760 -17687848 
739.856 -17338576 -16115034 -14025720 -11275706 -8183002 -5120841 -2400145 
740.278 -220484 1323665 2227405 2521416 2231935 1360192 -104194 -2150137 
740.760 -4713851 -7642745 -10703306 -13629916 -16147727 -18058486 -19277556 
741.182 -19846052 -19916476 -19713876 -19498036 -19481404 -19799710 
741.543 -20467702 -21377776 -22309552 -22983034 -23144282 -22610788 
741.904 -21353582 -19514794 -17400940 -15383543 -13793584 -12835391 
742.266 -12513452 -12656623 -12981446 -13226231 -13225524 -12986721 
742.627 -12673261 -12555848 -12892005 -13817015 -15288582 -17076538 
742.989 -18829880 -20149636 -20737306 -20464258 -19415408 -17846814 
743.350 -16128125 -14636435 -13636884 -13253356 -13429823 -13973714 
743.712 -14600072 -15037628 -15106885 -14753766 -14053245 -13155709 
744.073 -12226744 -11379167 -10664091 -10086060 -9644942 -9377508 -9373617 
744.495 -9747528 -10600330 -11957091 -13737376 -15742349 -17707380 -19359322 
744.917 -20462330 -20882844 -20585114 -19620332 -18098216 -16189929 
745.278 -14136867 -12235956 -10859968 -10372373 -11022518 -12860386 
745.639 -15653603 -18913982 -21955472 -24134216 -25000706 -24433096 
746.001 -22656958 -20163490 -17548300 -15296482 -13722320 -12896411 
746.362 -12698201 -12890847 -13223435 -13496734 -13564086 -13337518 
746.724 -12766029 -11832520 -10569967 -9082329 -7554086 -6205462 -5266600 
747.145 -4904207 -5164685 -5952798 -7037954 -8117868 -8865488 -9045369 
747.567 -8570967 -7540735 -6218788 -4997405 -4324818 -4562070 -5916551 
747.989 -8345452 -11565624 -15089411 -18380790 -21031522 -22842094 -23889046 
748.411 -24444840 -24860954 -25375910 -26016634 -26563012 -26663518 
748.772 -25970350 -24321702 -21832318 -18888860 -16032526 -13766363 
749.133 -12464838 -12244751 -12980032 -14360550 -16032463 -17700032 
749.495 -19177988 -20410804 -21414488 -22214580 -22798900 -23105044 
749.856 -23041166 -22535072 -21566800 -20196606 -18556868 -16844658 
750.218 -15271756 -14031142 -13275981 -13078521 -13426514 -14222332 
750.579 -15313979 -16511004 -17620244 -18479840 -18946370 -18904720 
750.941 -18270916 -16996030 -15103140 -12716252 -10098944 -7618783 -5704238 
751.362 -4761833 -5033598 -6535667 -9012657 -12023746 -15007253 -17455592 
751.784 -19054140 -19710616 -19568262 -18916172 -18114360 -17462532 
752.146 -17146266 -17219964 -17623266 -18227358 -18883402 -19471488 
752.507 -19902108 -20120438 -20096206 -19805470 -19230358 -18364370 
752.868 -17230920 -15901230 -14507375 -13252006 -12362022 -12060132 
753.230 -12509910 -13759366 -15721962 -18171276 -20798804 -23233144 
753.591 -25129092 -26238306 -26427410 -25717126 -24270694 -22391818 
753.953 -20452310 -18842602 -17899504 -17796696 -18518484 -19848142 
754.314 -21453880 -22945824 -24003528 -24466264 -24353750 -23850848 
754.676 -23215870 -22701110 -22449214 -22477624 -22707432 -23035824 
755.037 -23391694 -23765968 -24190130 -24683406 -25197790 -25608406 
755.399 -25733834 -25422506 -24636824 -23504896 -22308040 -21404048 
755.760 -21143824 -21732800 -23184992 -25297050 -27718156 -29993326 
756.121 -31670928 -32426350 -32093198 -30722526 -28551162 -25969632 
756.483 -23401740 -21200912 -19583690 -18556616 -17938676 -17420134 
756.844 -16708441 -15623686 -14189014 -12610568 -11207611 -10263625 -9896829 
757.266 -10018265 -10361567 -10612909 -10534718 -10108073 -9554098 -9282522 
757.688 -9702817 -11091546 -13461658 -16550876 -19858240 -22777896 -24789730 
758.109 -25539146 -24972520 -23335458 -21151178 -19063812 -17695164 
758.471 -17538308 -18800530 -21375566 -24833668 -28553828 -31799548 
758.832 -33911012 -34499156 -33502992 -31230736 -28231974 -25199418 
759.194 -22738344 -21241112 -20855778 -21490776 -22899840 -24762972 
759.555 -26790418 -28729616 -30376106 -31577152 -32203540 -32169942 
759.917 -31458088 -30137712 -28367946 -26366110 -24378560 -22600314 
760.278 -21136218 -19977650 -19013768 -18076318 -17011068 -15760371 
760.640 -14401131 -13143655 -12251225 -11975593 -12437373 -13569545 
761.001 -15094532 -16601363 -17663194 -17952982 -17379198 -16109798 
761.362 -14543841 -13166382 -12472983 -12843337 -14450938 -17258560 
761.724 -21010654 -25295206 -29542482 -33131834 -35471972 -36054252 
762.085 -34616140 -31212574 -26282938 -20546844 -14923318 -10326172 -7407106 
762.507 -6509914 -7586419 -10282231 -14004386 -18089794 -21940666 -25059916 
762.929 -27164734 -28185522 -28259172 -27670748 -26798862 -26027650 
763.290 -25627832 -25718500 -26225298 -26932884 -27548802 -27831168 
763.652 -27677774 -27143568 -26398912 -25632174 -24958944 -24357228 
764.013 -23683866 -22744536 -21412282 -19695448 -17771854 -15924131 
764.375 -14488115 -13742545 -13843045 -14819610 -16581334 -18953540 
764.736 -21682906 -24475378 -26998400 -28905394 -29934598 -29968154 
765.097 -29107376 -27650634 -26049026 -24758278 -24083376 -24119172 
765.459 -24713674 -25552612 -26247600 -26493004 -26126782 -25134846 
765.820 -23605390 -21663140 -19431630 -17021870 -14580368 -12321411 
766.182 -10504285 -9411328 -9239123 -10019236 -11583013 -13600663 -15675526 
766.604 -17427296 -18622010 -19187372 -19200054 -18808716 -18167844 
766.965 -17375186 -16460827 -15425373 -14294027 -13150695 -12150711 
767.326 -11469178 -11234347 -11468726 -12051817 -12736717 -13202382 
767.688 -13184447 -12553016 -11391883 -9973289 -8710344 -8016002 -8155298 
768.110 -9186217 -10924272 -13030034 -15105925 -16877136 -18279238 -19476748 
768.531 -20757332 -22391536 -24466044 -26800698 -28959828 -30399432 
768.893 -30708604 -29755030 -27803198 -25418226 -23354206 -22271526 
769.254 -22567128 -24293692 -27165730 -30653646 -34104556 -36935536 
769.616 -38664340 -38985464 -37800628 -35212832 -31527176 -27186024 
769.977 -22744914 -18725514 -15510137 -13296869 -12059036 -11605725 
770.339 -11665789 -12017849 -12541620 -13238925 -14178239 -15411878 
770.700 -16893006 -18460440 -19849440 -20785856 -21076566 -20654564 
771.061 -19607158 -18140866 -16541563 -15085411 -14013946 -13497537 
771.423 -13601466 -14274502 -15323032 -16441813 -17224136 -17282760 
771.784 -16379023 -14506349 -11937524 -9157992 -6782708 -5345614 -5206888 
772.206 -6479752 -9037158 -12580376 -16739430 -21181820 -25599876 -29712114 
772.628 -33240098 -35860112 -37270040 -37264748 -35814228 -33116822 
772.989 -29579286 -25762626 -22210298 -19390060 -17606656 -16962924 
773.351 -17391486 -18681622 -20539132 -22575528 -24362960 -25482754 
773.712 -25548958 -24331194 -21811836 -18239812 -14070086 -9902853 -6361829 
774.134 -3905358 -2775037 -2911185 -3998147 -5510601 -6872209 -7621844 
774.555 -7489966 -6495454 -4913315 -3215257 -1898731 -1389933 -1951544 
774.977 -3628286 -6272320 -9584760 -13210706 -16750460 -19821520 -22099814 
775.399 -23311060 -23299252 -22065616 -19810314 -16909802 -13862942 
775.760 -11205351 -9331266 -8432390 -8436485 -9066981 -9924617 -10643754 
776.182 -11019127 -11026007 -10794654 -10501147 -10277474 -10136527 -9984687 
776.604 -9680394 -9126360 -8317466 -7349251 -6359674 -5479519 -4781136 
777.025 -4278658 -3973294 -3908577 -4192952 -4988921 -6427128 -8519798 
777.447 -11089834 -13793777 -16187310 -17843252 -18512610 -18168830 
777.808 -17022060 -15416482 -13754903 -12370910 -11458335 -11085765 
778.170 -11219914 -11786732 -12702674 -13894232 -15278761 -16737517 
778.531 -18124180 -19270488 -20028532 -20326928 -20195404 -19773940 
778.893 -19268490 -18921278 -18928480 -19387492 -20271146 -21420798 
779.254 -22577162 -23419606 -23676462 -23190708 -21993080 -20306344 
779.616 -18519564 -17085650 -16367504 -16570555 -17647224 -19320596 
779.977 -21129748 -22597200 -23369150 -23303368 -22507608 -21271306 
780.339 -19954170 -18829976 -18034108 -17540948 -17231270 -16972674 
780.700 -16712872 -16510367 -16519394 -16909516 -17775766 -19073674 
781.062 -20607960 -22076888 -23150754 -23604794 -23375934 -22601634 
781.423 -21562952 -20636398 -20189678 -20486826 -21668910 -23706614 
781.784 -26411758 -29430968 -32320924 -34615128 -35896876 -35938696 
782.146 -34754804 -32635740 -30052106 -27573056 -25683272 -24624270 
782.507 -24360328 -24599066 -24946618 -25041524 -24736650 -24140642 
782.869 -23571684 -23375400 -23762894 -24676988 -25797628 -26626280 
783.230 -26680812 -25711194 -23783128 -21283042 -18741668 -16692754 
783.592 -15447596 -15019608 -15139588 -15379993 -15293348 -14533075 
783.953 -12973921 -10723187 -8116145 -5609262 -3738972 -2990267 -3678097 
784.375 -5914099 -9557048 -14260778 -19498576 -24701938 -29344664 -32995194 
784.797 -35410896 -36521176 -36412752 -35277572 -33395436 -31105220 
785.158 -28755076 -26707422 -25246440 -24502184 -24402306 -24667660 
785.519 -24902850 -24714176 -23906138 -22570462 -21103236 -20043402 
785.881 -19928408 -21074166 -23443182 -26629676 -29968462 -32771476 
786.242 -34450188 -34703664 -33526492 -31151914 -27936320 -24277056 
786.604 -20576204 -17174392 -14373371 -12410712 -11417445 -11409538 
786.965 -12268942 -13780359 -15653443 -17601534 -19395066 -20857894 
787.327 -21882384 -22401604 -22379104 -21824126 -20822524 -19566236 
787.688 -18315516 -17364044 -16932620 -17078132 -17664942 -18404102 
788.050 -18977518 -19139468 -18839874 -18233108 -17632970 -17367578 
788.411 -17675220 -18619820 -20082508 -21810450 -23506560 -24935356 
788.772 -25939920 -26457496 -26493222 -26094802 -25343874 -24354408 
789.134 -23284430 -22299384 -21537728 -21062678 -20829472 -20691150 
789.495 -20448518 -19948378 -19145588 -18152528 -17201558 -16602542 
789.857 -16633157 -17455656 -19079064 -21336390 -23917520 -26399818 
790.218 -28369186 -29472270 -29493292 -28409598 -26395826 -23804834 
790.580 -21064950 -18639152 -16891478 -16004138 -15962971 -16567940 
790.941 -17517082 -18477206 -19205252 -19585526 -19642598 -19507668 
791.303 -19377132 -19459038 -19912046 -20823662 -22168330 -23798028 
791.664 -25428850 -26701782 -27276862 -26916316 -25610216 -23607712 
792.026 -21400170 -19554168 -18598202 -18858814 -20358260 -22809368 
792.387 -25692548 -28447740 -30578272 -31818516 -32157172 -31784058 
792.748 -30974640 -29979286 -28958618 -27939056 -26833312 -25475002 
793.110 -23688416 -21328440 -18338736 -14784448 -10871376 -6923084 -3310134 
793.532 -423246 1435217 2097637 1548593 -78023 -2532326 -5487143 -8626256 
794.013 -11658628 -14361864 -16613577 -18389778 -19777168 -20947132 
794.375 -22135334 -23557280 -25327870 -27403334 -29564522 -31461104 
794.736 -32689862 -32951002 -32116678 -30285634 -27730188 -24839706 
795.098 -22014026 -19574344 -17782670 -16824990 -16825374 -17847036 
795.459 -19843996 -22619782 -25781298 -28823854 -31216152 -32564364 
795.821 -32775070 -32087014 -31007126 -30092918 -29817340 -30373882 
796.182 -31633564 -33173338 -34433048 -34904072 -34259552 -32482036 
796.544 -29835776 -26781416 -23781308 -21193526 -19162232 -17606468 
796.905 -16283864 -14920885 -13361392 -11663080 -10132352 -9237112 -9491763 
797.327 -11216459 -14401163 -18632866 -23226926 -27378666 -30418340 
797.688 -32050238 -32391724 -31909194 -31159718 -30607700 -30413706 
798.050 -30430852 -30301548 -29666286 -28325234 -26316838 -23880358 
798.411 -21337272 -18949922 -16810552 -14857299 -12956426 -11027525 -9118930 
798.833 -7418571 -6164630 -5564612 -5688508 -6453833 -7655670 -9065716 
799.255 -10499789 -11860700 -13141341 -14378084 -15600800 -16798852 
799.616 -17912540 -18847806 -19505068 -19782266 -19595280 -18888382 
799.977 -17649260 -15932469 -13869554 -11663629 -9521846 -7607909 -5987081 
800.399 -4627116 -3455450 -2457675 -1744246 -1577360 -2280878 -4089570 
800.821 -7015230 -10753216 -14726606 -18199428 -20571526 -21538864 -21211072 
801.242 -20031884 -18640516 -17634212 -17357836 -17873398 -18975710 
801.604 -20335400 -21597004 -22500972 -22903234 -22748152 -22046906 
801.965 -20864180 -19337486 -17671306 -16136456 -15002996 -14432222 
802.327 -14421420 -14775001 -15192320 -15361444 -15118181 -14511156 
802.688 -13785463 -13252907 -13147223 -13511831 -14180196 -14848782 
803.050 -15213371 -15115525 -14574793 -13753716 -12830791 -11902000 
803.411 -10919329 -9745455 -8260578 -6493625 -4672551 -3197168 -2467328 
803.833 -2746228 -4033602 -6066520 -8395765 -10559102 -12269779 -13475246 
804.255 -14364525 -15239573 -16398517 -17987952 -19966732 -22136152 
804.616 -24243308 -26066470 -27469652 -28418412 -28936796 -29057206 
804.977 -28782986 -28080400 -26898658 -25203638 -23002642 -20360442 
805.339 -17394128 -14278959 -11223659 -8462644 -6248478 -4791360 -4230426 
805.761 -4584398 -5735859 -7437040 -9366840 -11230860 -12800775 -13984975 
806.182 -14828128 -15479763 -16125729 -16928190 -17995802 -19365500 
806.544 -21020126 -22900184 -24918650 -26943346 -28793962 -30270554 
806.905 -31171530 -31366114 -30844264 -29733960 -28269232 -26718638 
807.267 -25319462 -24179662 -23251172 -22341780 -21218014 -19701812 
807.628 -17785022 -15659483 -13701838 -12361571 -12010532 -12868813 
807.990 -14907887 -17869838 -21304686 -24718370 -27677774 -29880968 
808.351 -31216246 -31719290 -31515252 -30735214 -29477040 -27781474 
808.712 -25651634 -23097880 -20186010 -17064496 -13989949 -11281485 -9268024 
809.134 -8240454 -8352668 -9586834 -11721073 -14381450 -17068160 -19263102 
809.556 -20573042 -20779096 -19920686 -18265134 -16270619 -14446003 
809.917 -13234523 -12956684 -13726236 -15457797 -17878612 -20612100 
810.279 -23216656 -25281326 -26539230 -26898908 -26478506 -25542990 
810.640 -24446656 -23506842 -22921558 -22750386 -22923476 -23310244 
811.002 -23788022 -24304722 -24876128 -25543490 -26303212 -27049836 
811.363 -27558814 -27557448 -26789732 -25146292 -22727274 -19865456 
811.725 -17039998 -14765617 -13506820 -13532676 -14890149 -17387602 
812.086 -20667044 -24249324 -27633968 -30418680 -32316804 -33221252 
812.447 -33191756 -32421798 -31163296 -29652298 -28077168 -26543782 
812.809 -25111612 -23849248 -22872210 -22367776 -22553728 -23577586 
813.170 -25436224 -27900776 -30558846 -32853108 -34268372 -34484956 
813.532 -33455416 -31420916 -28804910 -26079980 -23571496 -21397584 
813.893 -19460208 -17553582 -15487565 -13226585 -10934740 -8965013 -7746879 
814.315 -7647922 -8895809 -11473824 -15116069 -19316032 -23470870 -26975732 
814.737 -29350364 -30375582 -30111250 -28895660 -27223960 -25683430 
815.098 -24778622 -24797648 -25769306 -27440102 -29366252 -31002838 
815.460 -31903282 -31813744 -30734164 -28890636 -26668286 -24499302 
815.821 -22722210 -21537886 -20948236 -20782506 -20739706 -20501712 
816.182 -19840070 -18679684 -17142414 -15514294 -14190425 -13531166 
816.544 -13791465 -15040861 -17155154 -19849314 -22761516 -25568576 
816.905 -28012870 -29952908 -31343948 -32197170 -32549058 -32443508 
817.267 -31938654 -31105992 -30033648 -28809902 -27492294 -26099294 
817.628 -24616694 -23034946 -21393862 -19812024 -18467932 -17567584 
817.990 -17250600 -17525324 -18236856 -19117496 -19874352 -20294422 
818.351 -20336128 -20127840 -19906602 -19889194 -20191956 -20759544 
818.713 -21394114 -21808432 -21745940 -21070822 -19802494 -18109688 
819.074 -16253671 -14533331 -13190586 -12392036 -12212021 -12637313 
819.435 -13585859 -14912369 -16432848 -17907326 -19072470 -19680786 
819.797 -19520656 -18489114 -16626716 -14153834 -11438875 -8965045 -7252875 
820.219 -6697559 -7494329 -9536790 -12442751 -15595269 -18327968 -20137394 
820.640 -20782348 -20382826 -19339958 -18219956 -17511990 -17488376 
821.002 -18123386 -19138074 -20118698 -20689508 -20669920 -20095382 
821.363 -19180588 -18188180 -17344942 -16752724 -16394211 -16181182 
821.725 -16029142 -15904073 -15830407 -15857913 -16020456 -16305661 
822.086 -16663993 -17034964 -17384736 -17721504 -18082230 -18493812 
822.448 -18937584 -19332670 -19564494 -19539312 -19239772 -18754362 
822.809 -18262812 -17980448 -18056452 -18509752 -19172980 -19731008 
823.170 -19758268 -18859830 -16811188 -13635632 -9657808 -5443462 -1750187 
823.592 708386 1408756 175679 -2730918 -6631615 -10567089 -13630944 
824.014 -15137573 -14882113 -13160178 -10676667 -8274231 -6648192 -6213072 
824.436 -6977735 -8626645 -10647214 -12563477 -14050550 -15008405 -15528777 
824.857 -15793346 -15956583 -16065320 -16057530 -15813826 -15245748 
825.219 -14359299 -13285975 -12250936 -11527325 -11331006 -11771930 
825.580 -12808979 -14261805 -15831238 -17163786 -17956956 -18003718 
825.942 -17268878 -15892094 -14171536 -12471985 -11127138 -10381205 
826.303 -10305884 -10800859 -11615855 -12449190 -13013443 -13124335 
826.664 -12753223 -12024487 -11182941 -10510462 -10288347 -10707024 
827.026 -11822267 -13534377 -15605275 -17706872 -19471648 -20609350 
827.387 -20948712 -20479176 -19333398 -17747142 -15989574 -14283672 
827.749 -12802320 -11652145 -10894706 -10580832 -10751341 -11421834 
828.110 -12545225 -13985424 -15502848 -16773637 -17492448 -17436208 
828.472 -16565196 -15052255 -13274984 -11715783 -10814562 -10904239 
828.833 -12102443 -14311853 -17239264 -20487426 -23624092 -26238556 
829.195 -28039368 -28856192 -28657256 -27531698 -25675402 -23360642 
829.556 -20884074 -18563758 -16667085 -15359461 -14682308 -14532882 
829.918 -14699221 -14910416 -14945984 -14694064 -14198186 -13625902 
830.279 -13209774 -13136325 -13453306 -14034575 -14609331 -14871387 
830.640 -14571621 -13642054 -12215855 -10591956 -9101246 -8010212 -7449775 
831.062 -7403359 -7766083 -8424819 -9330131 -10506257 -12013820 -13874368 
831.484 -15999889 -18173340 -20095920 -21448614 -22020484 -21756972 
831.845 -20769146 -19267096 -17494486 -15660984 -13900361 -12300604 
832.207 -10928763 -9853103 -9154521 -8894413 -9077981 -9621707 -10352993 
832.628 -11034471 -11390656 -11185977 -10249515 -8509921 -6011492 -2922342 
833.050 470260 3808309 6660928 8618256 9383138 8814667 6992907 4186219 
833.532 803049 -2759267 -6195042 -9344984 -12194399 -14797001 -17189010 
833.954 -19332670 -21110528 -22383132 -23071772 -23214392 -22974108 
834.315 -22577760 -22249838 -22114802 -22174596 -22329630 -22453934 
834.677 -22460856 -22355690 -22225600 -22193330 -22337532 -22633684 
835.038 -22932372 -23002108 -22615096 -21617434 -20015336 -17987570 
835.400 -15869478 -14039162 -12839766 -12481709 -12977427 -14146168 
835.761 -15661752 -17177512 -18392860 -19165528 -19534054 -19684840 
836.122 -19851244 -20203660 -20777074 -21450316 -22001428 -22203214 
836.484 -21944006 -21270296 -20376786 -19504150 -18859608 -18520006 
836.845 -18419282 -18387048 -18238986 -17863476 -17258336 -16524019 
837.207 -15810726 -15264366 -14975947 -14990640 -15323735 -15974341 
837.568 -16913148 -18038270 -19150152 -19921636 -19978504 -19030608 
837.930 -16991568 -14090134 -10848302 -7995900 -6195630 -5882589 -7112833 
838.351 -9567874 -12646324 -15672427 -18140484 -19784734 -20628752 -20875264 
838.773 -20789708 -20563624 -20270800 -19886822 -19350290 -18627218 
839.135 -17750768 -16814568 -15951473 -15299298 -14967240 -15043677 
839.496 -15584369 -16605444 -18066432 -19855074 -21797308 -23671600 
839.857 -25283826 -26513484 -27338874 -27822032 -28053936 -28086052 
840.219 -27889216 -27360902 -26387250 -24929692 -23085250 -21088876 
840.580 -19234352 -17795010 -16899444 -16499585 -16396252 -16348837 
840.942 -16175468 -15839990 -15461986 -15264302 -15467901 -16182939 
841.303 -17376364 -18885242 -20505000 -22057930 -23471874 -24776022 
841.665 -26053738 -27356980 -28639576 -29725358 -30365448 -30305566 
842.026 -29400438 -27689776 -25419568 -22992616 -20839704 -19346486 
842.388 -18710788 -18897550 -19635028 -20509268 -21074072 -20966738 
842.749 -20038562 -18372564 -16264075 -14100270 -12290458 -11148743 
843.110 -10827587 -11325647 -12505146 -14150690 -15989318 -17752294 
843.472 -19198942 -20138120 -20486794 -20298374 -19782392 -19245066 
843.833 -19034416 -19414206 -20454300 -21990058 -23651642 -25008682 
844.195 -25692580 -25579012 -24828848 -23859502 -23168564 -23191086 
844.556 -24167408 -26070026 -28632690 -31434200 -34052388 -36111736 
844.918 -37355876 -37650932 -36948132 -35287772 -32804660 -29765550 
845.279 -26541444 -23564468 -21256730 -19880838 -19485396 -19870836 
845.641 -20683190 -21506008 -22025366 -22129918 -21898418 -21522058 
846.002 -21173016 -20922062 -20706092 -20388928 -19854980 -19112424 
846.364 -18326730 -17791382 -17799462 -18556774 -20083456 -22211338 
846.725 -24617352 -26925658 -28815762 -30048768 -30515116 -30214460 
847.086 -29237252 -27742248 -25956806 -24179318 -22718846 -21869370 
847.448 -21820186 -22580812 -23946620 -25520934 -26839572 -27454474 
847.809 -27106308 -25791788 -23764118 -21434706 -19250422 -17586422 
848.171 -16622730 -16340923 -16548324 -16981946 -17376936 -17557402 
848.532 -17469184 -17154230 -16701618 -16184278 -15622727 -14974411 
848.894 -14165218 -13138190 -11905126 -10568447 -9309927 -8320196 -7751338 
849.315 -7650493 -7942580 -8442854 -8923920 -9202923 -9190109 -8930705 
849.737 -8577335 -8346915 -8431870 -8953783 -9930477 -11278288 -12827124 
850.159 -14351029 -15624037 -16427776 -16607102 -16113343 -15037660 
850.520 -13625582 -12232381 -11279773 -11107921 -11886138 -13541090 
850.882 -15764941 -18062652 -19870742 -20750982 -20471274 -19091146 
851.243 -16903366 -14355356 -11890071 -9834705 -8393880 -7639685 -7571832 
851.665 -8164240 -9387755 -11196149 -13489443 -16099071 -18769718 -21197566 
852.086 -23115096 -24325430 -24765758 -24497018 -23665984 -22428792 
852.448 -20891022 -19091242 -17016644 -14660173 -12087491 -9465148 -7070652 
852.870 -5244994 -4285679 -4400462 -5626925 -7827071 -10693510 -13827382 
853.291 -16827222 -19326078 -21086318 -22007790 -22125006 -21575660 
853.653 -20567132 -19336980 -18094784 -17020628 -16237138 -15805455 
854.014 -15735382 -15993470 -16519330 -17233436 -18056104 -18915188 
854.376 -19743862 -20487080 -21091244 -21500238 -21660494 -21521964 
854.737 -21048598 -20231270 -19093842 -17695644 -16123015 -14493306 
855.099 -12935554 -11581207 -10563047 -9984137 -9902594 -10300384 -11064802 
855.520 -11970210 -12696109 -12913298 -12334197 -10826521 -8467518 -5563696 
855.942 -2586051 -50725 1555044 1935757 1038734 -929177 -3584287 -6454290 
856.424 -9102025 -11255560 -12813226 -13841793 -14498114 -14965639 -15376699 
856.846 -15780181 -16152259 -16431348 -16566887 -16557669 -16466537 
857.207 -16409462 -16521530 -16897946 -17559628 -18418838 -19297966 
857.568 -19947744 -20127334 -19688798 -18623058 -17088770 -15369856 
857.930 -13825648 -12758436 -12340123 -12547833 -13169339 -13846639 
858.291 -14182504 -13891537 -12864793 -11230214 -9293419 -7480488 -6188672 
858.713 -5681968 -6056652 -7228239 -8990264 -11075719 -13251332 -15339632 
859.135 -17229804 -18864588 -20201572 -21193780 -21791636 -21952414 
859.496 -21671274 -20994016 -20025272 -18901104 -17754298 -16690012 
859.858 -15755259 -14949442 -14247504 -13636017 -13140054 -12835005 
860.219 -12823456 -13211028 -14057158 -15344557 -16964708 -18739540 
860.581 -20462394 -21926678 -22986584 -23567606 -23664508 -23319130 
860.942 -22593080 -21543562 -20216656 -18669210 -16995934 -15340623 
861.303 -13915027 -12952053 -12646421 -13103085 -14276201 -15964024 
861.665 -17830438 -19522840 -20751646 -21389604 -21510108 -21359070 
862.026 -21259790 -21472708 -22122896 -23134510 -24273388 -25206578 
862.388 -25640484 -25409318 -24516622 -23116666 -21445902 -19735154 
862.749 -18121448 -16640618 -15253169 -13915155 -12643653 -11558332 
863.111 -10854669 -10763851 -11450977 -12951538 -15142821 -17778948 
863.472 -20548204 -23134292 -25303802 -26907376 -27882288 -28226384 
863.834 -27965744 -27142446 -25817360 -24099644 -22159578 -20216594 
864.195 -18531280 -17325138 -16729897 -16747274 -17244582 -17984232 
864.557 -18680986 -19096948 -19069616 -18551820 -17599148 -16344018 
864.918 -14947489 -13560873 -12321153 -11333362 -10679253 -10423939 
865.279 -10600589 -11199798 -12145878 -13301818 -14466386 -15408392 
865.641 -15929082 -15885513 -15242997 -14082885 -12608765 -11105693 -9886367 
866.063 -9257223 -9422092 -10444868 -12213986 -14467989 -16826680 -18876454 
866.484 -20300620 -20927934 -20797256 -20120026 -19227094 -18439384 
866.846 -17965348 -17861474 -18028132 -18283050 -18448816 -18455898 
867.207 -18373452 -18390128 -18711264 -19471202 -20636240 -21997364 
867.569 -23198500 -23864520 -23737830 -22750228 -21067854 -19028390 
867.930 -17063128 -15530982 -14643771 -14409529 -14656233 -15087619 
868.292 -15384886 -15323063 -14807025 -13902416 -12788968 -11719008 
868.653 -10931445 -10602918 -10838640 -11660338 -13030388 -14864247 
869.014 -17051944 -19448518 -21866378 -24095568 -25893316 -27031312 
869.376 -27355954 -26821756 -25529930 -23706176 -21675656 -19760990 
869.737 -18217540 -17191652 -16688544 -16597917 -16732607 -16902886 
870.099 -16946706 -16773095 -16369451 -15784463 -15097124 -14375071 
870.460 -13653100 -12917832 -12123517 -11225564 -10228771 -9228776 -8436940 
870.882 -8133868 -8629796 -10162034 -12796143 -16372737 -20495612 -24624458 
871.304 -28126768 -30487040 -31445078 -31072526 -29751842 -28050736 
871.665 -26560862 -25676246 -25533680 -25985082 -26701532 -27269954 
872.026 -27355020 -26815588 -25731336 -24378436 -23124742 -22354810 
872.388 -22333312 -23151192 -24693140 -26668878 -28653844 -30171622 
872.749 -30833462 -30383212 -28771730 -26149056 -22836970 -19243196 
873.111 -15760722 -12743474 -10426559 -8925640 -8251539 -8328647 -9017687 
873.533 -10130215 -11469339 -12836999 -14074192 -15101380 -15927773 
873.894 -16649706 -17400398 -18303572 -19404064 -20644676 -21872144 
874.255 -22903674 -23591456 -23873992 -23790280 -23439070 -22909866 
874.617 -22221286 -21307210 -20054982 -18386094 -16323404 -14027325 
874.978 -11749356 -9766255 -8253620 -7234039 -6583089 -6118338 -5697207 
875.400 -5307287 -5080693 -5245551 -6008127 -7432447 -9382145 -11539103 
875.822 -13523843 -14989007 -15767688 -15909215 -15658332 -15342606 
876.183 -15272300 -15648553 -16504880 -17722586 -19067332 -20273044 
876.545 -21073440 -21275156 -20802404 -19718690 -18229614 -16639439 
876.906 -15311740 -14546629 -14512694 -15191711 -16385596 -17764476 
877.268 -18966100 -19730660 -19946668 -19681578 -19113564 -18457804 
877.629 -17857022 -17332050 -16785942 -16062448 -15023129 -13613957 
877.990 -11907125 -10101696 -8498777 -7415249 -7151425 -7904743 -9704663 
878.412 -12371168 -15509818 -18594616 -21026596 -22344046 -22359214 
878.774 -21243698 -19490148 -17787884 -16830570 -17050446 -18528454 
879.135 -20943976 -23726660 -26185528 -27762576 -28200148 -27557944 
879.496 -26153988 -24398892 -22677180 -21212020 -20061342 -19157698 
879.858 -18386252 -17644456 -16879972 -16095687 -15333938 -14662319 
880.219 -14160921 -13929787 -14068290 -14646046 -15664086 -17015498 
880.581 -18478348 -19727842 -20437832 -20346594 -19347786 -17534966 
880.942 -15203006 -12786459 -10724448 -9405880 -9050950 -9675436 -11095487 
881.364 -12980643 -14935643 -16558561 -17562270 -17807730 -17327718 
881.725 -16292864 -14964296 -13615948 -12450060 -11589336 -11068936 
882.087 -10876869 -10996578 -11428257 -12177002 -13207203 -14404689 
882.448 -15556206 -16367089 -16568130 -15991203 -14660941 -12798716 
882.810 -10787607 -9052540 -7918374 -7566232 -7984514 -9016129 -10403463 
883.231 -11873693 -13181650 -14120477 -14555761 -14423215 -13748644 
883.593 -12654531 -11370257 -10197734 -9424037 -9273440 -9813229 -10936000 
884.015 -12376256 -13809729 -14959558 -15667185 -15941348 -15922375 
884.376 -15815711 -15791908 -15948597 -16290151 -16757444 -17266076 
884.737 -17745392 -18154244 -18468918 -18673972 -18757154 -18720532 
885.099 -18601568 -18484604 -18500576 -18779842 -19414870 -20413302 
885.460 -21687790 -23065080 -24334702 -25314056 -25866188 -25931586 
885.822 -25519026 -24689856 -23540050 -22191600 -20795584 -19506938 
886.183 -18471490 -17793864 -17501424 -17538468 -17779330 -18079942 
886.545 -18310306 -18397908 -18330318 -18127804 -17806840 -17356882 
886.906 -16743703 -15948279 -15010358 -14061521 -13296098 -12933271 
887.268 -13135329 -13942911 -15262095 -16889724 -18594426 -20157352 
887.629 -21433414 -22352638 -22868626 -22929950 -22459534 -21380298 
887.991 -19681516 -17480164 -15052319 -12757438 -10978099 -9982194 -9838268 
888.412 -10408574 -11396467 -12461683 -13294812 -13732850 -13779203 
888.774 -13587400 -13381247 -13388508 -13776250 -14604301 -15825262 
889.135 -17292790 -18807702 -20137614 -21083164 -21530604 -21469932 
889.497 -21000332 -20283006 -19487076 -18709550 -17945986 -17100462 
889.858 -16059030 -14766385 -13301753 -11870952 -10764109 -10229580 
890.219 -10358332 -11030400 -11939008 -12713550 -13041932 -12828829 
890.581 -12222394 -11567204 -11230827 -11482699 -12381280 -13770408 
890.942 -15336913 -16734201 -17714888 -18163554 -18108704 -17650724 
891.304 -16899540 -15923206 -14758987 -13458446 -12118394 -10893996 -9962830 
891.726 -9447025 -9370440 -9634119 -10067186 -10484523 -10780109 -10970022 
892.147 -11186978 -11614435 -12399603 -13593470 -15120741 -16806152 
892.509 -18429256 -19808636 -20830736 -21472360 -21785270 -21875736 
892.870 -21880020 -21937010 -22187884 -22739286 -23632534 -24812544 
893.232 -26117546 -27296528 -28051512 -28147730 -27471984 -26090402 
893.593 -24223348 -22205106 -20386366 -19037586 -18338196 -18349726 
893.954 -19041012 -20305046 -21978498 -23847586 -25641108 -27089964 
894.316 -27961580 -28125216 -27601074 -26561050 -25280640 -24027574 
894.677 -23000034 -22246502 -21677988 -21122648 -20432270 -19564906 
895.039 -18619726 -17796184 -17314442 -17317912 -17795358 -18575220 
895.400 -19376148 -19928440 -20041694 -19684934 -18980816 -18177630 
895.762 -17565738 -17401608 -17876196 -19059974 -20895064 -23179652 
896.123 -25601002 -27741658 -29137928 -29410222 -28330016 -25940262 
896.485 -22569204 -18824772 -15439411 -13071030 -12197975 -12948772 
896.846 -15098788 -18103842 -21294590 -24015976 -25800126 -26504380 
897.208 -26294884 -25570044 -24770358 -24271040 -24236572 -24596720 
897.569 -25082590 -25350532 -25122246 -24278810 -22918322 -21311152 
897.930 -19814462 -18721546 -18200446 -18241560 -18692412 -19316190 
898.292 -19890334 -20285726 -20478544 -20534234 -20547192 -20591180 
898.653 -20682210 -20784876 -20839610 -20800606 -20654376 -20421394 
899.015 -20138278 -19843140 -19569436 -19353174 -19252292 -19347818 
899.376 -19718594 -20404956 -21356704 -22414790 -23320606 -23811170 
899.738 -23697296 -22950882 -21728166 -20343842 -19169936 -18489716 
900.099 -18432430 -18919534 -19725276 -20551870 -21161814 -21444702 
900.461 -21422942 -21208990 -20933934 -20685022 -20473044 -20252174 
900.822 -19962966 -19581438 -19137914 -18708882 -18377170 -18203782 
901.183 -18201018 -18337942 -18557726 -18805480 -19038442 -19219644 
901.545 -19310770 -19260216 -19013198 -18542392 -17878390 -17132762 
901.906 -16474416 -16102774 -16168317 -16714498 -17656386 -18801768 
902.268 -19913376 -20763398 -21213880 -21227638 -20858462 -20200528 
902.629 -19348706 -18363162 -17264578 -16062001 -14783743 -13496895 
902.991 -12317031 -11376810 -10791130 -10633085 -10908471 -11560558 
903.352 -12479294 -13535663 -14591807 -15521295 -16231457 -16659847 
903.714 -16787474 -16641129 -16292704 -15847178 -15416387 -15101636 
904.075 -14959781 -14993809 -15156931 -15378394 -15587438 -15736694 
904.437 -15816668 -15846668 -15860692 -15889443 -15956424 -16080616 
904.798 -16286768 -16615618 -17116104 -17825508 -18741476 -19797904 
905.159 -20856536 -21716188 -22174848 -22062906 -21305664 -19951954 
905.521 -18178202 -16249012 -14443247 -13023990 -12164018 -11926178 
905.882 -12258956 -13012188 -13962227 -14842826 -15420064 -15520880 
906.244 -15081731 -14160568 -12928317 -11625629 -10489925 -9728737 -9459085 
906.665 -9695947 -10362021 -11320353 -12413127 -13488608 -14441581 -15211100 
907.087 -15781779 -16175341 -16443281 -16660454 -16905372 -17255090 
907.449 -17756144 -18408674 -19159536 -19917934 -20588844 -21109550 
907.810 -21487686 -21804178 -22186688 -22744034 -23516258 -24431936 
908.172 -25327276 -25977030 -26182876 -25851890 -25027982 -23883400 
908.533 -22649788 -21557750 -20749276 -20263780 -20052324 -20030176 
908.894 -20124424 -20311812 -20620536 -21102352 -21789084 -22660102 
909.256 -23628612 -24560992 -25314242 -25758564 -25813644 -25452694 
909.617 -24696116 -23596886 -22231800 -20692888 -19070692 -17455306 
909.979 -15920108 -14509874 -13246832 -12140143 -11208161 -10504349 
910.340 -10117332 -10151320 -10686592 -11720524 -13131117 -14664722 
910.702 -16014963 -16885930 -17114446 -16739272 -16001327 -15261647 
911.063 -14851503 -14975403 -15601918 -16473522 -17157956 -17224136 
911.425 -16375385 -14561368 -12004538 -9151600 -6556817 -4695660 -3903093 
911.846 -4271899 -5660808 -7727838 -10039537 -12191146 -13866890 -14931738 
912.268 -15426268 -15536577 -15508347 -15585520 -15942754 -16634943 
912.629 -17600644 -18682002 -19690254 -20441340 -20816966 -20786264 
912.991 -20401192 -19774162 -19045768 -18366592 -17858390 -17609648 
913.352 -17666534 -18027400 -18646008 -19436446 -20293820 -21103426 
913.714 -21769672 -22235454 -22481654 -22520036 -22368908 -22030814 
914.075 -21482012 -20681926 -19601014 -18256714 -16741024 -15224601 
914.437 -13906619 -12980707 -12565183 -12666727 -13177954 -13912940 
914.798 -14669591 -15272652 -15636919 -15775388 -15786029 -15799448 
915.160 -15936270 -16263789 -16778260 -17418320 -18092400 -18719866 
915.521 -19244654 -19646746 -19929454 -20097060 -20134166 -19998282 
915.882 -19620808 -18936250 -17907038 -16553586 -14962343 -13285975 
916.244 -11715267 -10421707 -9535785 -9104459 -9090247 -9389571 -9878465 
916.666 -10460588 -11093581 -11800533 -12642430 -13676506 -14908656 
917.027 -16272470 -17637646 -18864810 -19849726 -20577244 -21127098 
917.388 -21648734 -22287706 -23112270 -24069114 -24986598 -25629646 
917.750 -25776894 -25327340 -24339466 -23034946 -21708026 -20660694 
918.111 -20097156 -20067448 -20471180 -21095504 -21696490 -22042088 
918.473 -21986182 -21484282 -20587578 -19417626 -18140736 -16946736 
918.834 -16006436 -15466399 -15417666 -15868424 -16729897 -17816380 
919.196 -18889748 -19686834 -20008154 -19772262 -19042754 -18017452 
919.557 -16986376 -16276492 -16143385 -16727252 -17995708 -19754910 
919.919 -21671368 -23366514 -24539920 -25028076 -24874502 -24300680 
920.280 -23653966 -23267064 -23355524 -23949694 -24887206 -25871152 
920.642 -26574888 -26778456 -26419180 -25614652 -24587326 -23592492 
921.003 -22806822 -22277634 -21933766 -21639814 -21271400 -20763302 
921.364 -20132142 -19447822 -18789012 -18193838 -17650024 -17111516 
921.726 -16545199 -15972232 -15490922 -15251762 -15426716 -16133808 
922.087 -17389894 -19083186 -20996952 -22851684 -24355974 -25298114 
922.449 -25571076 -25205670 -24352090 -23261064 -22218704 -21463972 
922.810 -21158942 -21335884 -21912220 -22719632 -23579814 -24360518 
923.172 -25005054 -25531962 -25987266 -26379892 -26639212 -26603218 
923.533 -26069652 -24894590 -23069854 -20786708 -18397814 -16366387 
923.895 -15094980 -14806544 -15479124 -16849884 -18489240 -19907490 
924.256 -20724860 -20722900 -19900178 -18432780 -16621741 -14794087 
924.617 -13213663 -12068897 -11439746 -11321838 -11650725 -12334841 
924.979 -13274342 -14372186 -15551155 -16745042 -17895020 -18946656 
925.340 -19836334 -20496560 -20872674 -20937408 -20718540 -20305932 
925.702 -19854314 -19542384 -19529460 -19917046 -20707104 -21800586 
926.063 -23012950 -24140424 -24995794 -25469878 -25559892 -25365220 
926.425 -25055850 -24814954 -24812608 -25154860 -25873120 -26922170 
926.786 -28194218 -29531340 -30740370 -31638246 -32062486 -31909872 
927.148 -31165054 -29911248 -28324240 -26625252 -25053848 -23789746 
927.509 -22910622 -22380016 -22070180 -21813694 -21463374 -20955594 
927.871 -20317790 -19646650 -19039710 -18540266 -18092272 -17559438 
928.232 -16767517 -15597827 -14051353 -12276962 -10531225 -9103744 -8245525 
928.654 -8077443 -8580714 -9616813 -11000454 -12542522 -14090808 -15538463 
929.075 -16788334 -17746984 -18339402 -18541438 -18430968 -18199970 
929.437 -18139340 -18528198 -19545806 -21183902 -23235468 -25333498 
929.798 -27067582 -28142854 -28442960 -28073720 -27285076 -26388904 
930.160 -25627646 -25115272 -24846780 -24744600 -24724350 -24737590 
930.521 -24778808 -24852004 -24930318 -24943834 -24792108 -24395506 
930.883 -23745736 -22926368 -22090902 -21398876 -20962794 -20791572 
931.244 -20794446 -20813018 -20694564 -20332966 -19695004 -18809384 
931.606 -17740366 -16559647 -15330292 -14123556 -13029166 -12153096 
931.967 -11612016 -11486990 -11788602 -12432544 -13258884 -14067135 
932.328 -14670487 -14960742 -14916915 -14600873 -14114351 -13574523 
932.690 -13086045 -12732148 -12589581 -12721498 -13162653 -13897056 
933.051 -14835685 -15816668 -16624738 -17072844 -17054622 -16603755 
933.413 -15887462 -15176482 -14755656 -14827680 -15480787 -16663482 
933.774 -18224976 -19951068 -21634834 -23107588 -24241834 -24960634 
934.136 -25217270 -24988412 -24275330 -23109222 -21555860 -19708494 
934.497 -17691316 -15642321 -13697118 -11995674 -10658498 -9778307 -9410550 
934.919 -9554455 -10148925 -11072328 -12173329 -13284497 -14255168 -14984558 
935.341 -15420032 -15562695 -15453416 -15165059 -14790053 -14430908 
935.702 -14205209 -14220472 -14561112 -15265806 -16307607 -17589508 
936.063 -18955982 -20242686 -21299574 -22035632 -22435496 -22550520 
936.425 -22475014 -22310054 -22145378 -22033238 -21988134 -21992988 
936.786 -22014372 -22015602 -21970244 -21870316 -21726244 -21559454 
937.148 -21389476 -21221044 -21036856 -20805910 -20496972 -20106328 
937.509 -19674738 -19293942 -19075260 -19109630 -19416358 -19911256 
937.871 -20404828 -20644644 -20411058 -19571938 -18154180 -16337221 
938.232 -14431517 -12778191 -11658242 -11249328 -11576367 -12532961 
938.594 -13910277 -15470587 -16976976 -18237238 -19140386 -19650324 
938.955 -19806104 -19694878 -19433468 -19133032 -18874646 -18706916 
939.316 -18641088 -18666704 -18765562 -18923562 -19128592 -19358974 
939.678 -19575200 -19710014 -19681294 -19421776 -18899328 -18139340 
940.039 -17213946 -16221147 -15240502 -14307493 -13413246 -12531705 
940.401 -11660145 -10857028 -10237282 -9947804 -10100919 -10708801 -11650629 
940.823 -12688514 -13552780 -14005381 -13945029 -13437212 -12702577 
941.184 -12028130 -11677273 -11814689 -12451669 -13464453 -14639542 
941.545 -15765067 -16666926 -17258274 -17540980 -17585498 -17497128 
941.907 -17378752 -17316480 -17354494 -17492704 -17685208 -17853428 
942.268 -17897054 -17715842 -17243786 -16465293 -15434710 -14263889 
942.630 -13115494 -12160699 -11534327 -11313993 -11486539 -11949645 
942.991 -12520084 -12991480 -13180075 -12977009 -12388944 -11533520 
943.353 -10608220 -9812710 -9309278 -9166232 -9353804 -9767356 -10284593 
943.774 -10819475 -11344790 -11889845 -12500478 -13188529 -13899816 
944.136 -14509939 -14858356 -14820730 -14351221 -13519924 -12488083 
944.497 -11481247 -10718435 -10359335 -10494129 -11126783 -12191983 
944.859 -13563860 -15084483 -16570171 -17829038 -18707170 -19106270 
945.220 -19021792 -18544582 -17853142 -17156268 -16622188 -16340859 
945.582 -16289353 -16359432 -16401198 -16299788 -16019339 -15626881 
945.943 -15266798 -15128389 -15385750 -16135499 -17374198 -18978532 
946.305 -20733702 -22338916 -23482422 -23910840 -23480946 -22230856 
946.666 -20384880 -18330796 -16489027 -15233047 -14781597 -15141477 
947.027 -16125858 -17422298 -18722182 -19785526 -20525448 -20999668 
947.389 -21363928 -21787288 -22390152 -23220392 -24255590 -25432850 
947.750 -26672212 -27895898 -29012084 -29908466 -30465758 -30568668 
948.112 -30153756 -29239698 -27938590 -26426568 -24891118 -23493910 
948.473 -22319308 -21382066 -20652732 -20100792 -19722806 -19549892 
948.835 -19623342 -19964992 -20548994 -21304086 -22127052 -22924512 
949.196 -23641792 -24266714 -24818616 -25321962 -25788040 -26210950 
949.558 -26579812 -26896040 -27175658 -27436432 -27668324 -27812740 
949.919 -27753748 -27352876 -26505190 -25185034 -23480036 -21571182 
950.280 -19695100 -18054610 -16783200 -15927326 -15467901 -15359461 
950.642 -15564198 -16059700 -16813102 -17750162 -18744142 -19616660 
951.003 -20202804 -20415766 -20290626 -19985088 -19730660 -19753580 
951.365 -20170354 -20947796 -21895774 -22747022 -23217156 -23107840 
951.726 -22365038 -21083100 -19479630 -17833904 -16457317 -15611667 
952.088 -15480243 -16139649 -17535476 -19478488 -21656900 -23717218 
952.449 -25297330 -26126250 -26094270 -25261476 -23832594 -22069142 
952.811 -20230382 -18487460 -16917930 -15541085 -14368275 -13451410 
953.172 -12896572 -12820111 -13296676 -14291078 -15643917 -17079630 
953.534 -18290800 -19041170 -19214794 -18860212 -18148618 -17319280 
953.895 -16576136 -16041595 -15740335 -15625732 -15629791 -15715986 
954.256 -15902923 -16255204 -16843382 -17693860 -18757820 -19907838 
954.618 -20974190 -21774934 -22180580 -22139742 -21690092 -20940250 
954.979 -20044098 -19163880 -18424014 -17906404 -17639492 -17607200 
955.341 -17756620 -18007820 -18265292 -18418044 -18366052 -18040210 
955.702 -17421090 -16553905 -15543611 -14536567 -13670438 -13054311 
956.064 -12741158 -12729671 -12987010 -13478651 -14190618 -15129317 
956.425 -16299469 -17672132 -19152054 -20584640 -21781112 -22569834 
956.787 -22871424 -22729790 -22315720 -21854658 -21569796 -21588240 
957.148 -21901854 -22375738 -22807450 -23011724 -22876580 -22410668 
957.509 -21722808 -20979336 -20323986 -19839944 -19529650 -19337234 
957.871 -19184044 -19012724 -18807606 -18585632 -18370974 -18166638 
958.232 -17943888 -17656068 -17270056 -16799650 -16321616 -15968304 
958.594 -15894650 -16213614 -16963242 -18078544 -19417184 -20783550 
958.955 -21991980 -22917252 -23503264 -23768540 -23774124 -23594438 
959.317 -23283206 -22866016 -22348358 -21733334 -21043200 -20332902 
959.678 -19682338 -19190986 -18951158 -19020650 -19408724 -20059380 
960.040 -20856032 -21617338 -22136374 -22210928 -21678966 -20476996 
960.401 -18662958 -16431443 -14062837 -11896616 -10242881 -9294976 -9106729 
960.823 -9569299 -10463047 -11505900 -12459365 -13189268 -13688000 -14056677 
961.244 -14445747 -14984462 -15713461 -16566440 -17389162 -18015194 
961.606 -18321266 -18296614 -18044470 -17756270 -17629692 -17795836 
961.967 -18275364 -18966416 -19679900 -20199198 -20374226 -20159978 
962.329 -19634172 -18947986 -18277046 -17746728 -17392536 -17165920 
962.690 -16967768 -16708983 -16352985 -15944542 -15592616 -15432759 
963.052 -15561066 -16002573 -16695432 -17523542 -18350774 -19072818 
963.413 -19648328 -20094688 -20464354 -20806196 -21139028 -21439406 
963.775 -21656806 -21738694 -21660872 -21435556 -21102006 -20695542 
964.136 -20221686 -19640698 -18887336 -17905544 -16707134 -15404746 
964.497 -14234871 -13505214 -13512827 -14468374 -16390668 -19071296 
964.859 -22070622 -24847406 -26843372 -27641494 -27097996 -25363910 
965.220 -22853882 -20092948 -17631634 -15871745 -14997394 -14980493 
965.582 -15623749 -16647793 -17759704 -18745252 -19475608 -19908880 
965.943 -20066212 -20004990 -19801640 -19537664 -19307570 -19201290 
966.305 -19281168 -19557558 -19962428 -20352096 -20522036 -20280444 
966.666 -19499874 -18169784 -16409526 -14452766 -12590741 -11077948 
967.028 -10103055 -9735833 -9934979 -10570322 -11469726 -12462037 -13393392 
967.449 -14161819 -14717574 -15063073 -15243253 -15332467 -15415139 
967.811 -15557197 -15797500 -16137000 -16548835 -16993098 -17440602 
968.172 -17884844 -18341246 -18832006 -19363662 -19910590 -20416146 
968.534 -20804900 -21012044 -21016588 -20855748 -20627076 -20454618 
968.895 -20466818 -20750034 -21325160 -22139018 -23075038 -23976752 
969.257 -24665312 -24993980 -24873720 -24305380 -23386138 -22301682 
969.618 -21286514 -20546780 -20223490 -20328856 -20743434 -21227290 
969.979 -21499544 -21321878 -20551458 -19192824 -17383336 -15361796 
970.341 -13383946 -11687465 -10442539 -9719924 -9497988 -9667723 -10070520 
970.763 -10513535 -10827134 -10907277 -10737377 -10399354 -10044231 -9850383 
971.184 -9946379 -10373699 -11068193 -11895970 -12700839 -13375754 -13904629 
971.606 -14355805 -14834084 -15406090 -16047152 -16624834 -16943868 
971.967 -16814696 -16158899 -15058559 -13771179 -12640531 -12031352 
972.329 -12214502 -13284721 -15148164 -17537194 -20092220 -22392258 
972.690 -24066324 -24854696 -24636918 -23466476 -21551982 -19230706 
973.052 -16866872 -14807601 -13307891 -12478424 -12301571 -12655271 
973.413 -13381376 -14318489 -15346956 -16390923 -17387760 -18270056 
973.775 -18951700 -19334888 -19352288 -18998578 -18357444 -17579866 
974.136 -16860338 -16375162 -16225584 -16424265 -16890138 -17484046 
974.498 -18032454 -18380630 -18423476 -18125866 -17540534 -16807810 
974.859 -16146066 -15787018 -15939495 -16713254 -18069008 -19799678 
975.221 -21567936 -23014332 -23827794 -23872956 -23219418 -22122676 
975.582 -20913158 -19893530 -19257554 -19039268 -19147140 -19426056 
975.943 -19742944 -20019198 -20241642 -20427116 -20574938 -20637630 
976.305 -20530252 -20159630 -19482736 -18539374 -17459984 -16418459 
976.666 -15585041 -15068481 -14881057 -14945248 -15124708 -15283592 
977.028 -15316026 -15185825 -14925623 -14622947 -14382635 -14294989 
977.389 -14417991 -14762959 -15302880 -15986318 -16761970 -17590208 
977.751 -18449896 -19331244 -20212640 -21042222 -21735602 -22183192 
978.112 -22295702 -22050340 -21526126 -20898284 -20397968 -20245722 
978.474 -20552944 -21283894 -22247196 -23175916 -23791566 -23914416 
978.835 -23518926 -22728500 -21755648 -20804774 -20017646 -19428526 
979.196 -18994296 -18650388 -18372086 -18200096 -18229834 -18555788 
979.558 -19226428 -20205050 -21384210 -22611226 -23748338 -24711954 
979.919 -25470598 -26027900 -26384288 -26506656 -26330342 -25782920 
980.281 -24825030 -23485276 -21870410 -20145238 -18476760 -17008774 
980.642 -15823761 -14943039 -14352696 -14033291 -13983019 -14220088 
981.004 -14764976 -15614384 -16717240 -17976890 -19262690 -20443426 
981.365 -21434610 -22215084 -22835650 -23392700 -23998576 -24732080 
981.727 -25607624 -26565506 -27491082 -28252838 -28742082 -28919282 
982.088 -28824970 -28570272 -28285562 -28081798 -27997182 -27978980 
982.450 -27889434 -27554182 -26829014 -25642576 -24034756 -22143584 
982.811 -20180982 -18358652 -16851000 -15765898 -15131877 -14920725 
983.172 -15074082 -15536482 -16265512 -17238626 -18444308 -19862828 
983.534 -21452240 -23138532 -24804002 -26306266 -27493320 -28225578 
983.895 -28420738 -28072758 -27270918 -26180786 -25030672 -24054286 
984.257 -23421708 -23211566 -23376782 -23770110 -24173926 -24380972 
984.618 -24244938 -23709814 -22816598 -21678680 -20443870 -19242436 
984.980 -18175534 -17302056 -16645657 -16214507 -16012376 -16043736 
985.341 -16310098 -16799394 -17475550 -18267580 -19077860 -19789864 
985.703 -20284588 -20476522 -20328066 -19871596 -19201034 -18464408 
986.064 -17822772 -17399856 -17260598 -17386136 -17690170 -18046314 
986.425 -18345438 -18531024 -18617250 -18674638 -18794216 -19039426 
986.787 -19407930 -19823450 -20156404 -20277346 -20089056 -19570038 
987.148 -18776510 -17831454 -16880832 -16060116 -15475894 -15184321 
987.510 -15202078 -15512343 -16075986 -16828242 -17677510 -18515752 
987.871 -19216442 -19666950 -19802178 -19625780 -19224906 -18751346 
988.233 -18395242 -18313388 -18588268 -19193396 -20001352 -20810080 
988.594 -21400612 -21612578 -21369258 -20702302 -19723028 -18591694 
988.956 -17455720 -16411409 -15497765 -14701175 -13987221 -13329260 
989.317 -12729671 -12220171 -11849222 -11657015 -11663790 -11863054 
989.679 -12231221 -12739034 -13361392 -14073069 -14830017 -15554671 
990.040 -16130773 -16409207 -16263247 -15630621 -14565918 -13243714 
990.401 -11948807 -11007207 -10678639 -11107695 -12254221 -13908929 
990.763 -15719181 -17306832 -18373676 -18767816 -18533818 -17878390 
991.124 -17106452 -16499011 -16260277 -16462421 -17049396 -17870918 
991.486 -18743666 -19518216 -20098230 -20459326 -20625496 -20641580 
991.847 -20544158 -20355952 -20092980 -19778340 -19453588 -19174882 
992.209 -18989284 -18916012 -18927686 -18960770 -18934602 -18793074 
992.570 -18530136 -18193360 -17855368 -17569588 -17328258 -17049746 
992.932 -16600469 -15853569 -14768018 -13434192 -12081433 -10997386 
993.293 -10463403 -10631824 -11470242 -12761042 -14180259 -15412037 
993.654 -16235542 -16612014 -16670816 -16649356 -16766401 -17140152 
994.016 -17726210 -18346486 -18746966 -18713390 -18166192 -17197418 
994.377 -16053218 -15044574 -14472379 -14509137 -15168514 -16309395 
994.739 -17705504 -19106176 -20307922 -21208896 -21797876 -22129476 
995.100 -22271308 -22269734 -22128722 -21826204 -21346106 -20716266 
995.462 -20026854 -19431346 -19096156 -19160076 -19682086 -20614470 
995.823 -21805376 -23034600 -24088486 -24792610 -25068422 -24939330 
996.185 -24515588 -23945868 -23364756 -22860768 -22444620 -22060008 
996.546 -21606964 -20992912 -20166398 -19151612 -18045774 -17009190 
996.908 -16215689 -15792163 -15788201 -16146131 -16722724 -17320204 
997.269 -17767656 -17974600 -17968146 -17883638 -17925958 -18300872 
997.630 -19130146 -20419370 -22040324 -23778422 -25366690 -26572550 
997.992 -27255764 -27384328 -27035888 -26358406 -25530464 -24699308 
998.353 -23960072 -23343374 -22823672 -22341528 -21831812 -21253322 
998.715 -20598638 -19899514 -19211846 -18601854 -18121162 -17795486 
999.076 -17621770 -17574742 -17616424 -17703786 -17796250 -17851646 
999.438 -17826494 -17684858 -17407402 -17010082 -16550079 -16127422 
999.799 -15852258 -15803793 -15994940 -16348135 -16708089 -16874586 
1000.161 -16682677 -16047247 -15003956 -13694517 -12339962 -11175578 
1000.522 -10380461 -10067801 -10265339 -10938553 -12008663 -13375946 
1000.883 -14926263 -16526954 -18050382 -19384894 -20462486 -21279634 
1001.245 -21893946 -22394964 -22851274 -23271868 -23583956 -23663472 
1001.606 -23382558 -22689538 -21650848 -20458282 -19360114 -18584298 
1001.968 -18259192 -18359256 -18717040 -19081094 -19229280 -19029404 
1002.329 -18500608 -17790334 -17135150 -16769493 -16855208 -17451390 
1002.691 -18493178 -19809554 -21139784 -22204254 -22734066 -22530574 
1003.052 -21525872 -19802874 -17603570 -15265166 -13189718 -11728394 
1003.414 -11097715 -11351116 -12365436 -13895933 -15630942 -17293140 
1003.775 -18667244 -19615678 -20078742 -20048558 -19562276 -18698030 
1004.137 -17589952 -16421331 -15391251 -14699221 -14480135 -14775544 
1004.498 -15523629 -16582737 -17767562 -18887780 -19804078 -20432206 
1004.859 -20752942 -20801268 -20655734 -20421994 -20205746 -20100444 
1005.221 -20151184 -20336222 -20560908 -20688246 -20582586 -20159630 
1005.582 -19431854 -18510038 -17571466 -16782818 -16255140 -16002476 
1005.944 -15957413 -16013749 -16090801 -16172148 -16302086 -16543508 
1006.305 -16919648 -17369424 -17755444 -17906880 -17695706 -17109478 
1006.667 -16271416 -15407529 -14747105 -14459208 -14577581 -15006293 
1007.028 -15556813 -16037349 -16323915 -16388882 -16295001 -16147630 
1007.390 -16043639 -16028119 -16098144 -16224690 -16387988 -16597025 
1007.751 -16888448 -17300622 -17849200 -18507402 -19212574 -19881536 
1008.112 -20446082 -20870306 -21154364 -21323424 -21411398 -21450758 
1008.474 -21469838 -21506702 -21617244 -21867166 -22320818 -23006414 
1008.835 -23892966 -24877476 -25808960 -26527104 -26898720 -26865238 
1009.197 -26449482 -25743234 -24862424 -23916924 -22978412 -22071598 
1009.558 -21195136 -20345456 -19539470 -18822582 -18255698 -17890790 
1009.920 -17750512 -17816032 -18034458 -18341024 -18694126 -19093270 
1010.281 -19586128 -20241610 -21119048 -22221412 -23476142 -24728730 
1010.643 -25787356 -26484306 -26720196 -26510366 -25975438 -25311116 
1011.004 -24708292 -24311268 -24178816 -24283510 -24540450 -24849282 
1011.366 -25134660 -25351468 -25482128 -25514778 -25427350 -25190850 
1011.727 -24788510 -24240926 -23616594 -23021842 -22568166 -22318270 
1012.088 -22260824 -22303666 -22319874 -22190244 -21869434 -21405690 
1012.450 -20925344 -20567418 -20409920 -20424050 -20472444 -20355732 
1012.811 -19884034 -18967780 -17649132 -16099932 -14545891 -13212281 
1013.173 -12244654 -11680562 -11473566 -11538425 -11804983 -12245040 
1013.534 -12875214 -13726589 -14806257 -16070653 -17422682 -18735860 
1013.896 -19907994 -20887674 -21696994 -22410416 -23122480 -23892904 
1014.257 -24712642 -25494626 -26103412 -26405708 -26315154 -25836124 
1014.619 -25064608 -24164524 -23300572 -22600062 -22109890 -21795828 
1014.980 -21569670 -21340616 -21065518 -20771704 -20554176 -20536700 
1015.341 -20833736 -21496800 -22501064 -23748778 -25106922 -26427348 
1015.703 -27568672 -28414284 -28855510 -28802396 -28203844 -27071286 
1016.064 -25511968 -23726818 -22006940 -20648342 -19881978 -19811200 
1016.426 -20371192 -21347778 -22433606 -23344534 -23867532 -23918398 
1016.787 -23533426 -22828326 -21938870 -20973370 -20009450 -19096948 
1017.149 -18283718 -17634242 -17217864 -17089026 -17257286 -17671880 
1017.510 -18224244 -18773654 -19194728 -19394624 -19337360 -19039426 
1017.872 -18559250 -17980862 -17405778 -16961170 -16780076 -16986886 
1018.233 -17662588 -18797134 -20261566 -21805376 -23130270 -23936178 
1018.595 -24024784 -23357972 -22062936 -20391520 -18630580 -17048440 
1018.956 -15810631 -14972042 -14497280 -14300953 -14283415 -14356286 
1019.317 -14459208 -14551339 -14612215 -14640119 -14652324 -14682692 
1019.679 -14770389 -14950178 -15235159 -15612115 -16044756 -16490877 
1020.040 -16913084 -17286422 -17598004 -17837052 -17989764 -18045296 
1020.402 -18009122 -17919662 -17845574 -17874002 -18063700 -18404958 
1020.763 -18790662 -19039806 -18950620 -18376662 -17308074 -15895033 
1021.125 -14421612 -13193382 -12469023 -12360283 -12813902 -13643050 
1021.486 -14615387 -15546264 -16337540 -16992048 -17562174 -18087632 
1021.848 -18545820 -18847712 -18873598 -18542326 -17855464 -16918566 
1022.209 -15897492 -14976395 -14282613 -13852416 -13640352 -13557855 
1022.570 -13523972 -13498244 -13491371 -13544141 -13694389 -13948848 
1022.932 -14276137 -14621538 -14936092 -15193407 -15400301 -15582930 
1023.293 -15768008 -15963897 -16156761 -16319225 -16430072 -16485900 
1023.655 -16502870 -16502233 -16492313 -16451638 -16333744 -16079722 
1024.016 -15651716 -15059232 -14374590 -13720554 -13235423 -13042929 
1024.378 -13199554 -13677726 -14362409 -15092036 -15695149 -16040765 
1024.740 -16084351 -15872288 -15527338 -15192768 -14993297 -14978317 
1025.102 -15108485 -15269453 -15328341 -15198367 -14888261 -14517790 
1025.464 -14291238 -14434721 -15094115 -16280927 -17831710 -19459354 
1025.825 -20798582 -21531486 -21490682 -20695542 -19350956 -17767274 
1026.187 -16294746 -15201566 -14632943 -14594465 -14971690 -15567650 
1026.549 -16153600 -16538819 -16586214 -16249012 -15571039 -14681187 
1026.911 -13764598 -13019488 -12637120 -12742187 -13370099 -14450009 
1027.273 -15823219 -17266872 -18538136 -19448518 -19886124 -19849884 
1027.635 -19438538 -18834672 -18253378 -17885068 -17870568 -18253316 
1027.996 -18975646 -19884542 -20784244 -21480434 -21831908 -21797404 
1028.358 -21438554 -20904788 -20374162 -20021222 -19956384 -20201286 
1028.720 -20690266 -21296860 -21878980 -22304704 -22489234 -22392950 
1029.082 -22007602 -21339702 -20398380 -19198942 -17775766 -16208060 
1029.444 -14632334 -13223209 -12186861 -11699851 -11861700 -12667983 
1029.805 -13999510 -15651366 -17370444 -18942754 -20229150 -21194002 
1030.167 -21893000 -22436218 -22939442 -23478278 -24081182 -24731266 
1030.529 -25391600 -26024156 -26603872 -27113156 -27521342 -27772646 
1030.891 -27779546 -27433384 -26646972 -25380160 -23673482 -21645174 
1031.253 -19488310 -17431434 -15686169 -14437766 -13801768 -13816598 
1031.615 -14445779 -15586670 -17086734 -18754646 -20407958 -21887046 
1031.976 -23085816 -23970858 -24570732 -24949778 -25163804 -25228806 
1032.338 -25099698 -24688572 -23896008 -22670482 -21046706 -19166798 
1032.700 -17245344 -15533188 -14257508 -13550179 -13434706 -13821187 
1033.062 -14550954 -15426172 -16267715 -16951516 -17410808 -17645952 
1033.424 -17709512 -17696088 -17712692 -17862268 -18221670 -18816142 
1033.785 -19612890 -20522194 -21428746 -22212282 -22791730 -23149276 
1034.147 -23330466 -23424566 -23524702 -23699178 -23958756 -24256282 
1034.509 -24497738 -24583598 -24434566 -24018860 -23360202 -22526674 
1034.871 -21606398 -20676144 -19791954 -18979610 -18245784 -17599118 
1035.233 -17066472 -16700214 -16573839 -16749982 -17252448 -18032710 
1035.594 -18967876 -19864856 -20507686 -20733702 -20476078 -19812434 
1035.956 -18941042 -18147730 -17696088 -17748286 -18317994 -19264876 
1036.318 -20339036 -21249188 -21770302 -21781742 -21299322 -20446050 
1036.680 -19417184 -18419504 -17621134 -17153274 -17092372 -17465842 
1037.042 -18251726 -19371140 -20681358 -21971252 -23011974 -23587722 
1037.404 -23562552 -22933158 -21844070 -20564922 -19402036 -18653498 
1037.765 -18510704 -19021286 -20089184 -21511274 -23037836 -24420316 
1038.127 -25493750 -26194322 -26569246 -26741570 -26870534 -27090930 
1038.489 -27459636 -27938558 -28396004 -28653162 -28522896 -27888440 
1038.851 -26743780 -25207108 -23481290 -21799262 -20361074 -19265732 
1039.213 -18507560 -17991640 -17594472 -17209456 -16796654 -16388372 
1039.574 -16068002 -15918702 -15977183 -16208155 -16511070 -16753713 
1039.936 -16817978 -16653979 -16296087 -15859414 -15490858 -15338128 
1040.298 -15497604 -15986765 -16742490 -17635834 -18510482 -19202556 
1040.660 -19588914 -19603546 -19246746 -18580868 -17719212 -16809596 
1041.022 -15996058 -15411718 -15153987 -15268301 -15747622 -16531579 
1041.384 -17520456 -18577694 -19558762 -20331322 -20782254 -20844348 
1041.745 -20498046 -19774604 -18746872 -17524624 -16243618 -15040477 
1042.107 -14058378 -13424619 -13229702 -13518608 -14263633 -15361125 
1042.469 -16624771 -17829928 -18754520 -19225192 -19179732 -18681716 
1042.831 -17917022 -17124322 -16550876 -16369291 -16630607 -17268272 
1043.193 -18127708 -19033148 -19825730 -20418422 -20797856 -21006360 
1043.554 -21103932 -21139784 -21136850 -21096860 -21020630 -20926892 
1043.916 -20855590 -20858212 -20969896 -21184976 -21444324 -21652266 
1044.278 -21711366 -21560242 -21212714 -20765040 -20382666 -20238542 
1044.640 -20473900 -21143604 -22195408 -23471874 -24748606 -25803654 
1045.002 -26449826 -26597140 -26262572 -25558142 -24644558 -23680982 
1045.364 -22787328 -22007822 -21317808 -20644992 -19915054 -19084170 
1045.725 -18170132 -17247670 -16433103 -15836189 -15518546 -15473369 
1046.087 -15624836 -15856890 -16046800 -16114810 -16040957 -15864110 
1046.449 -15652100 -15469596 -15341710 -15242645 -15104485 -14851023 
1046.811 -14439882 -13889322 -13290313 -12786652 -12551986 -12727482 
1047.173 -13388122 -14512759 -15986318 -17613372 -19158682 -20413238 
1047.534 -21213092 -21479582 -21222748 -20528704 -19529714 -18366656 
1047.896 -17176270 -16065320 -15117189 -14408247 -14006792 -13977468 
1048.258 -14362056 -15152580 -16266182 -17537672 -18755692 -19682434 
1048.620 -20128884 -20005084 -19338406 -18267260 -16995998 -15752288 
1048.982 -14713186 -13987446 -13608819 -13552749 -13761998 -14169388 
1049.344 -14714083 -15335410 -15973639 -16573839 -17084154 -17470614 
1049.705 -17720106 -17835144 -17823378 -17683078 -17397630 -16945366 
1050.067 -16318075 -15546519 -14705082 -13912427 -13297737 -12958292 
1050.429 -12938578 -13213824 -13710441 -14330063 -14990992 -15638772 
1050.791 -16233658 -16729355 -17043280 -17051308 -16627384 -15685914 
1051.153 -14245677 -12447548 -10551922 -8860326 -7617774 -6960584 -6866404 
1051.575 -7188970 -7715990 -8274296 -8781429 -9268770 -9840503 -10611518 
1051.997 -11628597 -12830469 -14044391 -15042077 -15630782 -15709434 
1052.359 -15327670 -14667925 -14013208 -13642150 -13764406 -14465329 
1052.720 -15683709 -17231048 -18839746 -20253660 -21262346 -21760910 
1053.082 -21759398 -21362572 -20723470 -19988566 -19273402 -18637026 
1053.444 -18102984 -17690138 -17435574 -17405078 -17672738 -18276346 
1053.806 -19179098 -20243192 -21262000 -21990026 -22233908 -21917858 
1054.168 -21107276 -19986858 -18793202 -17750418 -16983954 -16505964 
1054.530 -16226925 -16015155 -15746823 -15357862 -14860149 -14326953 
1054.891 -13857840 -13535920 -13411512 -13487002 -13726076 -14062868 
1055.253 -14420971 -14720873 -14887844 -14870939 -14653414 -14268827 
1055.615 -13798045 -13364925 -13101863 -13104531 -13407174 -13956003 
1055.977 -14622019 -15217818 -15562248 -15526251 -15071874 -14273347 
1056.339 -13307377 -12420823 -11848513 -11775059 -12267396 -13255863 
1056.700 -14535510 -15820853 -16830824 -17340422 -17267764 -16691031 
1057.062 -15840087 -15012695 -14505131 -14532370 -15162787 -16323468 
1057.424 -17828402 -19458214 -20996006 -22284528 -23241310 -23838176 
1057.786 -24084222 -24005096 -23637774 -23031488 -22257078 -21414994 
1058.148 -20615922 -19974326 -19586318 -19508712 -19760136 -20318484 
1058.510 -21129024 -22098176 -23099198 -23979134 -24557736 -24674986 
1058.871 -24225980 -23201358 -21706198 -19953220 -18222942 -16771693 
1059.233 -15792610 -15354568 -15397934 -15756313 -16219232 -16605444 
1059.595 -16797292 -16781066 -16632264 -16491069 -16503891 -16786580 
1059.957 -17388430 -18274220 -19327632 -20371760 -21225430 -21728418 
1060.319 -21797782 -21449970 -20803920 -20047706 -19383214 -18983672 
1060.680 -18929210 -19193490 -19650418 -20126448 -20442320 -20466944 
1061.042 -20155076 -19545044 -18742746 -17878422 -17087020 -16472470 
1061.404 -16096899 -15988009 -16142523 -16539330 -17147254 -17934034 
1061.766 -18867792 -19914008 -21034172 -22171448 -23243666 -24149042 
1062.128 -24763598 -24973210 -24706884 -23962988 -22829080 -21469996 
1062.490 -20111674 -18970286 -18215602 -17932730 -18106066 -18636040 
1062.851 -19373772 -20178292 -20935860 -21588082 -22126706 -22573922 
1063.213 -22959712 -23304026 -23612544 -23880328 -24102936 -24285076 
1063.575 -24443086 -24600476 -24775774 -24968330 -25145916 -25239498 
1063.937 -25155924 -24784972 -24036196 -22871456 -21329670 -19537316 
1064.299 -17695198 -16058328 -14858708 -14272803 -14372762 -15111973 
1064.660 -16337764 -17835906 -19404698 -20882938 -22189992 -23315048 
1065.022 -24282694 -25112832 -25794974 -26282160 -26516538 -26460520 
1065.384 -26129840 -25600064 -25000236 -24480576 -24162958 -24126380 
1065.746 -24385076 -24896062 -25567296 -26280412 -26906444 -27309222 
1066.108 -27374776 -27025956 -26245574 -25090754 -23692998 -22235390 
1066.469 -20892506 -19800754 -19012404 -18491970 -18140134 -17846528 
1066.831 -17543782 -17233180 -16981340 -16879780 -16993832 -17316034 
1067.193 -17757034 -18168226 -18410868 -18398098 -18141278 -17738490 
1067.555 -17348126 -17123620 -17160186 -17479082 -18027496 -18713708 
1067.917 -19435498 -20115724 -20700282 -21145686 -21408054 -21432498 
1068.279 -21165852 -20582870 -19707068 -18621250 -17445248 -16315682 
1068.640 -15335729 -14550409 -13945574 -13463553 -13032511 -12588423 
1069.002 -12092808 -11524582 -10870697 -10120472 -9272078 -8354130 -7442023 
1069.424 -6677657 -6245114 -6321501 -7033422 -8389785 -10263527 -12395513 
1069.846 -14482507 -16239597 -17486688 -18206514 -18539280 -18736970 
1070.208 -19056422 -19697220 -20714592 -22008514 -23339824 -24417590 
1070.570 -24987474 -24897936 -24161640 -22946858 -21539370 -20234338 
1070.932 -19281866 -18815412 -18830260 -19204746 -19746554 -20261882 
1071.294 -20582302 -20611120 -20328160 -19782392 -19073612 -18334130 
1071.656 -17714538 -17345834 -17327432 -17700510 -18435256 -19430364 
1072.017 -20531674 -21578432 -22421808 -22968356 -23186814 -23091690 
1072.379 -22714854 -22078210 -21182514 -20021476 -18613758 -17039360 
1072.741 -15441361 -14021935 -12988232 -12479133 -12527134 -13021642 
1073.103 -13739656 -14376866 -14652581 -14384302 -13527858 -12191403 
1073.465 -10601560 -9058252 -7841910 -7186982 -7228109 -7974234 -9309214 
1073.887 -11012504 -12820336 -14456003 -15715282 -16506921 -16861582 
1074.249 -16909642 -16831622 -16804018 -16936028 -17257892 -17725258 
1074.610 -18258430 -18774606 -19223162 -19594900 -19904702 -20167128 
1074.972 -20372930 -20480314 -20428190 -20161212 -19654662 -18935108 
1075.334 -18082770 -17219774 -16471131 -15948279 -15716081 -15775548 
1075.696 -16059766 -16444461 -16781798 -16922262 -16768154 -16301831 
1076.058 -15598370 -14802862 -14096999 -13651526 -13568196 -13869618 
1076.419 -14501926 -15373342 -16384510 -17462912 -18570424 -19681420 
1076.781 -20760492 -21743230 -22530260 -23019486 -23138784 -22879660 
1077.143 -22310778 -21568186 -20822966 -20223710 -19876566 -19818322 
1077.505 -20019450 -20396546 -20834432 -21212714 -21413920 -21356042 
1077.867 -21008382 -20406568 -19650608 -18893078 -18305890 -18018500 
1078.229 -18088236 -18466186 -19014562 -19526896 -19794484 -19667234 
1078.590 -19077828 -18062714 -16740769 -15290693 -13896190 -12722946 
1078.952 -11897712 -11482183 -11474341 -11803823 -12354551 -12976622 
1079.314 -13529656 -13921444 -14119419 -14154699 -14093920 -14008492 
1079.676 -13938996 -13889482 -13843879 -13795895 -13773811 -13842819 
1080.038 -14070150 -14485807 -15038204 -15597220 -15977439 -16019849 
1080.399 -15663639 -14983790 -14176283 -13490921 -13158667 -13294491 
1080.761 -13875267 -14752613 -15731515 -16625024 -17318326 -17785594 
1081.123 -18062872 -18209436 -18272502 -18281462 -18256396 -18227898 
1081.485 -18248548 -18376058 -18648674 -19057502 -19542734 -20008502 
1081.847 -20365026 -20572600 -20655608 -20689222 -20750414 -20875232 
1082.208 -21022682 -21086666 -20929072 -20452722 -19646840 -18609854 
1082.570 -17513740 -16561210 -15921257 -15672939 -15799735 -16197143 
1082.932 -16717590 -17192450 -17478670 -17484238 -17172638 -16571958 
1083.294 -15761968 -14862486 -13993060 -13253002 -12698619 -12334229 
1083.656 -12127061 -12032384 -12024295 -12109823 -12327981 -12724393 
1084.018 -13325115 -14111754 -15022713 -15967092 -16864674 -17665738 
1084.379 -18359606 -18960486 -19480200 -19904576 -20192242 -20287624 
1084.741 -20156562 -19811738 -19321420 -18788282 -18311514 -17960134 
1085.103 -17746984 -17639778 -17585434 -17547060 -17519118 -17525164 
1085.465 -17593232 -17728692 -17898042 -18041418 -18094244 -18027846 
1085.827 -17869740 -17704804 -17642070 -17772524 -18134764 -18693236 
1086.188 -19349148 -19969264 -20441688 -20703440 -20766998 -20711244 
1086.550 -20665814 -20768988 -21124730 -21783160 -22716864 -23829144 
1086.912 -24965922 -25963328 -26677010 -27010296 -26933880 -26473488 
1087.274 -25689456 -24643680 -23390314 -21973238 -20440170 -18872204 
1087.636 -17387824 -16126975 -15229976 -14780541 -14778139 -15126981 
1087.998 -15670734 -16230371 -16660549 -16895014 -16944888 -16881214 
1088.359 -16789544 -16742555 -16773032 -16875350 -17017440 -17159900 
1088.721 -17267382 -17312786 -17282856 -17181780 -17040030 -16913626 
1089.083 -16880672 -17015306 -17349974 -17849422 -18400036 -18846030 
1089.445 -19023314 -18837018 -18296964 -17525738 -16707197 -16024798 
1089.807 -15598753 -15443056 -15478292 -15573053 -15610709 -15519697 
1090.168 -15293604 -14970249 -14606512 -14251544 -13943617 -13729351 
1090.530 -13672139 -13853956 -14353177 -15200830 -16353177 -17683618 
1090.892 -19029722 -20233010 -21201668 -21930206 -22474574 -22895250 
1091.254 -23199348 -23313478 -23112614 -22486184 -21413260 -20009136 
1091.616 -18517276 -17249166 -16460732 -16296884 -16740514 -17646874 
1091.978 -18795074 -19978188 -21065202 -21997586 -22770822 -23384032 
1092.339 -23803956 -23965622 -23795424 -23251956 -22354998 -21189174 
1092.701 -19881314 -18553408 -17309316 -16220892 -15339984 -14722731 
1093.063 -14432414 -14525512 -15028218 -15906084 -17056660 -18317868 
1093.425 -19523726 -20538058 -21292728 -21797656 -22119590 -22344864 
1093.787 -22538218 -22726550 -22889498 -22975680 -22916592 -22652460 
1094.148 -22147770 -21403670 -20465838 -19426436 -18418648 -17578784 
1094.510 -17028750 -16834394 -16986026 -17398520 -17938992 -18477460 
1094.872 -18914238 -19214348 -19395984 -19502566 -19562974 -19568516 
1095.234 -19472470 -19218060 -18767656 -18132030 -17369328 -16573649 
1095.596 -15840534 -15236759 -14797546 -14528268 -14421260 -14465232 
1095.958 -14645116 -14930777 -15264111 -15569441 -15770180 -15823826 
1096.319 -15749667 -15634809 -15607640 -15780630 -16212752 -16874236 
1096.681 -17663288 -18435734 -19069742 -19504118 -19747250 -19858524 
1097.043 -19910654 -19955214 -20006130 -20054096 -20091966 -20134862 
1097.405 -20222002 -20392342 -20651690 -20947132 -21170334 -21190562 
1097.767 -20890674 -20220802 -19211718 -17970244 -16632838 -15337520 
1098.128 -14189880 -13248085 -12539302 -12071314 -11843064 -11843450 
1098.490 -12045017 -12401149 -12848580 -13330610 -13815057 -14305409 
1098.852 -14832931 -15435829 -16129497 -16891412 -17661508 -18366686 
1099.214 -18956330 -19418418 -19782836 -20091870 -20365564 -20571682 
1099.576 -20626066 -20417252 -19866436 -18970444 -17833554 -16641831 
1099.938 -15636120 -15043357 -15006645 -15568162 -16654968 -18113566 
1100.299 -19729836 -21287648 -22604968 -23548210 -24063502 -24173676 
1100.661 -23972926 -23588946 -23157320 -22777394 -22478254 -22213102 
1101.023 -21871986 -21329732 -20483286 -19306460 -17867102 -16326947 
1101.385 -14892615 -13765946 -13098712 -12940153 -13233623 -13826130 
1101.747 -14527467 -15144965 -15548182 -15707485 -15698345 -15678275 
1102.108 -15823411 -16282268 -17104954 -18224530 -19461794 -20589506 
1102.470 -21386324 -21699390 -21491314 -20833736 -19878276 -18793202 
1102.832 -17736962 -16822856 -16115034 -15646763 -15425405 -15434262 
1103.194 -15620937 -15895991 -16139138 -16222328 -16063724 -15659291 
1103.556 -15105412 -14567616 -14246927 -14305441 -14808114 -15705792 
1103.917 -16846250 -18028578 -19039584 -19722014 -19990972 -19833360 
1104.279 -19294986 -18466122 -17472972 -16456584 -15576985 -14984046 
1104.641 -14777850 -14986703 -15540989 -16288875 -17014256 -17510812 
1105.003 -17636598 -17348730 -16715167 -15886120 -15047070 -14346477 
1105.365 -13871768 -13625196 -13539324 -13500492 -13390757 -13129253 
1105.727 -12690381 -12119650 -11519549 -11032468 -10787543 -10868080 
1106.088 -11280677 -11950709 -12737779 -13477044 -14040669 -14360998 
1106.450 -14452766 -14390296 -14278092 -14205145 -14218741 -14326953 
1106.812 -14510707 -14746048 -15015063 -15305887 -15598178 -15849959 
1107.174 -16004233 -16001040 -15809990 -15451146 -15001267 -14568385 
1107.536 -14247633 -14090134 -14077304 -14135712 -14169965 -14115442 
1107.897 -13963928 -13766010 -13597484 -13521980 -13553102 -13648315 
1108.259 -13726943 -13712528 -13573302 -13337390 -13084502 -12911336 
1108.621 -12904356 -13104852 -13508330 -14070503 -14728657 -15409095 
1108.983 -16033486 -16526571 -16813770 -16841280 -16597982 -16135436 
1109.345 -15570303 -15057920 -14765873 -14809171 -15218522 -15925730 
1109.707 -16790310 -17635992 -18303000 -18702600 -18822646 -18724848 
1110.068 -18505624 -18268724 -18086998 -17986522 -17946686 -17911076 
1110.430 -17807602 -17567042 -17152638 -16575657 -15905287 -15249107 
1110.792 -14734037 -14463374 -14475328 -14727888 -15102020 -15447948 
1111.154 -15620233 -15540989 -15221050 -14757481 -14288769 -13951479 
1111.516 -13841023 -13983981 -14346829 -14854801 -15426108 -15985167 
1111.877 -16478499 -16878888 -17179456 -17394732 -17556288 -17711802 
1112.239 -17909582 -18184080 -18540964 -18951700 -19362838 -19718436 
1112.601 -19991162 -20195024 -20382508 -20611498 -20911294 -21246854 
1112.963 -21519660 -21586126 -21321878 -20674312 -19696272 -18534994 
1113.325 -17391550 -16459869 -15854208 -15594854 -15614352 -15810087 
1113.687 -16088597 -16413098 -16810040 -17348126 -18091828 -19059436 
1114.048 -20198028 -21391150 -22484516 -23318722 -23782312 -23821176 
1114.410 -23446038 -22712998 -21703928 -20501366 -19170410 -17766672 
1114.772 -16340477 -14948578 -13671594 -12603519 -11838872 -11449363 
1115.134 -11449460 -11778412 -12295065 -12817248 -13150598 -13149344 
1115.496 -12763359 -12047306 -11147161 -10246279 -9532057 -9133432 -9105367 
1115.918 -9435029 -10067186 -10935387 -11986617 -13194540 -14547558 
1116.280 -16030196 -17606818 -19207312 -20732694 -22077770 -23142050 
1116.641 -23861698 -24220652 -24254964 -24041370 -23679694 -23272842 
1117.003 -22890756 -22558288 -22243952 -21877878 -21374494 -20677124 
1117.365 -19791352 -18801578 -17854986 -17115592 -16727410 -16752757 
1117.727 -17156078 -17802738 -18507750 -19071580 -19327980 -19187720 
1118.089 -18639216 -17750354 -16640363 -15472249 -14416997 -13620765 
1118.450 -13191164 -13158827 -13469817 -13986772 -14536471 -14952899 
1118.812 -15131941 -15069857 -14859348 -14654535 -14599656 -14790053 
1119.174 -15232919 -15862608 -16575338 -17287122 -17969132 -18649246 
1119.536 -19381410 -20199610 -21077638 -21923244 -22598236 -22967036 
1119.898 -22954998 -22565744 -21881248 -21017914 -20097060 -19203318 
1120.260 -18379678 -17648370 -17032128 -16571160 -16321361 -16324872 
1120.621 -16581684 -17025660 -17540090 -17980576 -18230694 -18250296 
1120.983 -18090684 -17880744 -17771442 -17891300 -18283938 -18895456 
1121.345 -19583848 -20181518 -20549214 -20632038 -20486194 -20268586 
1121.707 -20190026 -20431952 -21101848 -22177996 -23514470 -24855790 
1122.069 -25914760 -26450482 -26316310 -25513310 -24179474 -22561434 
1122.430 -20928408 -19533134 -18557408 -18078162 -18076412 -18445196 
1122.792 -19027280 -19626572 -20054128 -20164564 -19873876 -19193490 
1123.154 -18231584 -17188308 -16295480 -15776571 -15787881 -16367408 
1123.516 -17429238 -18776574 -20168962 -21356010 -22151864 -22472372 
1123.878 -22331330 -21821762 -21071420 -20209194 -19322814 -18454882 
1124.240 -17613688 -16794996 -16008832 -15297539 -14729457 -14389560 
1124.601 -14344136 -14610581 -15139013 -15815232 -16490877 -17009922 
1124.963 -17266076 -17223500 -16922646 -16457317 -15944734 -15489579 
1125.325 -15153636 -14959494 -14900331 -14960742 -15131525 -15412133 
1125.687 -15799703 -16272342 -16781576 -17257574 -17622916 -17826366 
1126.049 -17860298 -17772332 -17649386 -17601884 -17731874 -18102442 
1126.410 -18729956 -19571494 -20534582 -21476334 -22236270 -22666298 
1126.772 -22660700 -22200414 -21366450 -20337898 -19331244 -18556678 
1127.134 -18143852 -18096372 -18294932 -18542136 -18650166 -18491654 
1127.496 -18053464 -17420834 -16736817 -16129497 -15671244 -15369792 
1127.858 -15191968 -15106885 -15119237 -15269805 -15607096 -16141692 
1128.219 -16818330 -17512754 -18079496 -18417124 -18511466 -18451610 
1128.581 -18389334 -18478826 -18797008 -19317458 -19919546 -20456196 
1128.943 -20802944 -20910346 -20803448 -20545106 -20183480 -19717264 
1129.305 -19099516 -18279938 -17256330 -16113086 -15005845 -14119002 
1129.667 -13598382 -13483276 -13693779 -14057479 -14391066 -14554800 
1130.029 -14509425 -14312622 -14086382 -13953885 -13990493 -14206491 
1130.390 -14551852 -14945248 -15302529 -15566085 -15708124 -15731165 
1130.752 -15662488 -15555918 -15486478 -15535170 -15774494 -16232446 
1131.114 -16870124 -17571306 -18174772 -18524644 -18522390 -18179696 
1131.476 -17620498 -17050384 -16669158 -16617244 -16916558 -17471634 
1131.838 -18099424 -18604108 -18852342 -18803640 -18524928 -18152082 
1132.199 -17847608 -17733082 -17860552 -18197078 -18643468 -19058896 
1132.561 -19303068 -19283038 -18968414 -18403498 -17687498 -16956264 
1132.923 -16336393 -15914006 -15723910 -15748581 -15942050 -16256161 
1133.285 -16665524 -17167670 -17766766 -18448816 -19156684 -19787932 
1133.647 -20224658 -20358956 -20139702 -19590246 -18804306 -17905864 
1134.009 -17007276 -16181342 -15444303 -14776474 -14153576 -13575454 
1134.370 -13077042 -12714837 -12533057 -12539335 -12687356 -12892295 
1134.732 -13053057 -13097008 -13004214 -12812937 -12599302 -12447838 
1135.094 -12421081 -12533668 -12751454 -13000194 -13194540 -13252039 
1135.456 -13122534 -12803575 -12348561 -11861796 -11475083 -11328230 
1135.818 -11517096 -12064579 -12899596 -13874721 -14793703 -15469979 
1136.179 -15796795 -15771555 -15502656 -15158275 -14922678 -14920885 
1136.541 -15182433 -15639763 -16161676 -16605699 -16860148 -16885930 
1136.903 -16712872 -16420629 -16096644 -15813218 -15606105 -15474296 
1137.265 -15393138 -15329813 -15256656 -15153220 -15007605 -14815062 
1137.627 -14578446 -14311468 -14043589 -13820770 -13693330 -13708130 
1137.989 -13889708 -14228938 -14678752 -15161059 -15589835 -15883597 
1138.350 -15993757 -15914965 -15688246 -15388149 -15106373 -14935420 
1138.712 -14941694 -15159139 -15582771 -16175691 -16874778 -17606562 
1139.074 -18305858 -18918614 -19414458 -19785018 -20038876 -20192432 
1139.436 -20262262 -20261028 -20197176 -20081146 -19932270 -19778910 
1139.798 -19657006 -19596166 -19602660 -19645858 -19654852 -19537316 
1140.159 -19196184 -18571472 -17664180 -16547877 -15349578 -14221787 
1140.521 -13306927 -12690928 -12398122 -12394612 -12619161 -13007719 
1140.883 -13518447 -14132344 -14834533 -15591466 -16338466 -16976880 
1141.245 -17407560 -17563574 -17441080 -17108204 -16694125 -16354868 
1141.607 -16216008 -16351996 -16761938 -17382350 -18101458 -18793772 
1141.969 -19347186 -19665682 -19688354 -19390218 -18788538 -17943698 
1142.330 -16959386 -15971849 -15111812 -14489301 -14163069 -14130324 
1142.692 -14336507 -14698676 -15139621 -15601950 -16062861 -16524402 
1143.054 -16995680 -17475294 -17942554 -18357764 -18678890 -18870174 
1143.416 -18913508 -18811320 -18582426 -18257508 -17870632 -17460430 
1143.778 -17063192 -16707292 -16410068 -16172307 -15979929 -15812291 
1144.139 -15655840 -15514901 -15416130 -15397487 -15495366 -15725508 
1144.501 -16074326 -16502041 -16959738 -17408642 -17826016 -18203496 
1144.863 -18530040 -18773146 -18879690 -18789678 -18472284 -17958862 
1145.225 -17361466 -16854634 -16607454 -16734838 -17228180 -17950312 
1145.587 -18653562 -19075544 -19033178 -18488954 -17580312 -16579740 
1145.948 -15821557 -15570591 -15967665 -16978952 -18422616 -20001384 
1146.310 -21387648 -22316034 -22615884 -22267026 -21389762 -20227758 
1146.672 -19071422 -18197364 -17815458 -18003560 -18701394 -19719514 
1147.034 -20810208 -21708656 -22212912 -22232526 -21786058 -20981736 
1147.396 -19964708 -18888604 -17873366 -17002244 -16336648 -15919851 
1147.758 -15786955 -15958978 -16430359 -17160154 -18071264 -19071390 
1148.119 -20062544 -20966360 -21735634 -22347632 -22798868 -23094110 
1148.481 -23242724 -23258176 -23162282 -22986740 -22762618 -22512768 
1148.843 -22240554 -21928946 -21550688 -21088054 -20549152 -19977364 
1149.205 -19438222 -18994960 -18687714 -18512292 -18425602 -18362972 
1149.567 -18274092 -18143342 -18002320 -17913398 -17949102 -18157866 
1149.928 -18542200 -19053410 -19603832 -20096554 -20443426 -20596710 
1150.290 -20557682 -20377040 -20135370 -19923122 -19812530 -19828106 
1150.652 -19936700 -20048686 -20053210 -19845388 -19378334 -18685778 
1151.014 -17883892 -17130692 -16569469 -16286863 -16276300 -16451446 
1151.376 -16683985 -16871494 -16973122 -17028848 -17126264 -17359714 
1151.738 -17772872 -18334544 -18945862 -19484858 -19860266 -20039604 
1152.099 -20056660 -19980814 -19877326 -19769254 -19633634 -19422126 
1152.461 -19099960 -18673496 -18197174 -17744216 -17374486 -17095906 
1152.823 -16861838 -16593676 -16234297 -15788522 -15344621 -15043774 
1153.185 -15034812 -15410726 -16159890 -17156620 -18192152 -19055980 
1153.547 -19579634 -19699628 -19460114 -18990268 -18449326 -17975394 
1153.908 -17661890 -17536080 -17573120 -17713392 -17891204 -18048506 
1154.270 -18150272 -18190342 -18191612 -18198952 -18263068 -18427572 
1154.632 -18706312 -19071138 -19446554 -19728696 -19811042 -19614980 
1154.994 -19126880 -18408674 -17595522 -16850204 -16335275 -16159443 
1155.356 -16342359 -16808766 -17404378 -17946528 -18259542 -18242196 
1155.718 -17891396 -17307022 -16652385 -16111042 -15834432 -15888516 
1156.079 -16245915 -16791520 -17371590 -17824872 -18037986 -17972120 
1156.441 -17661634 -17195666 -16683826 -16234839 -15925441 -15796509 
1156.803 -15855804 -16082818 -16436389 -16858204 -17283844 -17639428 
1157.165 -17856512 -17885068 -17700414 -17314378 -16773798 -16158484 
1157.527 -15561865 -15076258 -14781278 -14722603 -14908431 -15304735 
1157.888 -15845070 -16434539 -16968946 -17359810 -17541428 -17489138 
1158.250 -17220220 -16791138 -16281534 -15778488 -15367457 -15111685 
1158.612 -15046366 -15173218 -15460579 -15846029 -16249873 -16599322 
1158.974 -16841312 -16962636 -16989816 -16978600 -16985070 -17038342 
1159.336 -17125946 -17198978 -17195380 -17076220 -16855208 -16607039 
1159.698 -16448321 -16483253 -16766656 -17264102 -17862712 -18394892 
1160.059 -18705710 -18709836 -18413344 -17908026 -17326668 -16796302 
1160.421 -16385086 -16096037 -15884044 -15697451 -15513686 -15362595 
1160.783 -15313276 -15449547 -15823474 -16426371 -17178596 -17951296 
1161.145 -18602552 -19004920 -19087626 -18841808 -18320534 -17616806 
1161.507 -16851096 -16145077 -15592328 -15250322 -15121989 -15158371 
1161.868 -15265198 -15333682 -15273963 -15039517 -14649858 -14184621 
1162.230 -13765112 -13507366 -13497537 -13763796 -14273283 -14940574 
1162.592 -15651301 -16295800 -16780014 -17048918 -17093708 -16949988 
1162.954 -16688768 -16400050 -16178053 -16088566 -16154654 -16343348 
1163.316 -16575146 -16736720 -16715072 -16436486 -15882703 -15104677 
1163.677 -14205145 -13325146 -12600943 -12138081 -11999220 -12191789 
1164.039 -12675899 -13374564 -14197320 -15046557 -15832802 -16489888 
1164.401 -16971974 -17260662 -17361816 -17302310 -17123810 -16877040 
1164.763 -16623430 -16424680 -16337285 -16401229 -16620338 -16952026 
1165.125 -17302056 -17551768 -17576652 -17294288 -16697856 -15869573 
1165.487 -14964231 -14161210 -13629210 -13465513 -13683537 -14221339 
1165.848 -14981805 -15868997 -16819126 -17812086 -18849044 -19921668 
1166.210 -20986282 -21948982 -22684634 -23077050 -23046100 -22582604 
1166.572 -21748494 -20664234 -19467590 -18291596 -17246238 -16402155 
1166.934 -15803089 -15467389 -15389652 -15535170 -15833249 -16182747 
1167.296 -16453138 -16523508 -16317820 -15833985 -15158564 -14454400 
1167.657 -13930879 -13771179 -14095395 -14915058 -16129944 -17540248 
1168.019 -18901390 -20001288 -20690362 -20929862 -20781716 -20381878 
1168.381 -19882074 -19404414 -19016178 -18720340 -18480634 -18256810 
1168.743 -18040178 -17868628 -17818798 -17968052 -18361320 -18969492 
1169.105 -19685188 -20327780 -20701672 -20652826 -20111138 -19124946 
1169.467 -17851552 -16528612 -15393937 -14650979 -14413696 -14685159 
1169.828 -15365506 -16280832 -17238372 -18049652 -18583156 -18778764 
1170.190 -18646070 -18251344 -17694942 -17093200 -16546985 -16137829 
1170.552 -15917744 -15903465 -16080456 -16404485 -16812528 -17224328 
1170.914 -17560170 -17753948 -17760724 -17570766 -17211590 -16749695 
1171.276 -16274353 -15887845 -15687799 -15738131 -16059829 -16614724 
1171.637 -17314504 -18023778 -18595472 -18910620 -18900310 -18577060 
1171.999 -18030294 -17414086 -16892784 -16604710 -16626524 -16953460 
1172.361 -17510620 -18176964 -18832386 -19372884 -19734868 -19898056 
1172.723 -19870236 -19677778 -19354316 -18942436 -18490162 -18052416 
1173.085 -17686288 -17433472 -17311766 -17305878 -17376078 -17468484 
1173.447 -17535382 -17549922 -17504480 -17402500 -17246046 -17026904 
1173.808 -16731555 -16356176 -15926080 -15501313 -15172418 -15037917 
1174.170 -15162563 -15557516 -16161868 -16866490 -17532422 -18042212 
1174.532 -18331844 -18394732 -18273330 -18031978 -17740718 -17457088 
1174.894 -17232640 -17120594 -17171842 -17431180 -17915434 -18597440 
1175.256 -19395004 -20184618 -20839452 -21251996 -21375126 -21227544 
1175.617 -20882084 -20430530 -19953472 -19503960 -19103228 -18761214 
1175.979 -18497304 -18349314 -18372406 -18614902 -19091304 -19760896 
1176.341 -20525986 -21253922 -21794630 -22027728 -21883454 -21351720 
1176.703 -20478576 -19354600 -18100918 -16841916 -15707549 -14814454 
1177.065 -14247151 -14053501 -14227591 -14710784 -15394929 -16152291 
1177.427 -16865630 -17449292 -17876450 -18174992 -18413724 -18666004 
1177.788 -18984622 -19375388 -19794928 -20160232 -20381120 -20397588 
1178.150 -20198566 -19831618 -19381250 -18941898 -18572202 -18273330 
1178.512 -17986490 -17626352 -17121168 -16461529 -15719404 -15044157 
1178.874 -14614330 -14564060 -14939485 -15660698 -16548196 -17358760 
1179.236 -17882048 -18000318 -17718100 -17151524 -16482264 -15897173 
1179.597 -15519345 -15395728 -15491785 -15725221 -15991298 -16197909 
1179.959 -16284756 -16220605 -16006021 -15667440 -15257488 -14845739 
1180.321 -14512951 -14337148 -14367922 -14615066 -15039965 -15571359 
1180.683 -16119089 -16606146 -16990774 -17269706 -17474944 -17656862 
1181.045 -17873398 -18174010 -18596298 -19163628 -19877358 -20709916 
1181.406 -21593694 -22430680 -23093104 -23455488 -23433512 -23001164 
1181.768 -22206678 -21153924 -19983060 -18823090 -17770106 -16883860 
1182.130 -16187184 -15684411 -15372094 -15242357 -15276650 -15441010 
1182.492 -15691314 -15981974 -16287407 -16614566 -16999376 -17482996 
1182.854 -18077462 -18734368 -19343856 -19754594 -19819210 -19461382 
1183.216 -18705806 -17686894 -16596675 -15643727 -14980557 -14667028 
1183.577 -14678848 -14934939 -15347116 -15845966 -16399985 -17000522 
1183.939 -17635896 -18275076 -18862306 -19332226 -19640254 -19775838 
1184.301 -19768588 -19668470 -19525946 -19368320 -19195392 -18992838 
1184.663 -18753916 -18495272 -18261162 -18102984 -18057534 -18124530 
1185.025 -18265228 -18416266 -18519404 -18549630 -18520802 -18473268 
1185.386 -18441766 -18427792 -18383014 -18222400 -17852950 -17226874 
1185.748 -16373631 -15417378 -14540220 -13948975 -13811237 -14197737 
1186.110 -15066273 -16260533 -17558642 -18698380 -19453334 -19678222 
1186.472 -19327758 -18467870 -17253052 -15900079 -14618526 -13584895 
1186.834 -12903359 -12589581 -12584207 -12779671 -13066497 -13355768 
1187.196 -13605929 -13821509 -14037718 -14294989 -14617533 -14999315 
1187.557 -15402636 -15764462 -16007235 -16062224 -15877910 -15435253 
1187.919 -14755528 -13906523 -12995468 -12149551 -11506642 -11175288 
1188.281 -11212068 -11608274 -12290137 -13137386 -14010289 -14796297 
1188.643 -15424925 -15881712 -16197398 -16428253 -16628310 -16826936 
1189.005 -17022220 -17182926 -17262190 -17212480 -17004154 -16634496 
1189.366 -16130965 -15543611 -14939325 -14389912 -13955457 -13682478 
1189.728 -13596584 -13701259 -13981061 -14403567 -14922614 -15474328 
1190.090 -15985008 -16378799 -16587107 -16572755 -16342551 -15954794 
1190.452 -15499907 -15081218 -14774840 -14598919 -14505195 -14394976 
1190.814 -14164416 -13740940 -13125041 -12391488 -11668757 -11080856 
1191.176 -10705504 -10546619 -10543158 -10601915 -10647311 -10660663 
1191.537 -10684265 -10797401 -11066772 -11509966 -12074344 -12658489 
1191.899 -13145327 -13460534 -13598608 -13623976 -13633834 -13719303 
1192.261 -13925873 -14241572 -14612215 -14975787 -15295140 -15565764 
1192.623 -15807180 -16036678 -16248628 -16411727 -16487941 -16462613 
1192.985 -16368046 -16286226 -16324362 -16564080 -17028242 -17658708 
1193.346 -18342230 -18942786 -19364424 -19586918 -19668628 -19712896 
1193.708 -19815852 -20025556 -20316778 -20604516 -20775464 -20740906 
1194.070 -20457842 -19940340 -19241548 -18433000 -17579040 -16725274 
1194.432 -15906181 -15151076 -14489621 -13952955 -13563507 -13330160 
1194.794 -13249146 -13313450 -13526348 -13908031 -14486192 -15278250 
1195.156 -16262034 -17363154 -18448564 -19358212 -19953314 -20145776 
1195.517 -19933092 -19391390 -18652166 -17848850 -17090716 -16446916 
1195.879 -15946841 -15605722 -15441553 -15478996 -15740432 -16220732 
1196.241 -16869328 -17576652 -18196538 -18582458 -18617820 -18262560 
1196.603 -17561538 -16640363 -15661336 -14797194 -14190329 -13918813 
1196.965 -13996204 -14370679 -14948545 -15607192 -16229829 -16728399 
1197.326 -17050702 -17191208 -17181494 -17078578 -16941924 -16820848 
1197.688 -16743766 -16715072 -16721545 -16742714 -16761523 -16770959 
1198.050 -16777622 -16799746 -16865630 -17004696 -17240950 -17585784 
1198.412 -18030484 -18543344 -19071296 -19554896 -19940086 -20195246 
1198.774 -20322848 -20357470 -20352222 -20353328 -20384090 -20428506 
1199.135 -20438242 -20345012 -20092314 -19655516 -19053854 -18343406 
1199.497 -17602586 -16908240 -16310511 -15828554 -15450763 -15149572 
1199.859 -14896329 -14677951 -14503337 -14402028 -14412831 -14568064 
1200.221 -14878719 -15322328 -15837723 -16331956 -16708376 -16883160 
1200.583 -16817118 -16528165 -16091248 -15614448 -15200926 -14927416 
1200.945 -14816280 -14841993 -14948641 -15085571 -15227256 -15383352 
1201.306 -15584433 -15860053 -16213262 -16614469 -17010876 -17354778 
1201.668 -17631728 -17871174 -18135304 -18484890 -18944814 -19477128 
1202.030 -19985402 -20341062 -20442826 -20251984 -19818576 -19258094 
1202.392 -18722562 -18341246 -18176518 -18217730 -18391810 -18604108 
1202.754 -18765880 -18827626 -18777556 -18630138 -18406230 -18122402 
1203.115 -17791320 -17428346 -17063604 -16740419 -16500957 -16367791 
1203.477 -16323468 -16310193 -16240299 -16037764 -15673066 -15188032 
1203.839 -14689419 -14321984 -14222332 -14460362 -15017016 -15778424 
1204.201 -16581876 -17248816 -17652218 -17752454 -17601184 -17318836 
1204.563 -17048218 -16921848 -17017854 -17357072 -17911998 -18629534 
1204.925 -19446934 -20299608 -21126466 -21854658 -22401480 -22687180 
1205.286 -22644694 -22248170 -21523510 -20550132 -19435276 -18286544 
1205.648 -17191238 -16196601 -15323415 -14587000 -14016353 -13664562 
1206.010 -13594530 -13847184 -14416004 -15229272 -16170328 -17099634 
1206.372 -17911014 -18556742 -19049478 -19434958 -19750352 -19987302 
1206.734 -20087664 -19962872 -19546092 -18838446 -17932666 -16993608 
1207.095 -16194845 -15672779 -15464608 -15508858 -15671117 -15814336 
1207.457 -15847467 -15756410 -15594758 -15448939 -15389492 -15435318 
1207.819 -15552018 -15671883 -15734233 -15707389 -15602909 -15462178 
1208.181 -15336817 -15264942 -15265294 -15342414 -15496581 -15729696 
1208.543 -16040606 -16413992 -16806662 -17148784 -17365190 -17394572 
1208.905 -17220856 -16881278 -16461177 -16062766 -15773950 -15652707 
1209.266 -15715826 -15951697 -16335690 -16842172 -17442862 -18096278 
1209.628 -18744206 -19306936 -19703808 -19882454 -19836652 -19615710 
1209.990 -19304654 -18996770 -18748776 -18564266 -18395876 -18177630 
1210.352 -17857848 -17431084 -16938866 -16453490 -16039424 -15719661 
1210.714 -15465790 -15210332 -14881217 -14433920 -13880401 -13287935 
1211.075 -12765836 -12421274 -12335904 -12544067 -13028234 -13728580 
1211.437 -14560022 -15437876 -16283832 -17045510 -17703244 -18267832 
1211.799 -18773020 -19258124 -19748612 -20234558 -20663538 -20945584 
1212.161 -20988302 -20722742 -20140684 -19302118 -18330954 -17381140 
1212.523 -16590903 -16067365 -15857913 -15953740 -16299183 -16811254 
1212.885 -17392536 -17939914 -18365290 -18598330 -18601822 -18379932 
1213.246 -17978732 -17472526 -16936380 -16428253 -15968656 -15546168 
1213.608 -15139333 -14747906 -14414657 -14230798 -14299895 -14698580 
1213.970 -15425309 -16380012 -17364044 -18129362 -18464788 -18238032 
1214.332 -17454002 -16243776 -14841544 -13507783 -12468025 -11883301 
1214.694 -11811529 -12220171 -12999197 -13999862 -15047230 -15967570 
1215.055 -16621454 -16904670 -16771087 -16237585 -15382648 -14330255 
1215.417 -13223724 -12213181 -11416445 -10908730 -10715526 -10812688 
1215.779 -11135599 -11594079 -12099028 -12572844 -12969741 -13284721 
1216.141 -13547321 -13806969 -14107936 -14471034 -14879968 -15289030 
1216.503 -15640371 -15895002 -16050026 -16143830 -16235447 -16382501 
1216.865 -16608283 -16890170 -17165632 -17362834 -17439742 -17408516 
1217.226 -17341248 -17345930 -17530702 -17950406 -18580932 -19310200 
1217.588 -19976954 -20403028 -20449560 -20062606 -19278854 -18216554 
1217.950 -17031238 -15890338 -14923222 -14200495 -13737473 -13504058 
1218.312 -13449098 -13521562 -13688996 -13935339 -14252313 -14625639 
1218.674 -15023225 -15394577 -15687767 -15861906 -15912313 -15873374 
1219.035 -15815327 -15813187 -15917297 -16129369 -16398007 -16635038 
1219.397 -16750334 -16697282 -16493205 -16225616 -16015857 -15988680 
1219.759 -16216837 -16695527 -17339816 -18015290 -18582234 -18929368 
1220.121 -19012182 -18851994 -18519308 -18095546 -17648686 -17210698 
1220.483 -16776666 -16317500 -15800886 -15211420 -14559093 -13882166 
1220.844 -13237833 -12697975 -12330718 -12191950 -12315098 -12697814 
1221.206 -13293463 -14005381 -14705627 -15243253 -15486510 -15367617 
1221.568 -14907215 -14229804 -13531905 -13053508 -12988489 -13430819 
1221.930 -14336603 -15532677 -16754350 -17717178 -18221510 -18188244 
1222.292 -17687594 -16890968 -16023489 -15277610 -14758634 -14481545 
1222.654 -14387252 -14392861 -14433376 -14495005 -14609107 -14826271 
1223.015 -15175873 -15641361 -16150121 -16601363 -16888480 -16941828 
1223.377 -16749345 -16356017 -15845230 -15307198 -14821627 -14432831 
1223.739 -14151395 -13960912 -13831394 -13730635 -13631972 -13521209 
1224.101 -13392588 -13245772 -13080579 -12891908 -12670493 -12408298 
1224.463 -12108823 -11798373 -11529746 -11379424 -11419930 -11696625 
1224.824 -12199006 -12855722 -13542760 -14125064 -14512534 -14689195 
1225.186 -14726991 -14748706 -14884546 -15202558 -15679235 -16199186 
1225.548 -16608538 -16773988 -16643457 -16273491 -15812866 -15447948 
1225.910 -15320376 -15490730 -15913144 -16468737 -17003644 -17392440 
1226.272 -17571816 -17539900 -17338478 -17020594 -16627926 -16179778 
1226.634 -15686968 -15170626 -14673531 -14265588 -14028158 -14025271 
1226.995 -14288256 -14796745 -15484272 -16245086 -16966748 -17552914 
1227.357 -17940772 -18119224 -18126978 -18041800 -17948976 -17919724 
1227.719 -17978542 -18092750 -18175724 -18117380 -17828846 -17271520 
1228.081 -16482903 -15563655 -14656777 -13893045 -13365215 -13114690 
1228.443 -13135972 -13399496 -13871672 -14525159 -15326614 -16221689 
1228.804 -17128238 -17931300 -18517182 -18808050 -18784570 -18494828 
1229.166 -18031534 -17498082 -16963370 -16451383 -15949588 -15440722 
1229.528 -14936220 -14494428 -14203060 -14153929 -14395265 -14908912 
1229.890 -15610964 -16389489 -17150152 -17849612 -18509052 -19190574 
1230.252 -19954770 -20814818 -21713384 -22526768 -23109158 -23320890 
1230.614 -23077962 -22370984 -21263986 -19877610 -18363704 -16898234 
1230.975 -15641809 -14729842 -14252089 -14226950 -14594690 -15220602 
1231.337 -15935151 -16555946 -16943550 -17035856 -16848706 -16461624 
1231.699 -15980536 -15513750 -15141188 -14914930 -14868890 -15023161 
1232.061 -15386806 -15945500 -16651971 -17413672 -18105526 -18606044 
1232.423 -18823026 -18735162 -18398862 -17940868 -17511352 -17241014 
1232.784 -17209168 -17417650 -17797586 -18226308 -18572298 -18715230 
1233.146 -18582076 -18167654 -17541872 -16841980 -16238255 -15910653 
1233.508 -15984816 -16494865 -17359428 -18399846 -19378240 -20055614 
1233.870 -20279022 -20008060 -19330230 -18413184 -17462278 -16648335 
1234.232 -16060468 -15706047 -15524045 -15430073 -15348203 -15244852 
1234.594 -15131077 -15053055 -15066177 -15219162 -15538272 -16021542 
1234.955 -16639726 -17341696 -18068086 -18752424 -19338914 -19791700 
1235.317 -20097092 -20262704 -20306626 -20243192 -20071148 -19771882 
1235.679 -19318662 -18697934 -17927896 -17072588 -16228329 -15513111 
1236.041 -15027450 -14821467 -14881697 -15128677 -15440658 -15675975 
1236.403 -15723815 -15528681 -15111012 -14560599 -14020716 -13651526 
1236.764 -13574908 -13852416 -14456451 -15283655 -16172595 -16960598 
1237.126 -17534618 -17856578 -17974408 -17994214 -18039034 -18189674 
1237.488 -18460724 -18791392 -19076180 -19193270 -19050080 -18611378 
1237.850 -17900840 -16991918 -15981877 -14985614 -14113742 -13468307 
1238.212 -13140086 -13183803 -13603649 -14334647 -15253394 -16189961 
1238.573 -16974968 -17497222 -17725862 -17724908 -17618684 -17554218 
1238.935 -17636598 -17896802 -18285592 -18700854 -19025408 -19166004 
1239.297 -19085502 -18801514 -18373580 -17873144 -17369424 -16912256 
1239.659 -16528388 -16228680 -16011802 -15869670 -15791109 -15765164 
1240.021 -15783569 -15840471 -15930265 -16039265 -16137350 -16178500 
1240.383 -16102806 -15856571 -15417218 -14811956 -14123364 -13468468 
1240.744 -12979291 -12750746 -12816411 -13135425 -13610072 -14112907 
1241.106 -14523108 -14766834 -14821659 -14716293 -14505836 -14254366 
1241.468 -14010449 -13796890 -13612384 -13437116 -13244904 -13013218 
1241.830 -12734722 -12421017 -12101637 -11811981 -11580593 -11412894 
1242.192 -11285908 -11153264 -10969311 -10718499 -10438528 -10221845 
1242.553 -10188801 -10453181 -11063801 -11977108 -13051288 -14097608 
1242.915 -14927672 -15418338 -15553009 -15413284 -15141221 -14870235 
1243.277 -14691821 -14623877 -14629995 -14649665 -14642297 -14606608 
1243.639 -14580784 -14616989 -14755016 -15000595 -15322744 -15662679 
1244.001 -15953230 -16140001 -16182939 -16063053 -15780788 -15359557 
1244.363 -14848045 -14319291 -13866312 -13572499 -13486231 -13597998 
1244.724 -13839481 -14100270 -14269467 -14286269 -14158804 -13966944 
1245.086 -13819614 -13820674 -14018631 -14396451 -14885347 -15404235 
1245.448 -15892733 -16326403 -16710609 -17054526 -17342396 -17527170 
1245.810 -17539452 -17319472 -16849790 -16168414 -15360005 -14522692 
1246.172 -13745498 -13079968 -12543777 -12139144 -11871275 -11757548 
1246.533 -11817527 -12050464 -12414802 -12825000 -13181136 -13398082 
1246.895 -13450961 -13386709 -13313868 -13350917 -13572403 -13973201 
1247.257 -14462861 -14895912 -15120933 -15047806 -14671737 -14082436 
1247.619 -13422306 -12859839 -12536694 -12535761 -12881101 -13536883 
1247.981 -14425267 -15433207 -16440440 -17335646 -18035634 -18512958 
1248.343 -18801704 -18991504 -19189496 -19489356 -19927206 -20465112 
1248.704 -20996510 -21382570 -21504054 -21287744 -20734524 -19906602 
1249.066 -18908432 -17848278 -16824546 -15921799 -15206173 -14737817 
1249.428 -14561913 -14693711 -15102533 -15704386 -16380362 -16994056 
1249.790 -17440474 -17673916 -17713648 -17625970 -17490030 -17363186 
1250.152 -17256490 -17141872 -16975862 -16733978 -16431348 -16124677 
1250.513 -15887590 -15787531 -15852802 -16065767 -16371397 -16703913 
1250.875 -17009476 -17255696 -17431244 -17528060 -17525738 -17388970 
1251.237 -17074532 -16557606 -15853154 -15031002 -14205914 -13503768 
1251.599 -13036015 -12855207 -12941986 -13208746 -13534860 -13799265 
1251.961 -13913646 -13849720 -13635375 -13341759 -13050420 -12837932 
1252.323 -12753063 -12813934 -13014922 -13337036 -13757183 -14247087 
1252.684 -14772278 -15283207 -15710521 -15978396 -16014516 -15773950 
1253.046 -15257456 -14516764 -13643563 -12738648 -11894843 -11167312 
1253.408 -10570776 -10094251 -9724040 -9466931 -9361976 -9465763 -9830883 
1253.830 -10471326 -11344466 -12345146 -13329967 -14165315 -14751717 
1254.192 -15059168 -15124389 -15034780 -14890213 -14773719 -14738713 
1254.554 -14800620 -14949954 -15162723 -15411334 -15661400 -15868295 
1254.916 -15979100 -15931958 -15674312 -15182625 -14476001 -13621664 
1255.277 -12721498 -11900838 -11271476 -10917357 -10883170 -11169411 
1255.639 -11738101 -12518184 -13421888 -14343976 -15178561 -15840471 
1256.001 -16271003 -16458625 -16439037 -16289895 -16103413 -15960511 
1256.363 -15910557 -15953038 -16043097 -16104465 -16061073 -15851108 
1256.725 -15447212 -14861302 -14142255 -13366789 -12623345 -12011338 
1257.086 -11618274 -11507869 -11707559 -12193820 -12888370 -13663181 
1257.448 -14377699 -14898954 -15142788 -15099076 -14834180 -14473084 
1257.810 -14156591 -14017379 -14136386 -14531665 -15162563 -15950674 
1258.172 -16801370 -17622630 -18345566 -18922326 -19326332 -19550684 
1258.534 -19605384 -19517676 -19327124 -19082870 -18828770 -18590108 
1258.896 -18365798 -18130410 -17846434 -17482996 -17037992 -16545836 
1259.257 -16073495 -15691794 -15453353 -15363363 -15376252 -15403595 
1259.619 -15351402 -15159875 -14828512 -14424465 -14059372 -13857936 
1259.981 -13903699 -14214284 -14728849 -15334514 -15893850 -16294109 
1260.343 -16486444 -16490430 -16377971 -16230915 -16111394 -16033772 
1260.705 -15969167 -15863152 -15670668 -15379738 -15026522 -14683717 
1261.066 -14443151 -14383757 -14539996 -14893959 -15377051 -15897684 
1261.428 -16360100 -16700948 -16903012 -16995840 -17038596 -17095332 
1261.790 -17212896 -17400238 -17628896 -17841250 -17978828 -17996948 
1262.152 -17884782 -17665770 -17390020 -17113808 -16876944 -16692052 
1262.514 -16537638 -16366484 -16116504 -15734041 -15186656 -14475199 
1262.875 -13637623 -12751004 -11923405 -11270992 -10911057 -10930346 
1263.237 -11362317 -12174038 -13264990 -14488211 -15665427 -16641513 
1263.599 -17307278 -17617094 -17591768 -17303808 -16853868 -16338786 
1263.961 -15847370 -15450986 -15204125 -15157027 -15350250 -15807340 
1264.323 -16522806 -17452220 -18512070 -19584702 -20550542 -21302476 
1264.685 -21765448 -21908564 -21738504 -21290456 -20611816 -19757856 
1265.046 -18783110 -17737980 -16676556 -15650790 -14711072 -13908416 
1265.408 -13287582 -12889786 -12750843 -12891780 -13310558 -13966174 
1265.770 -14776249 -15608503 -16305374 -16725563 -16771311 -16433837 
1266.132 -15799895 -15045118 -14377795 -13991938 -14022480 -14503176 
1266.494 -15369504 -16474161 -17643024 -18699012 -19510200 -20011762 
1266.855 -20198946 -20116484 -19830732 -19414996 -18926386 -18403816 
1267.217 -17873494 -17355034 -16873312 -16464559 -16170679 -16032431 
1267.579 -16070941 -16271321 -16571863 -16868020 -17039298 -16968118 
1267.941 -16586054 -15894139 -14972234 -13955906 -13011352 -12300508 
1268.303 -11931980 -11950773 -12325276 -12965914 -13739077 -14500485 
1268.665 -15126469 -15517906 -15621832 -15432632 -14992145 -14378437 
1269.026 -13692559 -13044536 -12522949 -12188729 -12068059 -12156769 
1269.388 -12433059 -12870647 -13448937 -14149824 -14952547 -15825199 
1269.750 -16714051 -17550336 -18259574 -18770386 -19033528 -19022140 
1270.112 -18728814 -18160250 -17334596 -16287373 -15077410 -13805010 
1270.474 -12604774 -11622048 -10996416 -10809876 -11062347 -11658952 
1270.835 -12436536 -13198525 -13762094 -14019432 -13950901 -13631715 
1271.197 -13195150 -12808400 -12623119 -12738391 -13194378 -13960366 
1271.559 -14948097 -16018892 -17021678 -17817112 -18302364 -18437448 
1271.921 -18240224 -17773730 -17113364 -16329946 -15472601 -14564412 
1272.283 -13618871 -12652921 -11699657 -10816889 -10075635 -9545152 -9279116 
1272.705 -9296402 -9579120 -10074632 -10712034 -11409441 -12087975 -12686455 
1273.127 -13160531 -13493619 -13699397 -13824847 -13941114 -14127181 
1273.489 -14453311 -14952195 -15608215 -16355092 -17100432 -17746188 
1273.851 -18221194 -18501752 -18608172 -18587886 -18487716 -18335084 
1274.212 -18127230 -17839470 -17441970 -16921050 -16288204 -15579638 
1274.574 -14840232 -14113742 -13432393 -12816668 -12284307 -11858766 
1274.936 -11568398 -11442780 -11497865 -11725103 -12087685 -12531511 
1275.298 -13003056 -13464356 -13905657 -14338077 -14776922 -15220922 
1275.660 -15640210 -15979035 -16179586 -16202090 -16049547 -15768487 
1276.021 -15439346 -15142661 -14931130 -14816471 -14769427 -14740155 
1276.383 -14684711 -14590492 -14481706 -14412638 -14439241 -14601322 
1276.745 -14899306 -15294275 -15711032 -16061457 -16266758 -16268799 
1277.107 -16049674 -15635129 -15096164 -14532274 -14061361 -13793841 
1277.469 -13798591 -14089878 -14613977 -15267853 -15915539 -16435497 
1277.831 -16754478 -16858522 -16791426 -16627384 -16443983 -16288459 
1278.192 -16171126 -16071228 -15958436 -15812228 -15636183 -15455399 
1278.554 -15306687 -15221018 -15211580 -15272844 -15385399 -15524652 
1278.916 -15665172 -15783217 -15853504 -15848329 -15745576 -15538975 
1279.278 -15250354 -14929369 -14647871 -14473693 -14441837 -14539868 
1279.640 -14706460 -14857107 -14909968 -14827520 -14628137 -14383886 
1280.001 -14186000 -14116917 -14219832 -14490519 -14890726 -15374109 
1280.363 -15910462 -16489888 -17114700 -17779106 -18450246 -19068028 
1280.725 -19558476 -19854568 -19925054 -19781570 -19473674 -19064160 
1281.087 -18611820 -18156754 -17719374 -17316320 -16972228 -16721129 
1281.449 -16599704 -16623398 -16770450 -16972674 -17137254 -17171684 
1281.811 -17014796 -16660294 -16155357 -15583282 -15028763 -14562874 
1282.172 -14226598 -14032810 -13976826 -14041632 -14199404 -14401067 
1282.534 -14578895 -14654662 -14560567 -14273604 -13834218 -13348089 
1282.896 -12944655 -12741737 -12789452 -13049970 -13407496 -13720619 
1283.258 -13890381 -13903057 -13848147 -13881331 -14168714 -14801453 
1283.620 -15760114 -16906010 -18040020 -18949574 -19483242 -19594204 
1283.981 -19334794 -18828770 -18213600 -17612830 -17100240 -16704295 
1284.343 -16423468 -16243841 -16150152 -16129369 -16168827 -16251119 
1284.705 -16354198 -16456041 -16536683 -16582323 -16586151 -16546888 
1285.067 -16469600 -16367184 -16263628 -16190153 -16177382 -16242787 
1285.429 -16377108 -16539011 -16661793 -16680796 -16552024 -16276555 
1285.791 -15899695 -15499874 -15154084 -14906830 -14756553 -14658827 
1286.152 -14550409 -14376321 -14118072 -13798591 -13473896 -13205756 
1286.514 -13045244 -13019134 -13128996 -13361649 -13698595 -14121311 
1286.876 -14606833 -15124517 -15636407 -16099421 -16482456 -16774626 
1287.238 -16990708 -17159550 -17307372 -17436656 -17518450 -17497414 
1287.600 -17317816 -16951484 -16413003 -15762001 -15082179 -14463470 
1287.961 -13969189 -13625132 -13419478 -13314061 -13259238 -13207139 
1288.323 -13123724 -12989036 -12802127 -12581889 -12372424 -12236987 
1288.685 -12242721 -12443459 -12850317 -13417873 -14043718 -14605327 
1289.047 -14994898 -15159075 -15119685 -14962791 -14804943 -14740892 
1289.409 -14822684 -15042557 -15354823 -15701797 -16046450 -16383139 
1289.771 -16728016 -17097180 -17488726 -17876992 -18229644 -18528198 
1290.132 -18787172 -19048432 -19363378 -19754816 -20193032 -20587578 
1290.494 -20818482 -20785824 -20447852 -19846274 -19085914 -18295916 
1290.856 -17568188 -16933862 -16361505 -15793696 -15190111 -14570179 
1291.218 -14016160 -13657851 -13615948 -13950933 -14635089 -15551571 
1291.580 -16529091 -17376236 -17947640 -18161934 -18012938 -17557306 
1291.941 -16897436 -16160782 -15470874 -14945472 -14670327 -14681956 
1292.303 -14958245 -15417314 -15938569 -16384510 -16653534 -16704742 
1292.665 -16572213 -16344018 -16132753 -16030643 -16073175 -16234105 
1293.027 -16437441 -16595781 -16637590 -16539903 -16331797 -16086170 
1293.389 -15889347 -15817020 -15916659 -16194206 -16618297 -17126710 
1293.750 -17645156 -18092114 -18393240 -18495020 -18365798 -18006580 
1294.112 -17449100 -16757984 -16017964 -15321081 -14758827 -14398278 
1294.474 -14276009 -14390200 -14703224 -15145828 -15630974 -16076593 
1294.836 -16411057 -16589945 -16599672 -16452627 -16182426 -15835455 
1295.198 -15470299 -15148772 -14933947 -14882722 -15028122 -15368768 
1295.560 -15856571 -16407834 -16910982 -17261998 -17399506 -17321668 
1295.921 -17092722 -16818074 -16616542 -16568769 -16694220 -16943644 
1296.283 -17224456 -17429494 -17476536 -17337366 -17040476 -16657520 
1296.645 -16269054 -15946139 -15725605 -15608951 -15570847 -15570655 
1297.007 -15564102 -15504095 -15349419 -15064929 -14630796 -14052315 
1297.369 -13369777 -12659229 -12016011 -11546717 -11339270 -11440843 
1297.730 -11851769 -12521725 -13362901 -14257925 -15089859 -15753308 
1298.092 -16166657 -16290693 -16130965 -15742540 -15214971 -14663985 
1298.454 -14200752 -13901260 -13795189 -13855978 -14014812 -14178399 
1298.816 -14264915 -14225251 -14054207 -13788512 -13493812 -13244261 
1299.178 -13096461 -13079904 -13186600 -13377456 -13586950 -13744695 
1299.540 -13795703 -13714134 -13518061 -13266950 -13053346 -12967779 
1299.901 -13074084 -13382019 -13838872 -14336859 -14743262 -14951650 
1300.263 -14906318 -14630156 -14211815 -13784371 -13473929 -13358082 
1300.625 -13446946 -13681290 -13957671 -14161563 -14212873 -14081120 
1300.987 -13792235 -13408299 -13008266 -12658071 -12390587 -12206384 
1301.349 -12079822 -11976786 -11868503 -11744067 -11609241 -11480827 
1301.710 -11374776 -11299434 -11251556 -11220236 -11191014 -11153264 
1302.072 -11103302 -11042417 -10974092 -10900038 -10819927 -10734662 
1302.434 -10651579 -10589692 -10576951 -10644498 -10814110 -11083988 
1302.796 -11420963 -11758225 -12013949 -12097997 -11937266 -11492025 
1303.158 -10757548 -9767584 -8584319 -7298654 -6011787 -4830388 -3858234 
1303.580 -3170854 -2809604 -2767333 -2994150 -3405055 -3907165 -4429915 
1304.002 -4940047 -5452787 -6019139 -6703857 -7548322 -8544685 -9621188 
1304.424 -10658982 -11514161 -12056813 -12216950 -11998543 -11486023 
1304.786 -10812041 -10137336 -9599636 -9278370 -9185340 -9261569 -9399266 
1305.208 -9461776 -9327764 -8908339 -8163688 -7106835 -5794681 -4312352 
1305.630 -2749751 -1200178 245857 1503073 2475761 3070492 3208061 2837238 
1306.113 1958955 634682 -1011827 -2828171 -4648424 -6325224 -7762177 
1306.535 -8909670 -9770143 -10384311 -10823256 -11171284 -11510288 -11912767 
1306.957 -12419986 -13032607 -13704309 -14354555 -14882593 -15197983 
1307.319 -15255217 -15068674 -14718696 -14322946 -14018181 -13913935 
1307.680 -14066782 -14476578 -15093732 -15842387 -16640428 -17426564 
1308.042 -18165048 -18844538 -19467432 -20035398 -20536856 -20943312 
1308.404 -21211610 -21296324 -21166956 -20819870 -20287970 -19636358 
1308.766 -18954394 -18323808 -17797776 -17383940 -17044426 -16713478 
1309.128 -16326595 -15855197 -15317242 -14773335 -14293771 -13929884 
1309.490 -13681322 -13495386 -13283469 -12968422 -12523915 -11999670 
1309.851 -11510127 -11205093 -11218655 -11614338 -12367303 -13364347 
1310.213 -14449464 -15453065 -16249331 -16781702 -17060102 -17145374 
1310.575 -17119734 -17065070 -17035028 -17049492 -17090906 -17114350 
1310.937 -17057106 -16860594 -16494449 -15973255 -15366369 -14780477 
1311.299 -14344521 -14160343 -14270751 -14642810 -15177921 -15742093 
1311.660 -16203942 -16485933 -16574446 -16519075 -16398549 -16294140 
1312.022 -16257437 -16299022 -16397402 -16516842 -16627066 -16713414 
1312.384 -16778482 -16834936 -16894568 -16958144 -17013522 -17036620 
1312.746 -17000078 -16875382 -16641481 -16291715 -15843473 -15347468 
1313.108 -14883907 -14561144 -14480552 -14706876 -15240598 -16005671 
1313.469 -16858746 -17621388 -18149666 -18368690 -18301730 -18047172 
1313.831 -17744470 -17519406 -17446490 -17546868 -17792274 -18132348 
1314.193 -18514324 -18903324 -19282342 -19640698 -19963474 -20221432 
1314.555 -20372868 -20379602 -20219724 -19903944 -19475068 -19002858 
1314.917 -18562934 -18216238 -18002510 -17928786 -17972312 -18082674 
1315.279 -18196378 -18246040 -18176424 -17962424 -17613912 -17173786 
1315.640 -16699322 -16249012 -15862098 -15550260 -15304480 -15106212 
1316.002 -14941342 -14808722 -14719880 -14691725 -14736439 -14856242 
1316.364 -15044957 -15295107 -15605210 -15978780 -16416002 -16900942 
1316.726 -17387410 -17801466 -18062016 -18107846 -17938134 -17623456 
1317.088 -17289478 -17055768 -16995742 -17105940 -17316574 -17518418 
1317.449 -17610094 -17541204 -17324948 -17033468 -16759833 -16586246 
1317.811 -16544688 -16612461 -16724732 -16809054 -16809596 -16705539 
1318.173 -16511451 -16266437 -16017294 -15804527 -15661849 -15614544 
1318.535 -15680704 -15870435 -16177639 -16573265 -16997622 -17374230 
1318.897 -17629026 -17718960 -17651550 -17477682 -17262796 -17050638 
1319.259 -16851574 -16642405 -16387032 -16058072 -15659291 -15230455 
1319.620 -14844298 -14577933 -14490999 -14605231 -14894504 -15288358 
1319.982 -15687607 -15998198 -16146960 -16104531 -15889538 -15558092 
1320.344 -15187232 -14851951 -14614490 -14507182 -14535830 -14686600 
1320.706 -14941022 -15287846 -15730143 -16279077 -16938866 -17685398 
1321.068 -18457264 -19150026 -19640348 -19822406 -19630910 -19072880 
1321.429 -18225134 -17221366 -16203240 -15287559 -14539676 -13961618 
1321.791 -13509390 -13120219 -12748043 -12379026 -12039700 -11781830 
1322.153 -11666080 -11733522 -11992160 -12411711 -12935554 -13497794 
1322.515 -14041568 -14540573 -15001715 -15460483 -15959170 -16526571 
1322.877 -17153338 -17786358 -18329558 -18674384 -18736082 -18480760 
1323.239 -17948818 -17246046 -16522584 -15915060 -15514901 -15342734 
1323.600 -15353001 -15457989 -15565956 -15619307 -15603101 -15545113 
1323.962 -15490411 -15479379 -15523981 -15606266 -15688853 -15740592 
1324.324 -15754875 -15760722 -15811589 -15967410 -16263980 -16690044 
1324.686 -17177130 -17611748 -17872508 -17854828 -17515968 -16889086 
1325.048 -16085213 -15257808 -14565117 -14131928 -14007498 -14163615 
1325.409 -14506477 -14922390 -15305024 -15591721 -15771043 -15866794 
1325.771 -15910748 -15915796 -15864398 -15716784 -15434518 -15008565 
1326.133 -14475744 -13919455 -13450865 -13165096 -13119094 -13304421 
1326.495 -13650627 -14033612 -14309673 -14354491 -14078266 -13453660 
1326.857 -12518474 -11377520 -10178508 -9094821 -8298677 -7912063 -7992289 
1327.279 -8513527 -9382470 -10454604 -11576690 -12627400 -13523939 -14234518 
1327.701 -14763086 -15129669 -15355751 -15459300 -15459204 -15379866 
1328.063 -15253809 -15113669 -14976555 -14835845 -14658859 -14403375 
1328.425 -14035505 -13554194 -12997719 -12439885 -11962055 -11628339 
1328.786 -11470888 -11484248 -11638468 -11896100 -12230062 -12622734 
1329.148 -13061192 -13527858 -13994568 -14431068 -14820859 -15174818 
1329.510 -15532581 -15944542 -16446151 -17028146 -17625270 -18127582 
1329.872 -18427572 -18456660 -18223800 -17811452 -17352042 -16972198 
1330.234 -16742013 -16661856 -16667340 -16669573 -16590903 -16402889 
1330.595 -16129401 -15831556 -15571838 -15392402 -15301089 -15278186 
1330.957 -15292292 -15318329 -15345613 -15374716 -15407944 -15443248 
1331.319 -15471578 -15483281 -15471227 -15429433 -15345165 -15187968 
1331.681 -14903661 -14431356 -13721710 -12771306 -11637726 -10443251 
1332.043 -9340476 -8458387 -7869829 -7557114 -7425574 -7334786 -7167069 
1332.465 -6869144 -6479230 -6107916 -5906909 -6013714 -6501036 -7365670 
1332.887 -8530227 -9877914 -11270314 -12582790 -13718693 -14605102 -15203710 
1333.309 -15508506 -15546807 -15371039 -15053535 -14671898 -14288384 
1333.671 -13945574 -13659361 -13424844 -13227130 -13053861 -12902652 
1334.033 -12782888 -12710622 -12701579 -12766672 -12907219 -13113565 
1334.395 -13364668 -13630109 -13870420 -14043685 -14119804 -14091995 
1334.756 -13990398 -13878539 -13845901 -13975414 -14312975 -14847052 
1335.118 -15503200 -16160272 -16679138 -16955054 -16936920 -16643776 
1335.480 -16148206 -15559691 -14989808 -14522821 -14212713 -14076822 
1335.842 -14106236 -14274950 -14549384 -14892519 -15266958 -15645325 
1336.204 -16014548 -16378671 -16752023 -17144930 -17540886 -17884050 
1336.565 -18067418 -17965158 -17490284 -16648846 -15558348 -14403791 
1336.927 -13380026 -12620674 -12186958 -12066029 -12187956 -12447677 
1337.289 -12734368 -12967136 -13102762 -13145487 -13132114 -13116040 
1337.651 -13145134 -13248471 -13435542 -13698242 -14020010 -14386258 
1338.013 -14794247 -15257840 -15808649 -16486920 -17332144 -18360686 
1338.375 -19544950 -20782348 -21900688 -22706268 -23052918 -22920332 
1338.736 -22409032 -21690816 -20930586 -20261724 -19773306 -19504308 
1339.098 -19456502 -19594742 -19864222 -20197270 -20532402 -20822050 
1339.460 -21029754 -21134388 -21130852 -21033826 -20876464 -20707862 
1339.822 -20585936 -20563372 -20688182 -20998216 -21518276 -22256010 
1340.184 -23189486 -24257660 -25336904 -26252186 -26811664 -26856518 
1340.545 -26337360 -25329526 -24000362 -22532242 -21081932 -19754246 
1340.907 -18598234 -17633510 -16859446 -16264619 -15830439 -15528137 
1341.269 -15315899 -15133733 -14914386 -14595459 -14136514 -13540640 
1341.631 -12864118 -12214502 -11717202 -11496059 -11633532 -12145137 
1341.993 -12971445 -13986676 -15031867 -15933268 -16554480 -16816862 
1342.354 -16706750 -16272949 -15611604 -14844587 -14082275 -13411415 
1342.716 -12877369 -12485378 -12216563 -12048756 -11975400 -12014626 
1343.078 -12198555 -12560419 -13110157 -13816951 -14606063 -15365762 
1343.440 -15983187 -16363898 -16459869 -16280448 -15885321 -15364866 
1343.802 -14809011 -14299157 -13889675 -13609526 -13470170 -13470170 
1344.164 -13599668 -13837909 -14152679 -14497409 -14815415 -15055776 
1344.525 -15181217 -15183233 -15082562 -14926488 -14772343 -14668725 
1344.887 -14646974 -14710272 -14838695 -14996594 -15148484 -15267437 
1345.249 -15340975 -15372350 -15377339 -15379705 -15405290 -15482065 
1345.611 -15636086 -15887301 -16247671 -16713159 -17259134 -17834698 
1345.973 -18370722 -18786632 -19003588 -18967432 -18657404 -18095896 
1346.334 -17341248 -16482137 -15616910 -14830017 -14190232 -13736798 
1346.696 -13482666 -13419992 -13524196 -13758018 -14072299 -14415939 
1347.058 -14739065 -15002612 -15188256 -15297474 -15345452 -15344621 
1347.420 -15288645 -15140709 -14840392 -14318329 -13535117 -12510522 
1347.782 -11347082 -10210971 -9304998 -8816042 -8846626 -9391160 -10325719 
1348.204 -11456463 -12555301 -13436409 -14005797 -14265716 -14300792 
1348.566 -14231760 -14179586 -14220794 -14380231 -14637204 -14948001 
1348.927 -15265837 -15558252 -15814081 -16038114 -16244767 -16448097 
1349.289 -16658859 -16878984 -17101514 -17308678 -17474372 -17568730 
1349.651 -17563224 -17440792 -17200602 -16860912 -16454127 -16023107 
1350.013 -15611316 -15253617 -14977900 -14801901 -14733396 -14768339 
1350.375 -14885123 -15041052 -15169922 -15199902 -15070722 -14758763 
1350.737 -14294188 -13761131 -13277459 -12947840 -12838061 -12943659 
1351.098 -13197721 -13491114 -13720522 -13824237 -13793648 -13666328 
1351.460 -13498180 -13334305 -13188657 -13051482 -12909791 -12773107 
1351.822 -12685875 -12716060 -12920791 -13316567 -13853764 -14429818 
1352.184 -14913938 -15207229 -15277961 -15174818 -14996818 -14849294 
1352.546 -14789252 -14795496 -14775448 -14608434 -14210275 -13573559 
1352.907 -12790159 -12017977 -11443070 -11202477 -11345338 -11821944 
1353.269 -12511424 -13261134 -13930333 -14432638 -14734037 -14846476 
1353.631 -14804143 -14648256 -14414497 -14131992 -13830848 -13543563 
1353.993 -13303810 -13146483 -13097651 -13173485 -13377616 -13702800 
1354.355 -14130902 -14632847 -15173122 -15707772 -16192546 -16592976 
1354.717 -16888830 -17081316 -17185284 -17217734 -17178054 -17041590 
1355.078 -16761841 -16296789 -15628736 -14786529 -13844392 -12916321 
1355.440 -12125386 -11563203 -11273994 -11240191 -11401759 -11679594 
1355.802 -12013401 -12379734 -12792991 -13289253 -13902607 -14642105 
1356.164 -15479987 -16352635 -17173340 -17858962 -18337942 -18570424 
1356.526 -18551502 -18310212 -17900520 -17389194 -16851032 -16349986 
1356.887 -15935631 -15638068 -15464447 -15402284 -15424573 -15498820 
1357.249 -15590123 -15667921 -15708826 -15694607 -15613010 -15458341 
1357.611 -15230999 -14938333 -14595202 -14223936 -13850972 -13505599 
1357.973 -13216942 -13005950 -12883449 -12845106 -12873253 -12940346 
1358.335 -13019584 -13094886 -13167860 -13259141 -13402259 -13631715 
1358.697 -13962933 -14379494 -14826911 -15228569 -15501250 -15584816 
1359.058 -15464192 -15173378 -14783680 -14373084 -14006439 -13711437 
1359.420 -13481220 -13291053 -13122920 -12984470 -12912687 -12956877 
1359.782 -13154455 -13502644 -13948590 -14390200 -14704986 -14793190 
1360.144 -14601418 -14148124 -13514336 -12831531 -12239725 -11861700 
1360.506 -11786442 -12050915 -12648995 -13540705 -14675133 -15986126 
1360.867 -17387730 -18766958 -19950656 -20733008 -20951458 -20580722 
1361.229 -19760674 -18708788 -17619608 -16604710 -15718510 -14994417 
1361.591 -14460906 -14154796 -14103734 -14306403 -14718375 -15253746 
1361.953 -15813665 -16305756 -16681084 -16946384 -17160058 -17405078 
1362.315 -17754490 -18238446 -18819822 -19393608 -19813512 -19959516 
1362.677 -19790624 -19386922 -18919756 -18623186 -18726148 -19408660 
1363.038 -20757932 -22682872 -24825500 -26545714 -27236936 -26684054 
1363.400 -25184752 -23258710 -21366042 -19772230 -18555980 -17688134 
1363.762 -17064720 -16551290 -16008161 -15333970 -14490006 -13512441 
1364.124 -12500414 -11592111 -10931510 -10619376 -10698715 -11136116 
1364.486 -11837454 -12660131 -13454880 -14107936 -14557395 -14811316 
1364.847 -14931130 -15007861 -15117189 -15292484 -15509690 -15700934 
1365.209 -15778968 -15676837 -15379386 -14932282 -14429625 -13973104 
1365.571 -13647127 -13482280 -13454270 -13496991 -13537075 -13526991 
1365.933 -13452567 -13338418 -13229380 -13169275 -13180718 -13265954 
1366.295 -13415528 -13624586 -13904309 -14280657 -14778395 -15402923 
1366.656 -16123526 -16873694 -17561984 -18108292 -18467584 -18649626 
1367.018 -18713518 -18749790 -18843904 -19038538 -19318916 -19612764 
1367.380 -19821172 -19843838 -19622170 -19156462 -18505466 -17761390 
1367.742 -17020914 -16361602 -15821300 -15404426 -15095972 -14880705 
1368.104 -14755720 -14733205 -14828769 -15047006 -15365122 -15729759 
1368.466 -16057115 -16263980 -16301129 -16188333 -16014325 -15903337 
1368.827 -15954539 -16193056 -16568959 -16980960 -17321350 -17498560 
1369.189 -17470138 -17251396 -16909548 -16536044 -16216135 -16011130 
1369.551 -15943488 -16009757 -16193951 -16481945 -16862028 -17317912 
1369.913 -17819432 -18314818 -18736558 -19022776 -19128372 -19044342 
1370.275 -18795612 -18429508 -17989096 -17495728 -16943262 -16309969 
1370.636 -15581428 -14777146 -13956645 -13215592 -12653405 -12332522 
1370.998 -12257282 -12363310 -12542714 -12670718 -12661193 -12495198 
1371.360 -12231866 -11985199 -11892683 -12073119 -12584046 -13412957 
1371.722 -14477379 -15659451 -16827382 -17876546 -18748522 -19424470 
1372.084 -19914674 -20236236 -20396262 -20385324 -20183542 -19778212 
1372.446 -19182806 -18451358 -17680850 -16986088 -16485294 -16258586 
1372.807 -16322318 -16621741 -17045572 -17463614 -17756492 -17865702 
1373.169 -17809256 -17685048 -17635102 -17821596 -18395242 -19471108 
1373.531 -21118860 -23323526 -25939452 -28579518 -30644386 -31555306 
1373.893 -31079466 -29480164 -27277858 -24966078 -22843730 -21059962 
1374.255 -19671890 -18679590 -18066242 -17805282 -17870442 -18242862 
1374.616 -18917694 -19902900 -21203814 -22803050 -24627934 -26499050 
1374.978 -28132980 -29164264 -29258842 -28293198 -26433240 -24073972 
1375.340 -21638806 -19472788 -17768356 -16579740 -15876569 -15568609 
1375.702 -15537919 -15652005 -15796669 -15888261 -15882127 -15775485 
1376.064 -15595078 -15382584 -15175073 -14999667 -14865848 -14769684 
1376.426 -14700727 -14651716 -14625574 -14639254 -14720554 -14901356 
1376.787 -15209916 -15656894 -16228264 -16878090 -17536272 -18112326 
1377.149 -18514642 -18678828 -18579060 -18246580 -17761996 -17247574 
1377.511 -16828974 -16602350 -16615268 -16851224 -17238722 -17667360 
1377.873 -18027306 -18229644 -18236636 -18070058 -17797140 -17493468 
1378.235 -17204520 -16933194 -16645370 -16296055 -15851716 -15311101 
1378.596 -14708222 -14104633 -13561676 -13123981 -12804186 -12587136 
1378.958 -12446904 -12368334 -12362408 -12468605 -12741158 -13224334 
1379.320 -13931585 -14827776 -15827563 -16799554 -17607008 -18133332 
1379.682 -18315834 -18160886 -17733688 -17132634 -16455147 -15790023 
1380.044 -15204669 -14746048 -14450394 -14338911 -14416004 -14660365 
1380.406 -15024377 -15434102 -15800662 -16048077 -16130518 -16050026 
1380.767 -15854623 -15624581 -15439698 -15345069 -15335473 -15352425 
1381.129 -15309789 -15122533 -14751749 -14222205 -13625999 -13086913 
1381.491 -12729895 -12638181 -12823489 -13224817 -13725370 -14194434 
1381.853 -14507535 -14583348 -14395073 -13967778 -13369231 -12693695 
1382.215 -12055008 -11560493 -11304987 -11355474 -11732779 -12406043 
1382.576 -13290667 -14272931 -15223801 -16039615 -16668713 -17116486 
1382.938 -17438246 -17709320 -17996216 -18322282 -18657754 -18923754 
1383.300 -19024870 -18873756 -18424458 -17688994 -16739622 -15693169 
1383.662 -14678400 -13825488 -13233430 -12958774 -13015597 -13374661 
1384.024 -13970954 -14708862 -15484432 -16188875 -16722245 -17011324 
1384.385 -17010208 -16710959 -16144278 -15380089 -14517308 -13663053 
1384.747 -12925069 -12380765 -12065031 -11963441 -12020266 -12152323 
1385.109 -12272872 -12320992 -12269425 -12129574 -11938331 -11745712 
1385.471 -11598305 -11530488 -11571012 -11745099 -12078372 -12594860 
1385.833 -13303457 -14185711 -15187936 -16235765 -17248116 -18163204 
1386.195 -18958106 -19643516 -20248916 -20791382 -21249914 -21555606 
1386.556 -21617558 -21361562 -20779000 -19937112 -18965782 -18010076 
1386.918 -17207672 -16661441 -16422799 -16507464 -16911778 -17644106 
1387.280 -18735860 -20239682 -22182058 -24410230 -26445586 -27556172 
1387.642 -27264352 -25799000 -23802450 -21818232 -20100254 -18729132 
1388.004 -17703850 -16995934 -16581366 -16434442 -16520320 -16781958 
1388.365 -17137156 -17486338 -17719500 -17753948 -17553614 -17147000 
1388.727 -16624419 -16110564 -15723463 -15531270 -15542683 -15709467 
1389.089 -15959362 -16224818 -16475309 -16721129 -16994756 -17319058 
1389.451 -17681040 -18018914 -18243656 -18266468 -18037128 -17568380 
1389.813 -16935902 -16257405 -15653986 -15236694 -15080770 -15221210 
1390.175 -15660282 -16369451 -17292504 -18333940 -19368226 -20238352 
1390.536 -20778020 -20863642 -20438148 -19539818 -18286324 -16859862 
1390.898 -15457253 -14241091 -13327171 -12756087 -12503890 -12500060 
1391.260 -12658329 -12894707 -13135265 -13327171 -13432521 -13433197 
1391.622 -13332923 -13158281 -12956073 -12780700 -12690026 -12729541 
1391.984 -12925230 -13281508 -13782092 -14393021 -15062304 -15729055 
1392.345 -16321361 -16767772 -17019448 -17063382 -16938928 -16726773 
1392.707 -16538022 -16476905 -16608825 -16946384 -17444516 -18020090 
1393.069 -18575122 -19034320 -19355138 -19527370 -19561136 -19472534 
1393.431 -19276320 -18987350 -18634358 -18267770 -17958068 -17793450 
1393.793 -17853142 -18185512 -18797644 -19661408 -20737558 -22005774 
1394.155 -23501004 -25316148 -27582852 -30402182 -33635180 -36619100 
1394.516 -38211036 -37552540 -34972004 -31560116 -28244984 -25438724 
1394.878 -23226832 -21570648 -20385418 -19590340 -19111662 -18884006 
1395.240 -18848758 -18959946 -19190194 -19530064 -19987556 -20579868 
1395.602 -21315284 -22167892 -23047200 -23771804 -24123404 -23943422 
1395.964 -23237510 -22171984 -20987040 -19903438 -19064160 -18549630 
1396.325 -18367578 -18462408 -18722974 -19011866 -19204650 -19217234 
1396.687 -19036096 -18709296 -18321774 -17949802 -17636152 -17375186 
1397.049 -17129480 -16859158 -16559487 -16277449 -16112862 -16184183 
1397.411 -16588798 -17372002 -18499368 -19846210 -21189616 -22269764 
1397.773 -22855738 -22855486 -22360318 -21594732 -20794858 -20109650 
1398.135 -19598448 -19247000 -19012372 -18855990 -18765086 -18758232 
1398.496 -18877470 -19168478 -19667424 -20394364 -21360300 -22580748 
1398.858 -24091964 -25964452 -28283108 -31094888 -34293452 -37382204 
1399.220 -39417448 -39466464 -37412880 -34086944 -30491610 -27241326 
1399.582 -24525640 -22341338 -20623476 -19297808 -18309132 -17610348 
1399.944 -17154580 -16887046 -16743958 -16657265 -16554320 -16374715 
1400.305 -16079690 -15663894 -15161571 -14645212 -14213418 -13959564 
1400.667 -13952409 -14204567 -14662287 -15206013 -15683612 -15959522 
1401.029 -15944414 -15631484 -15094660 -14474238 -13925070 -13582840 
1401.391 -13532450 -13791337 -14323426 -15057376 -15915316 -16816288 
1401.753 -17686288 -18459550 -19070630 -19465818 -19613586 -19515458 
1402.115 -19212036 -18776922 -18299252 -17848500 -17460146 -17127984 
1402.476 -16822600 -16517736 -16220093 -15977599 -15872225 -15981622 
1402.838 -16339423 -16906806 -17570416 -18167526 -18522706 -18517244 
1403.200 -18117730 -17394446 -16491037 -15597603 -14896682 -14512982 
1403.562 -14504074 -14846092 -15453544 -16194716 -16929560 -17534488 
1403.924 -17911650 -18012556 -17836988 -17433280 -16881820 -16285237 
1404.285 -15748613 -15358821 -15185921 -15277546 -15662648 -16363004 
1404.647 -17399156 -18795358 -20558694 -22653530 -24931102 -27046474 
1405.009 -28511134 -28894202 -28139160 -26598450 -24781812 -23079658 
1405.371 -21680256 -20649194 -19970720 -19591164 -19432044 -19400168 
1405.733 -19398964 -19342876 -19186358 -18933366 -18641754 -18398418 
1406.094 -18296266 -18392160 -18679526 -19084076 -19486790 -19771122 
1406.456 -19856244 -19735818 -19473610 -19178336 -18945926 -18818266 
1406.818 -18759216 -18672004 -18433478 -17953586 -17221270 -16318075 
1407.180 -15395088 -14610773 -14091546 -13878186 -13923369 -14107198 
1407.542 -14291687 -14363563 -14266935 -14017026 -13683473 -13362451 
1407.904 -13136744 -13061320 -13147577 -13370194 -13677405 -14011091 
1408.265 -14321888 -14573287 -14750116 -14855090 -14905934 -14925239 
1408.627 -14932986 -14938300 -14936380 -14912113 -14849998 -14745696 
1408.989 -14614169 -14489396 -14412125 -14417542 -14515034 -14682436 
1409.351 -14866552 -15004916 -15044574 -14962503 -14774520 -14528556 
1409.713 -14287519 -14103478 -14008781 -14005701 -14075411 -14190970 
1410.074 -14334647 -14505388 -14714436 -14972650 -15278153 -15608407 
1410.436 -15925793 -16184790 -16344210 -16379820 -16283225 -16061967 
1410.798 -15732763 -15322167 -14866904 -14416900 -14042017 -13819423 
1411.160 -13817047 -14074096 -14576235 -15246515 -15946746 -16531356 
1411.522 -16878794 -16948902 -16799778 -16577093 -16456328 -16573010 
1411.884 -16984242 -17637774 -18391048 -19042248 -19410654 -19382676 
1412.245 -18946940 -18185606 -17241556 -16271066 -15395792 -14701463 
1412.607 -14226854 -13973650 -13916599 -14010353 -14197128 -14405683 
1412.969 -14566623 -14621249 -14535766 -14314578 -14001787 -13672043 
1413.331 -13401102 -13248921 -13237222 -13346996 -13528404 -13724663 
1413.693 -13896639 -14034222 -14158997 -14309000 -14519392 -14800396 
1414.054 -15129285 -15451945 -15705440 -15833953 -15811237 -15647817 
1414.416 -15388437 -15096867 -14834724 -14649858 -14559542 -14549032 
1414.778 -14577068 -14593088 -14551852 -14428631 -14228649 -13986932 
1415.140 -13757439 -13592377 -13530363 -13581877 -13731630 -13946280 
1415.502 -14193376 -14458118 -14752966 -15114085 -15587278 -16205825 
1415.864 -16966810 -17812532 -18622582 -19245160 -19530506 -19404160 
1416.225 -18907638 -18193646 -17462278 -16885930 -16580122 -16574157 
1416.587 -16827316 -17244740 -17712534 -18118684 -18377454 -18451452 
1416.949 -18352014 -18137400 -17893780 -17733878 -17775766 -18124148 
1417.311 -18846092 -19921002 -21197030 -22377028 -23141862 -23296804 
1417.673 -22859446 -22005586 -20960740 -19918504 -19001654 -18287878 
1418.034 -17815172 -17598130 -17644488 -17958862 -18541344 -19380902 
1418.396 -20449686 -21700872 -23072902 -24515056 -25998408 -27530486 
1418.758 -29158036 -30948320 -32956560 -35189856 -37575060 -39981444 
1419.120 -42290052 -44475652 -46664476 -49121092 -52087428 -55251312 
1419.482 -56956672 -55038364 -49946892 -44089536 -38972412 -34878632 
1419.844 -31661164 -29118902 -27082462 -25428944 -24049866 -22851274 
1420.205 -21760312 -20733988 -19763524 -18870584 -18085154 -17428794 
1420.567 -16896862 -16460666 -16079338 -15723975 -15395344 -15128165 
1420.929 -14977708 -14994161 -15200766 -15576538 -16057465 -16550334 
1421.291 -16966908 -17240758 -17345674 -17297916 -17147954 -16964230 
1421.653 -16809690 -16730886 -16739877 -16810296 -16878570 -16864928 
1422.014 -16697982 -16342200 -15822165 -15225657 -14686312 -14330448 
1422.376 -14242919 -14425427 -14797354 -15216059 -15535969 -15670126 
1422.738 -15618508 -15471482 -15365858 -15435509 -15746662 -16280482 
1423.100 -16942178 -17616204 -18213028 -18711804 -19161758 -19655010 
1423.462 -20274816 -21050050 -21928284 -22785568 -23479848 -23915200 
1423.823 -24104440 -24161234 -24238358 -24424638 -24692296 -24890648 
1424.185 -24834168 -24393940 -23586874 -22557942 -21507300 -20595668 
1424.547 -19897044 -19409674 -19074562 -18816394 -18575472 -18333844 
1424.909 -18113566 -17954984 -17880266 -17868502 -17845734 -17713488 
1425.271 -17373436 -16775964 -15940869 -14957701 -13955489 -13063249 
1425.633 -12383695 -11962700 -11792634 -11826168 -12005053 -12278508 
1425.994 -12617359 -13012799 -13460726 -13946280 -14435875 -14875517 
1426.356 -15208605 -15396047 -15429721 -15341614 -15195423 -15073506 
1426.718 -15046526 -15160035 -15421472 -15804784 -16259097 -16725529 
1427.080 -17151426 -17490222 -17704550 -17765176 -17648560 -17345770 
1427.442 -16870156 -16267013 -15608503 -14986511 -14492761 -14188469 
1427.803 -14093791 -14183146 -14401323 -14680546 -14966056 -15229112 
1428.165 -15462945 -15673641 -15865644 -16034666 -16172722 -16281726 
1428.527 -16389616 -16547527 -16819922 -17255696 -17859596 -18574932 
1428.889 -19286208 -19855106 -20148054 -20092156 -19697474 -19060544 
1429.251 -18332382 -17683236 -17273464 -17213786 -17572356 -18382092 
1429.613 -19664448 -21436786 -23700244 -26405834 -29328282 -31976580 
1429.974 -33647016 -33735684 -32231226 -29725790 -26973926 -24457870 
1430.336 -22358994 -20665086 -19282214 -18117348 -17115306 -16270395 
1430.698 -15623941 -15237303 -15159171 -15404491 -15938219 -16680319 
1431.060 -17513454 -18317296 -18987636 -19454476 -19699500 -19752758 
1431.422 -19688070 -19599494 -19590278 -19740696 -20083488 -20591876 
1431.783 -21178034 -21716032 -22061080 -22103404 -21799704 -21192580 
1432.145 -20392184 -19542226 -18769086 -18137910 -17650404 -17256490 
1432.507 -16888480 -16487719 -16032239 -15541277 -15066913 -14670487 
1432.869 -14402509 -14292616 -14343720 -14536791 -14836294 -15200510 
1433.231 -15583570 -15942497 -16245788 -16474608 -16625440 -16706686 
1433.593 -16733691 -16724031 -16693296 -16655765 -16622985 -16604010 
1433.954 -16605381 -16628979 -16668584 -16707197 -16723234 -16687460 
1434.316 -16577030 -16385054 -16127454 -15844272 -15589963 -15424029 
1434.678 -15388149 -15496677 -15728513 -16035208 -16351391 -16613416 
1435.040 -16782308 -16851190 -16849598 -16830218 -16859446 -16993384 
1435.402 -17261746 -17657182 -18132540 -18607218 -18979896 -19167240 
1435.763 -19129734 -18897900 -18562520 -18254268 -18105336 -18212804 
1436.125 -18640994 -19417976 -20553196 -22034374 -23842252 -25955962 
1436.487 -28330574 -30912928 -33626500 -36351076 -38785840 -40302292 
1436.849 -40160096 -38418836 -35966268 -33465814 -31134984 -28988218 
1437.211 -27027700 -25265290 -23727948 -22435872 -21401872 -20628594 
1437.573 -20091998 -19746902 -19530254 -19378682 -19239424 -19084328 
1437.934 -18910684 -18733480 -18571156 -18433098 -18312404 -18183224 
1438.296 -18006580 -17734862 -17327686 -16759291 -16031472 -15179105 
1438.658 -14275496 -13423944 -12729445 -12286432 -12145975 -12302537 
1439.020 -12691379 -13206110 -13730025 -14161754 -14451965 -14609364 
1439.382 -14693423 -14782494 -14948129 -15226873 -15608119 -16038403 
1439.743 -16439293 -16734838 -16861996 -16788236 -16512759 -16064554 
1440.105 -15494727 -14868634 -14260362 -13734808 -13342691 -13110671 
1440.467 -13035920 -13089163 -13223435 -13392717 -13561355 -13715450 
1440.829 -13861306 -14017412 -14200527 -14415811 -14652004 -14885923 
1441.191 -15089763 -15239702 -15322615 -15334962 -15278889 -15157539 
1441.552 -14971658 -14720554 -14404080 -14027325 -13602205 -13148702 
1441.914 -12696302 -12280796 -11944069 -11732360 -11684498 -11825814 
1442.276 -12154577 -12635092 -13193575 -13730731 -14151235 -14382796 
1442.638 -14408343 -14271071 -14067552 -13908609 -13883417 -14027838 
1443.000 -14308294 -14634737 -14892999 -14997266 -14915667 -14690764 
1443.362 -14419368 -14229163 -14228458 -14470296 -14941086 -15566851 
1443.723 -16242884 -16857248 -17328832 -17611494 -17693320 -17585244 
1444.085 -17307692 -16884464 -16342679 -15725445 -15096740 -14533715 
1444.447 -14120317 -13915604 -13932996 -14130035 -14421164 -14702103 
1444.809 -14882593 -14925015 -14853328 -14748450 -14710432 -14829377 
1445.171 -15146628 -15643951 -16250256 -16871748 -17426214 -17856004 
1445.532 -18138894 -18271550 -18251600 -18066400 -17696342 -17132858 
1445.894 -16401134 -15578487 -14791205 -14178945 -13872666 -13944868 
1446.256 -14388085 -15109412 -15955081 -16750142 -17330362 -17595522 
1446.618 -17519150 -17152126 -16596291 -15987178 -15461953 -15125221 
1446.980 -15041981 -15217659 -15600863 -16086522 -16545454 -16858808 
1447.342 -16946832 -16806120 -16516587 -16237490 -16165413 -16527496 
1447.703 -17557942 -19479916 -22452802 -26420144 -30893734 -34744712 
1448.065 -36697304 -36281076 -34130408 -31276464 -28474520 -26091932 
1448.427 -24204640 -22767772 -21684386 -20842358 -20135116 -19481088 
1448.789 -18840572 -18217222 -17651358 -17196972 -16903524 -16789226 
1449.151 -16832164 -16969710 -17120976 -17205538 -17163530 -16972132 
1449.512 -16645115 -16228966 -15786763 -15392498 -15113989 -15000851 
1449.874 -15083683 -15365059 -15820056 -16394179 -17016136 -17608472 
1450.236 -18100156 -18445132 -18620868 -18627344 -18479142 -18199618 
1450.598 -17816824 -17360224 -16863174 -16359080 -15877368 -15443471 
1450.960 -15073313 -14775833 -14555889 -14418439 -14371865 -14424401 
1451.322 -14576715 -14811572 -15088867 -15356455 -15564614 -15696652 
1451.683 -15786219 -15923940 -16233914 -16839238 -17815236 -19130526 
1452.045 -20602272 -21903868 -22703468 -22804180 -22253774 -21285060 
1452.407 -20203690 -19259076 -18585092 -18214902 -18093704 -18122338 
1452.769 -18189040 -18210994 -18147028 -17994914 -17776466 -17518704 
1453.131 -17244104 -16967450 -16704934 -16478660 -16312458 -16224371 
1453.492 -16212273 -16248181 -16281247 -16259097 -16148269 -15953580 
1453.854 -15721770 -15533028 -15478388 -15624229 -15998548 -16579324 
1454.216 -17307628 -18098564 -18864018 -19529810 -20032296 -20328066 
1454.578 -20392532 -20226588 -19862798 -19373328 -18869094 -18474570 
1454.940 -18324442 -18547408 -19251406 -20515682 -22343132 -24604108 
1455.302 -26930020 -28762146 -29581300 -29201502 -27877378 -26089778 
1455.663 -24299362 -22790034 -21704370 -21073944 -20854548 -20961972 
1456.025 -21302130 -21810134 -22465576 -23310088 -24443776 -26013668 
1456.387 -28206794 -31247172 -35374340 -40874612 -48091488 -57508516 
1456.749 -69712832 -84796240 -99738832 -106266648 -99337960 -84901280 
1457.111 -70505440 -58832368 -49948608 -43271440 -38257304 -34477336 
1457.472 -31635072 -29529016 -28005166 -26964024 -26344032 -26113960 
1457.834 -26277762 -26869942 -27954808 -29614230 -31922710 -34879700 
1458.196 -38202780 -41125152 -42378028 -40953168 -37204776 -32585424 
1458.558 -28385730 -25125872 -22852752 -21430480 -20709222 -20593646 
1458.920 -21035530 -22021460 -23537224 -25526994 -27822530 -30041624 
1459.281 -31627834 -32001942 -30903916 -28585536 -25636580 -22644284 
1459.643 -19974390 -17812054 -16208634 -15147972 -14590236 -14471930 
1460.005 -14709022 -15191136 -15798746 -16408728 -16905914 -17205570 
1460.367 -17254580 -17040158 -16589116 -15964407 -15252946 -14547590 
1460.729 -13946120 -13530845 -13358436 -13454719 -13804112 -14351221 
1461.091 -15007445 -15676869 -16269054 -16719600 -17003550 -17130724 
1461.452 -17137762 -17068320 -16964262 -16853040 -16748324 -16655670 
1461.814 -16576009 -16507816 -16443983 -16369035 -16257947 -16080935 
1462.176 -15816413 -15462657 -15047166 -14623043 -14264466 -14044872 
1462.538 -14016962 -14205112 -14597317 -15151460 -15799863 -16466506 
1462.900 -17073894 -17551832 -17854192 -17961884 -17890696 -17684476 
1463.261 -17410202 -17136998 -16915570 -16770195 -16692691 -16654776 
1463.623 -16624037 -16583281 -16537925 -16514163 -16542997 -16648654 
1463.985 -16837838 -17103074 -17433312 -17828242 -18304208 -18891778 
1464.347 -19622486 -20517296 -21583162 -22827412 -24283258 -26038290 
1464.709 -28271652 -31258642 -35271888 -40247452 -45080672 -47558956 
1465.071 -46314044 -42327956 -37509780 -33033856 -29303660 -26321518 
1465.432 -23970482 -22125636 -20663158 -19475988 -18476888 -17603094 
1465.794 -16817914 -16107850 -15475223 -14927384 -14467765 -14090198 
1466.156 -13776347 -13497377 -13220060 -12911400 -12553434 -12152484 
1466.518 -11750550 -11418607 -11250135 -11334170 -11721008 -12404014 
1466.880 -13307474 -14309256 -15260816 -16038466 -16578048 -16882522 
1467.241 -17014350 -17062554 -17112918 -17212736 -17365794 -17536716 
1467.603 -17674710 -17730952 -17677700 -17515268 -17269706 -16985644 
1467.965 -16713925 -16508006 -16409079 -16437154 -16583886 -16811156 
1468.327 -17057170 -17251046 -17340804 -17307342 -17173978 -16994056 
1468.689 -16833310 -16740961 -16731204 -16783742 -16858108 -16918374 
1469.051 -16949094 -16962030 -16982902 -17029006 -17090014 -17121932 
1469.412 -17060260 -16852020 -16477574 -15968943 -15397295 -14855506 
1469.774 -14419112 -14121921 -13950644 -13855786 -13776732 -13662764 
1470.136 -13492623 -13274535 -13039327 -12824936 -12671362 -12614623 
1470.498 -12682883 -12896026 -13255510 -13738403 -14289378 -14831970 
1470.860 -15287782 -15599073 -15757751 -15814433 -15873279 -16055167 
1471.221 -16475819 -17210698 -18277840 -19628250 -21154332 -22726646 
1471.583 -24220026 -25576354 -26829512 -28119252 -29675012 -31813282 
1471.945 -34910952 -39254108 -44505024 -48903996 -49982596 -47170816 
1472.307 -42293388 -37169528 -32604144 -28746456 -25532650 -22904870 
1472.669 -20821924 -19265320 -18230058 -17694750 -17626798 -17982166 
1473.031 -18720498 -19809300 -21234296 -23018700 -25215488 -27916530 
1473.392 -31234222 -35142308 -39150936 -41942812 -41963268 -39225624 
1473.754 -35316272 -31572684 -28412454 -25792226 -23573600 -21655262 
1474.116 -20012806 -18670258 -17660998 -17007946 -16687270 -16626077 
1474.478 -16711883 -16830154 -16892626 -16857216 -16733691 -16566822 
1474.840 -16414408 -16319415 -16299278 -16339073 -16400464 -16434187 
1475.201 -16402505 -16294301 -16133839 -15974883 -15887558 -15943265 
1475.563 -16188428 -16636537 -17266584 -18042944 -18932824 -19932524 
1475.925 -21087740 -22503488 -24344102 -26806992 -30024772 -33875308 
1476.287 -37767128 -40637024 -41534988 -40274448 -37475196 -34014824 
1476.649 -30591026 -27594388 -25153422 -23272622 -21884934 -20897780 
1477.010 -20225008 -19794262 -19551476 -19453428 -19460368 -19526008 
1477.372 -19588408 -19582232 -19444622 -19133856 -18644326 -18008774 
1477.734 -17293140 -16574541 -15929690 -15413828 -15053215 -14849678 
1478.096 -14786401 -14839527 -14982766 -15193472 -15449643 -15726468 
1478.458 -15996249 -16226636 -16385276 -16447619 -16400592 -16249809 
1478.820 -16017998 -15746024 -15481330 -15267565 -15137381 -15102116 
1479.181 -15152132 -15261711 -15401420 -15546072 -15682302 -15808970 
1479.543 -15929786 -16045140 -16145715 -16215498 -16238192 -16208284 
1479.905 -16138978 -16058072 -15995739 -15969614 -15972009 -15970604 
1480.267 -15923973 -15808202 -15635576 -15464256 -15378139 -15468124 
1480.629 -15792962 -16360963 -17132092 -18042436 -19037650 -20094276 
1480.990 -21226660 -22460792 -23789464 -25132814 -26307046 -27061604 
1481.352 -27198128 -26681466 -25693172 -24531246 -23493376 -22747870 
1481.714 -22312416 -22081738 -21888590 -21563962 -20994426 -20164660 
1482.076 -19151706 -18092400 -17118938 -16332245 -15775196 -15442960 
1482.438 -15304928 -15326038 -15476374 -15723655 -16028248 -16338084 
1482.800 -16595175 -16760949 -16831366 -16847398 -16875702 -16984272 
1483.161 -17203406 -17505528 -17804932 -17989604 -17968592 -17705504 
1483.523 -17242702 -16686855 -16180927 -15845582 -15749827 -15891263 
1483.885 -16207708 -16601969 -16979844 -17285882 -17509126 -17680594 
1484.247 -17849422 -18060870 -18331716 -18641534 -18934030 -19138422 
1484.609 -19188988 -19046910 -18715898 -18241814 -17700732 -17171080 
1484.970 -16719600 -16381798 -16160687 -16035529 -15977725 -15964121 
1485.332 -15979035 -16010428 -16039712 -16034314 -15958020 -15786860 
1485.694 -15535426 -15267661 -15100325 -15174177 -15605147 -16448002 
1486.056 -17652410 -19059658 -20405526 -21408306 -21854750 -21672818 
1486.418 -20955404 -19910718 -18785904 -17776276 -17015912 -16570171 
1486.780 -16454445 -16661696 -17180442 -18010966 -19167558 -20684674 
1487.141 -22611574 -24969642 -27695868 -30493558 -32677322 -33363066 
1487.503 -32087720 -29334196 -26083444 -23115944 -20760648 -19040662 
1487.865 -17873462 -17135500 -16698875 -16436996 -16243074 -16040862 
1488.227 -15795071 -15514838 -15242773 -15035803 -14942751 -14997906 
1488.589 -15218522 -15612946 -16192162 -16973822 -17979114 -19214794 
1488.950 -20657314 -22233218 -23800914 -25179030 -26185900 -26710164 
1489.312 -26760700 -26467440 -26028616 -25635642 -25466598 -25671310 
1489.674 -26378208 -27681630 -29560406 -31742140 -33571240 -34292776 
1490.036 -33583996 -31797114 -29577428 -27460320 -25744202 -24532372 
1490.398 -23855364 -23708276 -24086856 -25007430 -26511178 -28643298 
1490.760 -31327796 -34196348 -36412508 -36908112 -35261808 -32093350 
1491.121 -28454970 -25074898 -22276028 -20119394 -18549568 -17491558 
1491.483 -16856800 -16553778 -16485581 -16560731 -16696420 -16814472 
1491.845 -16850108 -16750460 -16484497 -16057083 -15516659 -14951491 
1492.207 -14462861 -14149535 -14073711 -14245837 -14623076 -15124837 
1492.569 -15658908 -16139330 -16511707 -16751386 -16859446 -16853232 
1492.930 -16760536 -16616607 -16457317 -16318489 -16225616 -16185045 
1493.292 -16179139 -16168861 -16105998 -15946491 -15670668 -15289254 
1493.654 -14842922 -14386258 -13976312 -13660002 -13464870 -13403480 
1494.016 -13476594 -13678914 -13999221 -14417638 -14903469 -15409895 
1494.378 -15883502 -16274257 -16544847 -16682582 -16697759 -16619062 
1494.740 -16481115 -16321074 -16174415 -16072346 -16046386 -16122729 
1495.101 -16315140 -16616894 -16996476 -17402882 -17776722 -18077366 
1495.463 -18300872 -18492226 -18732908 -19125740 -19765106 -20711970 
1495.825 -21990120 -23597858 -25547896 -27889902 -30761082 -34412264 
1496.187 -39124016 -44849084 -50272152 -52347708 -49353908 -43501692 
1496.549 -37693040 -33016354 -29467410 -26769016 -24670980 -23015996 
1496.910 -21706134 -20676840 -19881440 -19272832 -18798722 -18401592 
1497.272 -18029974 -17645728 -17234104 -16807460 -16403846 -16078221 
1497.634 -15883757 -15863983 -16035816 -16385788 -16870314 -17430734 
1497.996 -18011698 -18575122 -19117116 -19667868 -20285536 -21036698 
1498.358 -21984356 -23177140 -24654574 -26453754 -28622856 -31232524 
1498.719 -34311576 -37718980 -40895784 -42699268 -42086592 -39244692 
1499.081 -35440152 -31759850 -28641748 -26111618 -24054128 -22361292 
1499.443 -20956540 -19789990 -18834576 -18071900 -17486242 -17063892 
1499.805 -16791138 -16652385 -16623685 -16671773 -16751321 -16809596 
1500.167 -16802422 -16703308 -16515087 -16268576 -16016943 -15818011 
1500.529 -15712023 -15711831 -15795549 -15917361 -16021637 -16068002 
1500.890 -16044661 -15974309 -15903817 -15890911 -15983123 -16199792 
1501.252 -16526252 -16918406 -17321892 -17688008 -17996314 -18260908 
1501.614 -18527120 -18852026 -19282152 -19828516 -20446872 -21034266 
1501.976 -21452682 -21585432 -21368438 -20806826 -19956638 -18901898 
1502.338 -17735756 -16548738 -15438323 -14491320 -13776924 -13334177 
1502.699 -13156867 -13193029 -13353326 -13541508 -13674611 -13711115 
1503.061 -13665365 -13602525 -13616301 -13789764 -14171119 -14744255 
1503.423 -15430776 -16099421 -16613066 -16864100 -16806854 -16475119 
1503.785 -15974851 -15458245 -15069537 -14920437 -15050431 -15422079 
1504.147 -15931223 -16445067 -16847814 -17067524 -17105050 -17025820 
1504.509 -16940076 -16953714 -17137636 -17502856 -18003020 -18552200 
1504.870 -19061910 -19478616 -19796796 -20063494 -20355192 -20762228 
1505.232 -21363486 -22226796 -23422432 -25072552 -27420756 -30923202 
1505.594 -36248460 -43618488 -50854860 -53569224 -50971028 -46248104 
1505.956 -41693136 -37983308 -35133536 -33038124 -31640742 -30912958 
1506.318 -30868708 -31561840 -33076200 -35531296 -39066996 -43859424 
1506.679 -50051344 -57724756 -66908272 -77475864 -89085928 -100803360 
1507.041 -110169656 -112402488 -103332904 -86326480 -69905992 -58394140 
1507.403 -51254444 -46759452 -43610340 -41088316 -38872532 -36862488 
1507.765 -35065628 -33513728 -32233256 -31208474 -30388650 -29713570 
1508.127 -29147904 -28709084 -28479206 -28584172 -29181644 -30412656 
1508.489 -32330554 -34730644 -36990276 -38200080 -37684016 -35608928 
1508.850 -32748584 -29872926 -27402618 -25479972 -24107764 -23222246 
1509.212 -22752838 -22639094 -22843762 -23358288 -24203416 -25420944 
1509.574 -27038318 -29016640 -31178654 -33100362 -34182044 -33912940 
1509.936 -32239008 -29641776 -26814030 -24305536 -22370638 -21069558 
1510.298 -20340586 -20065992 -20103070 -20302578 -20531770 -20677092 
1510.659 -20670774 -20489512 -20138976 -19638668 -19013514 -18299728 
1511.021 -17550496 -16846506 -16286161 -15953837 -15900176 -16111810 
1511.383 -16514290 -16984784 -17398298 -17670352 -17778342 -17770264 
1511.745 -17744056 -17821342 -18108100 -18692570 -19648170 -21055796 
1512.107 -23015652 -25634582 -28962680 -32758478 -36225112 -38083848 
1512.469 -37400236 -34541512 -30737930 -27055720 -23964932 -21559864 
1512.830 -19775774 -18500608 -17639270 -17119384 -16891732 -16919872 
1513.192 -17167670 -17587980 -18107814 -18634390 -19067268 -19313306 
1513.554 -19319296 -19083186 -18655690 -18119732 -17577638 -17131486 
1513.916 -16863304 -16834458 -17071952 -17562874 -18250900 -19043548 
1514.278 -19827156 -20478576 -20906114 -21074388 -21024512 -20862096 
1514.639 -20736420 -20805754 -21199176 -22008042 -23253466 -24858826 
1515.001 -26581090 -28026662 -28789186 -28646400 -27690802 -26220276 
1515.363 -24564906 -22958678 -21540440 -20374796 -19465216 -18780096 
1515.725 -18262210 -17853332 -17515840 -17257986 -17134928 -17238308 
1516.087 -17661094 -18467870 -19666000 -21196778 -22940260 -24746384 
1516.448 -26504038 -28167388 -29750018 -31257778 -32601130 -33543020 
1516.810 -33790252 -33196208 -31947922 -30470050 -29207294 -28432968 
1517.172 -28269046 -28750364 -29876452 -31617790 -33864152 -36355160 
1517.534 -38550416 -39780072 -39675424 -38408344 -36428868 -34115184 
1517.896 -31687994 -29273028 -26964148 -24849440 -22989758 -21423320 
1518.258 -20161844 -19187658 -18470696 -17971134 -17643786 -17433758 
1518.619 -17279832 -17121932 -16909642 -16623175 -16281247 -15943615 
1518.981 -15689718 -15596804 -15714036 -16042490 -16534450 -17105336 
1519.343 -17665294 -18133174 -18460090 -18634042 -18676098 -18632168 
1519.705 -18562584 -18541884 -18647342 -18961722 -19574850 -20581826 
1520.067 -22067094 -24042968 -26344032 -28464342 -29690702 -29656846 
1520.428 -28680488 -27377142 -26175606 -25268478 -24697524 -24468330 
1520.790 -24602918 -25146012 -26167776 -27753158 -30022702 -33132662 
1521.152 -37302392 -42832260 -49759900 -56768048 -60055920 -56996016 
1521.514 -50609756 -44582024 -39876084 -36190208 -33134810 -30485248 
1521.876 -28143476 -26092306 -24345198 -22907068 -21789966 -21006076 
1522.238 -20576708 -20550826 -21002826 -22035978 -23773968 -26349270 
1522.599 -29835590 -34033208 -38195528 -40879648 -40842280 -38363332 
1522.961 -34914160 -31699270 -29129316 -27167846 -25623430 -24310392 
1523.323 -23094550 -21901316 -20709664 -19545204 -18460566 -17526056 
1523.685 -16813580 -16373439 -16224019 -16339965 -16659370 -17094856 
1524.047 -17562270 -18004894 -18398988 -18756740 -19110392 -19494774 
1524.408 -19927078 -20399360 -20880064 -21329638 -21710674 -21999160 
1524.770 -22189836 -22293530 -22333754 -22338916 -22342786 -22380678 
1525.132 -22492224 -22728154 -23149432 -23851536 -24944804 -26559398 
1525.494 -28751200 -31275508 -33411298 -34307504 -33814104 -32468352 
1525.856 -30816394 -29112612 -27416992 -25736394 -24091308 -22541364 
1526.218 -21190120 -20136538 -19450102 -19135758 -19124692 -19288300 
1526.579 -19474466 -19558160 -19458340 -19163944 -18726434 -18248518 
1526.941 -17853048 -17662240 -17795550 -18355760 -19424756 -21024134 
1527.303 -23059642 -25212360 -26933444 -27690428 -27280938 -25956618 
1527.665 -24162676 -22286196 -20540366 -19005746 -17712756 -16677257 
1528.027 -15932469 -15537024 -15553297 -16036870 -17022220 -18523532 
1528.388 -20525796 -22966974 -25712098 -28460120 -30741140 -32043618 
1528.750 -32052238 -30859542 -28871228 -26566254 -24288618 -22238286 
1529.112 -20510436 -19126372 -18075238 -17319854 -16807012 -16476905 
1529.474 -16277544 -16176393 -16157335 -16215306 -16342169 -16515311 
1529.836 -16697409 -16842682 -16910310 -16881214 -16762288 -16586246 
1530.198 -16396157 -16234521 -16126016 -16070398 -16043544 -16008321 
1530.559 -15929976 -15788456 -15590763 -15373150 -15198175 -15134277 
1530.921 -15244020 -15565157 -16099742 -16813994 -17648720 -18544042 
1531.283 -19453238 -20360220 -21276134 -22218452 -23182072 -24106352 
1531.645 -24848248 -25215862 -25044372 -24307948 -23156188 -21848640 
1532.007 -20631216 -19646936 -18945006 -18496606 -18236096 -18088840 
1532.368 -17998856 -17939724 -17913018 -17935750 -18025112 -18188976 
1532.730 -18426778 -18743062 -19165308 -19755830 -20620884 -21902294 
1533.092 -23749750 -26239272 -29228794 -32225628 -34462676 -35424700 
1533.454 -35237944 -34496280 -33770448 -33451490 -33770544 -34874408 
1533.816 -36873568 -39753284 -43168048 -46035996 -46838200 -44946580 
1534.177 -41272664 -37170316 -33412740 -30217582 -27540778 -25299644 
1534.539 -23439070 -21925008 -20743874 -19874192 -19271248 -18865034 
1534.901 -18569122 -18305542 -18015226 -17677160 -17306990 -16949634 
1535.263 -16659370 -16485102 -16455434 -16569374 -16793210 -17067108 
1535.625 -17324694 -17506642 -17580376 -17545498 -17426310 -17260566 
1535.987 -17087626 -16945110 -16861136 -16853136 -16924588 -17061852 
1536.348 -17233340 -17393236 -17495950 -17504894 -17408994 -17228722 
1536.710 -17015114 -16835700 -16751034 -16799426 -16981214 -17261616 
1537.072 -17582252 -17887166 -18139624 -18333782 -18492226 -18654040 
1537.434 -18854722 -19109282 -19405934 -19708684 -19973884 -20163078 
1537.796 -20263906 -20296604 -20318358 -20410614 -20671658 -21207632 
1538.157 -22111560 -23448676 -25220990 -27347306 -29634842 -31825290 
1538.519 -33694392 -35130664 -36183776 -37026212 -37922376 -39185148 
1538.881 -41217912 -44612104 -50333528 -59794212 -73742536 -88043440 
1539.243 -92727352 -86291520 -76452888 -67730352 -60751860 -55087840 
1539.605 -50331644 -46246256 -42736628 -39816956 -37516708 -35882112 
1539.967 -34958000 -34779368 -35401368 -36930024 -39595424 -43684504 
1540.328 -49180448 -54706580 -56922000 -54147968 -48825772 -43651872 
1540.690 -39484708 -36243124 -33665168 -31528532 -29697600 -28107018 
1541.052 -26736086 -25608218 -24766884 -24253836 -24101902 -24313712 
1541.414 -24860516 -25684990 -26725150 -27935482 -29302452 -30869200 
1541.776 -32739274 -35089256 -38206668 -42531304 -48706716 -57487564 
1542.137 -68636872 -78001952 -78060560 -69022944 -58416096 -50087068 
1542.499 -44114980 -39712980 -36253488 -33355520 -30803124 -28492084 
1542.861 -26386254 -24486932 -22839768 -21516192 -20598480 -20186610 
1543.223 -20373340 -21233886 -22796352 -24997140 -27598896 -30102532 
1543.585 -31849246 -32248300 -31149110 -28927496 -26234250 -23648066 
1543.947 -21500050 -19934928 -18949128 -18458692 -18334098 -18429382 
1544.308 -18604838 -18748364 -18809986 -18809542 -18833242 -18996422 
1544.670 -19412494 -20151216 -21228964 -22619626 -24288366 -26229634 
1545.032 -28463318 -31029060 -33889652 -36703636 -38676800 -38970924 
1545.394 -37587732 -35331120 -32974526 -30865528 -29053488 -27485668 
1545.756 -26080760 -24760374 -23460448 -22142954 -20804774 -19485142 
1546.117 -18253124 -17192482 -16380491 -15855772 -15609015 -15580086 
1546.479 -15682878 -15825870 -15945500 -16020903 -16065801 -16109703 
1546.841 -16173169 -16253352 -16323468 -16347464 -16298736 -16176648 
1547.203 -16008385 -15839288 -15709370 -15640019 -15623238 -15628736 
1547.565 -15617901 -15564198 -15466142 -15351273 -15266158 -15258448 
1547.927 -15361125 -15574235 -15861843 -16154654 -16374364 -16447555 
1548.288 -16333392 -16040223 -15629983 -15205469 -14877343 -14745856 
1548.650 -14861654 -15214012 -15729407 -16298480 -16805260 -17158052 
1549.012 -17320172 -17312214 -17206780 -17099634 -17096830 -17289510 
1549.374 -17740526 -18486730 -19532216 -20841788 -22308638 -23753484 
1549.736 -24950812 -25717094 -26025058 -26027058 -25975000 -26085722 
1550.097 -26491352 -27192620 -28049338 -28753960 -28921638 -28303844 
1550.459 -26965020 -25247314 -23508818 -21950116 -20593204 -19373962 
1550.821 -18220970 -17107886 -16076943 -15229912 -14677888 -14505420 
1551.183 -14720649 -15249618 -15949236 -16657010 -17238658 -17610094 
1551.545 -17756270 -17711962 -17536080 -17281964 -16988860 -16682390 
1551.906 -16380746 -16103860 -15870340 -15688950 -15550516 -15427867 
1552.268 -15287430 -15103973 -14878463 -14640055 -14436869 -14311148 
1552.630 -14282357 -14337501 -14441645 -14555792 -14661838 -14774584 
1552.992 -14938621 -15205629 -15606009 -16132019 -16734743 -17343096 
1553.354 -17888502 -18337624 -18702758 -19037206 -19408376 -19876788 
1553.716 -20473930 -21198512 -22024704 -22922972 -23882554 -24922560 
1554.077 -26106158 -27549672 -29438678 -32048788 -35723876 -40613972 
1554.439 -45951712 -49391468 -48884900 -45316020 -40861524 -36732988 
1554.801 -33193226 -30175516 -27556514 -25241374 -23185338 -21366704 
1555.163 -19781506 -18440432 -17354940 -16538117 -15997496 -15724549 
1555.525 -15686553 -15822068 -16052740 -16291268 -16469536 -16559487 
1555.886 -16578527 -16582770 -16642915 -16820942 -17137986 -17567742 
1556.248 -18040052 -18472380 -18791106 -18957820 -18975900 -18883116 
1556.610 -18734684 -18582458 -18470506 -18428874 -18480826 -18656482 
1556.972 -18996326 -19553946 -20391014 -21568282 -23141768 -25164240 
1557.334 -27716446 -30918574 -34966288 -40144088 -46615072 -53793548 
1557.696 -59501380 -61124224 -58833644 -55101408 -51782908 -49433608 
1558.057 -48103232 -47782812 -48542744 -50617368 -54419240 -60644708 
1558.419 -70295984 -84655840 -104486160 -125604200 -132811784 -114782672 
1558.781 -87331936 -66514112 -53953592 -46744012 -42475720 -39778048 
1559.143 -37952040 -36676780 -35845104 -35457100 -35558956 -36229744 
1559.505 -37567552 -39702060 -42767980 -46875648 -51958420 -57516732 
1559.866 -62569736 -66064672 -67736224 -68305352 -69172896 -71843344 
1560.228 -77599424 -86528456 -94866488 -95195744 -85292528 -71521912 
1560.590 -59157780 -49531972 -42299552 -36887932 -32851170 -29855448 
1560.952 -27678210 -26144128 -25099792 -24408882 -23946494 -23605924 
1561.314 -23294040 -22942616 -22508458 -21971944 -21337904 -20630078 
1561.676 -19886124 -19145936 -18449610 -17832408 -17320554 -16937144 
1562.037 -16699608 -16616510 -16683379 -16875032 -17143782 -17418894 
1562.399 -17624602 -17695388 -17592308 -17316320 -16906552 -16429275 
1562.761 -15952941 -15536321 -15212252 -14985647 -14842729 -14763375 
1563.123 -14734549 -14753863 -14828960 -14968937 -15175810 -15439251 
1563.485 -15736086 -16036615 -16316542 -16563728 -16786292 -17009984 
1563.846 -17274990 -17622376 -18079116 -18647594 -19297650 -19968568 
1564.208 -20574276 -21031236 -21277520 -21298028 -21135524 -20892694 
1564.570 -20716708 -20762512 -21186902 -22112662 -23596604 -25548238 
1564.932 -27650572 -29357952 -30067720 -29524280 -27964532 -25900776 
1565.294 -23782156 -21888780 -20350736 -19198246 -18425982 -18002384 
1565.656 -17875528 -17973550 -18212678 -18512674 -18804052 -19046022 
1566.017 -19227916 -19366580 -19494964 -19647346 -19844788 -20083614 
1566.379 -20334390 -20548456 -20675038 -20668500 -20502028 -20169026 
1566.741 -19676386 -19036984 -18263862 -17374486 -16398039 -15388628 
1567.103 -14434977 -13641957 -13119415 -12947068 -13143076 -13650563 
1567.465 -14338526 -15039452 -15573980 -15812516 -15707549 -15300225 
1567.826 -14702712 -14063830 -13536787 -13232016 -13210675 -13480225 
1568.188 -14007402 -14731860 -15581524 -16488325 -17386678 -18230980 
1568.550 -19006920 -19739206 -20491472 -21352320 -22412240 -23722144 
1568.912 -25245970 -26808674 -28120216 -28857278 -28861276 -28248988 
1569.274 -27360280 -26559054 -26083132 -26041256 -26432336 -27211948 
1569.635 -28332902 -29805862 -31716548 -34172368 -37056576 -39631752 
1569.997 -40783044 -40150312 -38313432 -35990760 -33609820 -31372894 
1570.359 -29364238 -27609624 -26110308 -24830444 -23715430 -22709444 
1570.721 -21777992 -20924082 -20182846 -19601868 -19210578 -18989982 
1571.083 -18868522 -18732908 -18471108 -18016626 -17371110 -16609685 
1571.445 -15853761 -15238422 -14857107 -14742909 -14860149 -15128773 
1571.806 -15448108 -15729567 -15919404 -15992800 -15948854 -15796062 
1572.168 -15544857 -15208380 -14811508 -14405618 -14066429 -13888776 
1572.530 -13966783 -14356382 -15055903 -15990118 -17029454 -18004100 
1572.892 -18753662 -19174882 -19240026 -19010184 -18606774 -18180236 
1573.254 -17848562 -17667202 -17616806 -17621994 -17583112 -17420198 
1573.615 -17108044 -16684081 -16237298 -15869988 -15672715 -15688214 
1573.977 -15904041 -16261045 -16681371 -17095142 -17456738 -17754458 
1574.339 -18000444 -18214046 -18405308 -18566584 -18675876 -18710184 
1574.701 -18661148 -18546296 -18410804 -18319646 -18335814 -18499084 
1575.063 -18812016 -19236952 -19705486 -20137584 -20476426 -20706410 
1575.425 -20872928 -21072588 -21446942 -22149660 -23314954 -25044746 
1575.786 -27400038 -30421706 -34131020 -38593980 -43959956 -50484852 
1576.148 -58532052 -68147712 -77425792 -80366160 -72890576 -61391660 
1576.510 -52340100 -46437272 -42479804 -39492088 -36907136 -34444648 
1576.872 -31983816 -29503786 -27044542 -24696646 -22585876 -20825872 
1577.234 -19512926 -18687460 -18319106 -18309704 -18510642 -18761310 
1577.595 -18907100 -18848568 -18559916 -18091860 -17546612 -17043184 
1577.957 -16682837 -16518947 -16561050 -16781670 -17135056 -17567680 
1578.319 -18028480 -18474856 -18864620 -19157256 -19313148 -19293562 
1578.681 -19072216 -18642676 -18026892 -17274004 -16459487 -15675176 
1579.043 -15006805 -14527723 -14279760 -14264531 -14442286 -14739194 
1579.405 -15067969 -15338512 -15489483 -15501409 -15403019 -15260495 
1579.766 -15159875 -15179873 -15361348 -15697801 -16133998 -16589563 
1580.128 -16976466 -17230602 -17326444 -17274196 -17107726 -16864100 
1580.490 -16570618 -16237393 -15864430 -15457541 -15038717 -14653509 
1580.852 -14363467 -14223936 -14269180 -14492954 -14849230 -15257104 
1581.214 -15626274 -15881553 -15972361 -15885642 -15639506 -15273836 
1581.575 -14835172 -14371577 -13928344 -13544366 -13257759 -13102538 
1581.937 -13102216 -13265247 -13575679 -13992707 -14449112 -14867865 
1582.299 -15175969 -15317881 -15273547 -15061856 -14740059 -14383148 
1582.661 -14071594 -13865061 -13784404 -13808541 -13880048 -13929980 
1583.023 -13894521 -13743636 -13489893 -13189107 -12918894 -12758243 
1583.385 -12764034 -12949801 -13282729 -13691660 -14092540 -14402061 
1583.746 -14560599 -14542495 -14353690 -14026939 -13609686 -13158924 
1584.108 -12726453 -12355614 -12079113 -11915990 -11873693 -11950902 
1584.470 -12140659 -12431900 -12810685 -13259976 -13754358 -14259464 
1584.832 -14733654 -15128965 -15404235 -15534627 -15519729 -15384663 
1585.194 -15175714 -14949986 -14755912 -14629003 -14584245 -14620577 
1585.555 -14728337 -14897353 -15120421 -15388852 -15685849 -15978780 
1585.917 -16213709 -16327744 -16262928 -15987659 -15516084 -14917876 
1586.279 -14310506 -13824878 -13582744 -13651815 -14022480 -14602668 
1586.641 -15240150 -15768295 -16036518 -15966643 -15567491 -14934972 
1587.003 -14213706 -13564086 -13118740 -12944302 -13040582 -13344876 
1587.365 -13764149 -14193215 -14547301 -14775321 -14857330 -14801068 
1587.726 -14631693 -14385745 -14103574 -13827992 -13602622 -13461658 
1588.088 -13427414 -13501232 -13664081 -13876839 -14091353 -14264915 
1588.450 -14366352 -14386899 -14338301 -14249331 -14154282 -14084072 
1588.812 -14057511 -14074417 -14115762 -14147387 -14134654 -14052699 
1589.174 -13904629 -13728741 -13603649 -13629756 -13902544 -14489301 
1589.535 -15396528 -16560093 -17843252 -19074942 -20078204 -20716582 
1589.897 -20936460 -20770914 -20326800 -19736484 -19133254 -18611156 
1590.259 -18215760 -17955238 -17811896 -17759004 -17767976 -17812724 
1590.621 -17865162 -17890888 -17854924 -17724686 -17482520 -17134418 
1590.983 -16715901 -16287852 -15921641 -15690899 -15648808 -15816636 
1591.344 -16178150 -16682966 -17252956 -17792020 -18211280 -18438560 
1591.706 -18437162 -18216936 -17835302 -17385022 -16964262 -16662207 
1592.068 -16529761 -16572244 -16754415 -17016548 -17293650 -17531974 
1592.430 -17706426 -17821436 -17905292 -17993134 -18112518 -18266468 
1592.792 -18429126 -18546392 -18553758 -18399560 -18063002 -17571434 
1593.154 -16999024 -16459327 -16067907 -15919181 -16057115 -16459869 
1593.515 -17040700 -17666026 -18200064 -18523436 -18571346 -18344422 
1593.877 -17906944 -17368470 -16856258 -16498884 -16388787 -16571511 
1594.239 -17035760 -17717432 -18500226 -19226998 -19735756 -19875774 
1594.601 -19564242 -18821978 -17787280 -16671581 -15681472 -14967849 
1594.963 -14579439 -14476642 -14561656 -14725453 -14876991 -14970249 
1595.324 -15014071 -15060928 -15181313 -15429178 -15822323 -16328894 
1595.686 -16879686 -17380758 -17749812 -17937434 -17939278 -17792718 
1596.048 -17564242 -17329724 -17149834 -17062680 -17076126 -17172894 
1596.410 -17318166 -17474404 -17614230 -17721886 -17794436 -17834698 
1596.772 -17844748 -17821468 -17756396 -17636534 -17449992 -17188022 
1597.134 -16849854 -16443759 -15989063 -15515253 -15057632 -14657225 
1597.495 -14350676 -14162749 -14100462 -14147932 -14269789 -14416837 
1597.857 -14545090 -14625799 -14657130 -14664337 -14693519 -14794952 
1598.219 -15002452 -15322680 -15727393 -16160974 -16549919 -16826966 
1598.581 -16948776 -16905914 -16726103 -16466346 -16199186 -15986955 
1598.943 -15872417 -15866699 -15950834 -16084574 -16222998 -16333936 
1599.304 -16404325 -16441939 -16464941 -16489185 -16515950 -16528804 
1599.666 -16500605 -16410323 -16256608 -16067205 -15890306 -15782163 
1600.028 -15781524 -15890561 -16069343 -16247576 -16350497 -16321361 
1600.390 -16146960 -15859542 -15527274 -15223002 -15004148 -14893703 
1600.752 -14876862 -14911025 -14945024 -14940734 -14881121 -14776633 
1601.114 -14658187 -14571781 -14563899 -14671737 -14914226 -15283048 
1601.475 -15739888 -16218754 -16643617 -16936698 -17035760 -16907952 
1601.837 -16550684 -15994843 -15295427 -14531985 -13792332 -13163360 
1602.199 -12730379 -12558456 -12686552 -13114240 -13795157 -14634641 
1602.561 -15503008 -16274959 -16847462 -17174230 -17274482 -17225984 
1602.923 -17135662 -17100812 -17186174 -17400812 -17706872 -18036236 
1603.284 -18321424 -18510196 -18575726 -18516546 -18348424 -18096468 
1603.646 -17787184 -17449036 -17108776 -16787536 -16497608 -16236117 
1604.008 -15985711 -15721770 -15427483 -15109029 -14804143 -14571717 
1604.370 -14476578 -14559061 -14813174 -15179009 -15557261 -15845422 
1604.732 -15961181 -15875291 -15614256 -15250003 -14868761 -14546981 
1605.094 -14335769 -14250711 -14281523 -14399111 -14567680 -14742621 
1605.455 -14875742 -14921878 -14845835 -14640408 -14335865 -14005701 
1605.817 -13747392 -13656760 -13801768 -14191932 -14774648 -15443408 
1606.179 -16077869 -16565036 -16834746 -16874904 -16727315 -16472278 
1606.541 -16201293 -16004393 -15944414 -16049450 -16308757 -16677098 
1606.903 -17083482 -17446966 -17703944 -17820802 -17806870 -17707414 
1607.264 -17591194 -17518960 -17513676 -17549286 -17558642 -17467528 
1607.626 -17222258 -16816928 -16291013 -15716465 -15167715 -14708062 
1607.988 -14375520 -14181446 -14122210 -14190232 -14380776 -14688362 
1608.350 -15094819 -15560394 -16014164 -16370632 -16550684 -16503381 
1608.712 -16229127 -15780980 -15255217 -14758058 -14391162 -14227752 
1609.073 -14302139 -14619519 -15163459 -15908353 -16814568 -17826812 
1609.435 -18861068 -19789578 -20466122 -20758218 -20600408 -20024512 
1609.797 -19142320 -18097580 -17012280 -15979771 -15061921 -14296785 
1610.159 -13713684 -13326914 -13131407 -13096140 -13169018 -13288000 
1610.521 -13397761 -13472034 -13519250 -13578216 -13695160 -13901741 
1610.883 -14191580 -14518302 -14805360 -14978188 -14996850 -14871836 
1611.244 -14663536 -14455906 -14324902 -14299382 -14352087 -14408439 
1611.606 -14386354 -14228746 -13937713 -13574459 -13244357 -13051932 
1611.968 -13059069 -13267625 -13618774 -14022641 -14389367 -14671001 
1612.330 -14870554 -15033820 -15216059 -15453512 -15738387 -16021797 
1612.692 -16228519 -16291205 -16180798 -15916562 -15561640 -15196927 
1613.053 -14899530 -14711265 -14632110 -14623941 -14632654 -14607153 
1613.415 -14520641 -14381385 -14231151 -14134237 -14152999 -14335545 
1613.777 -14693519 -15196383 -15770053 -16315395 -16730662 -16934212 
1614.139 -16896162 -16645912 -16269822 -15878486 -15586095 -15472474 
1614.501 -15559691 -15810087 -16136648 -16436549 -16609846 -16595718 
1614.863 -16383395 -16015058 -15571838 -15159427 -14888196 -14840488 
1615.224 -15057663 -15522190 -16161103 -16849056 -17439360 -17808174 
1615.586 -17877182 -17647890 -17198278 -16672825 -16234808 -16035274 
1615.948 -16187631 -16745903 -17714092 -19058738 -20737210 -22700452 
1616.310 -24900848 -27302190 -29859316 -32528554 -35294832 -38194376 
1616.672 -41387052 -45226464 -50219260 -56143320 -60274612 -59445040 
1617.033 -55182072 -50419216 -46241968 -42700592 -39631052 -36886836 
1617.395 -34364296 -32002990 -29770840 -27661794 -25703386 -23933074 
1617.757 -22393896 -21119302 -20115030 -19362522 -18824612 -18460882 
1618.119 -18234316 -18113154 -18065544 -18044438 -17989986 -17840518 
1618.481 -17550686 -17119226 -16600277 -16100315 -15739601 -15621097 
1618.843 -15790630 -16220093 -16817278 -17458902 -18040306 -18491528 
1619.204 -18794628 -18965750 -19030544 -19001210 -18869792 -18618868 
1619.566 -18243148 -17766672 -17249166 -16764967 -16386585 -16156185 
1619.928 -16075570 -16113948 -16228519 -16387574 -16579866 -16813548 
1620.290 -17100462 -17438788 -17804582 -18154244 -18438114 -18621916 
1620.652 -18693808 -18667020 -18567600 -18421570 -18243848 -18037478 
1621.013 -17803850 -17555650 -17323484 -17155982 -17100558 -17186780 
1621.375 -17410106 -17729042 -18069262 -18338452 -18455008 -18359732 
1621.737 -18035538 -17510652 -16856068 -16169274 -15551826 -15103268 
1622.099 -14895560 -14967432 -15322936 -15939016 -16780556 -17814472 
1622.461 -19021824 -20386018 -21870506 -23397754 -24820868 -25947942 
1622.823 -26607674 -26711720 -26304832 -25541866 -24645934 -23827292 
1623.184 -23257736 -23060334 -23309396 -24066762 -25413288 -27497146 
1623.546 -30521662 -34629384 -39541944 -43951904 -45873696 -44480708 
1623.908 -40864628 -36577196 -32526768 -29043508 -26167776 -23879920 
1624.270 -22156052 -20958942 -20241610 -19922618 -19889004 -19998758 
1624.632 -20110378 -20112972 -19935182 -19565888 -19045038 -18452690 
1624.993 -17876546 -17392886 -17048600 -16852274 -16783456 -16805484 
1625.355 -16884816 -16998770 -17139896 -17308520 -17502316 -17705440 
1625.717 -17887230 -18002478 -18007978 -17872604 -17588586 -17175474 
1626.079 -16678724 -16161837 -15690995 -15333138 -15141925 -15148484 
1626.441 -15358821 -15747493 -16262097 -16825532 -17354876 -17773922 
1626.802 -18025398 -18087156 -17972946 -17731428 -17427264 -17133464 
1627.164 -16912574 -16803762 -16825374 -16975764 -17245154 -17627498 
1627.526 -18135016 -18805036 -19702794 -20911800 -22507168 -24485650 
1627.888 -26675484 -28605950 -29590492 -29160916 -27453850 -25095226 
1628.250 -22703690 -20656302 -19073770 -17937848 -17180188 -16716411 
1628.612 -16471386 -16385691 -16418746 -16539330 -16712872 -16895364 
1628.973 -17024768 -17033786 -16871048 -16516587 -15996536 -15375612 
1629.335 -14745568 -14192991 -13780937 -13542343 -13478072 -13569159 
1629.697 -13788416 -14110887 -14511957 -14966184 -15444303 -15909471 
1630.059 -16323660 -16655957 -16885454 -17005334 -17019768 -16938866 
1630.421 -16774880 -16542710 -16263917 -15965972 -15682973 -15446445 
1630.782 -15273036 -15157220 -15070369 -14971946 -14823709 -14611126 
1631.144 -14351381 -14095202 -13906555 -13845451 -13949681 -14222878 
1631.506 -14638453 -15148708 -15703842 -16255299 -16762225 -17191048 
1631.868 -17506038 -17673278 -17665484 -17469532 -17096354 -16581621 
1632.230 -15983826 -15365154 -14783680 -14282613 -13885568 -13604323 
1632.592 -13445146 -13414467 -13519604 -13762929 -14134333 -14602475 
1632.953 -15115877 -15610197 -16016815 -16285811 -16395871 -16361697 
1633.315 -16227530 -16055966 -15908066 -15820662 -15800215 -15820472 
1633.677 -15838649 -15811875 -15722217 -15586191 -15455303 -15394129 
1634.039 -15458788 -15673131 -16017104 -16432753 -16845806 -17200760 
1634.401 -17477776 -17707032 -17954000 -18307480 -18853136 -19664764 
1634.762 -20814280 -22392258 -24534156 -27423896 -31263546 -36102556 
1635.124 -41530440 -46531884 -49919308 -51267844 -51089432 -50314792 
1635.486 -49703076 -49735196 -50759716 -53015632 -56455740 -59948828 
1635.848 -60928536 -57843536 -52625740 -47673124 -43661280 -40355920 
1636.210 -37425524 -34655452 -31968762 -29379256 -26967760 -24824342 
1636.572 -23015022 -21574494 -20484994 -19697158 -19152624 -18809986 
1636.933 -18652738 -18684636 -18911858 -19326966 -19902394 -20602336 
1637.295 -21389824 -22243794 -23157758 -24114282 -25051410 -25818702 
1637.657 -26166404 -25868216 -24909764 -23564686 -22201452 -21089412 
1638.019 -20323922 -19875330 -19662674 -19591386 -19579444 -19561770 
1638.381 -19498036 -19367150 -19157286 -18860496 -18470888 -17990112 
1638.742 -17434776 -16840066 -16253544 -15717359 -15258192 -14875998 
1639.104 -14548680 -14245933 -13948495 -13661512 -13417262 -13262740 
1639.466 -13243169 -13387544 -13699205 -14159317 -14734293 -15387701 
1639.828 -16081477 -16778260 -17444166 -18045614 -18560108 -18981388 
1640.190 -19322910 -19609786 -19862892 -20076780 -20207706 -20175478 
1640.552 -19890682 -19302466 -18425412 -17352106 -16220348 -15189312 
1640.913 -14390745 -13900939 -13742288 -13883706 -14262125 -14795817 
1641.275 -15406186 -16018188 -16559647 -16971050 -17208022 -17259166 
1641.637 -17155218 -16970732 -16802230 -16732926 -16809786 -17022730 
1641.999 -17315684 -17609456 -17843412 -17996344 -18091130 -18173404 
1642.361 -18281526 -18415534 -18528834 -18538328 -18363162 -17966938 
1642.722 -17374836 -16668137 -15949843 -15322519 -14858196 -14599368 
1643.084 -14566815 -14764079 -15179105 -15776476 -16495470 -17243084 
1643.446 -17910122 -18404896 -18674034 -18730656 -18647944 -18540996 
1643.808 -18515910 -18630518 -18873694 -19170284 -19408344 -19479662 
1644.170 -19325824 -18951510 -18423918 -17841598 -17314536 -16931410 
1644.531 -16741375 -16753968 -16939376 -17240314 -17579772 -17886180 
1644.893 -18107496 -18229360 -18284608 -18352108 -18539280 -18943230 
1645.255 -19630530 -20610140 -21837770 -23226076 -24680808 -26136390 
1645.617 -27570570 -29023086 -30592664 -32437206 -34787168 -37974900 
1645.979 -42443932 -48607896 -56027368 -61905008 -62276380 -57245420 
1646.341 -50440104 -44208964 -39069660 -34855240 -31329122 -28335912 
1646.702 -25778268 -23610850 -21826204 -20428602 -19447440 -18925942 
1647.064 -18907068 -19436162 -20552470 -22297998 -24701310 -27759282 
1647.426 -31363924 -35105880 -38176504 -39542188 -38660248 -36021504 
1647.788 -32725264 -29692156 -27350168 -25843210 -25182596 -25342374 
1648.150 -26301932 -28018214 -30394026 -33154090 -35787100 -37539776 
1648.511 -37687844 -36085172 -33325262 -30281248 -27532382 -25285420 
1648.873 -23503044 -22067724 -20879338 -19882706 -19065238 -18440148 
1649.235 -18018310 -17789824 -17718672 -17752612 -17835558 -17919248 
1649.597 -17972120 -17975046 -17918072 -17796886 -17612990 -17376778 
1649.959 -17109222 -16843128 -16614055 -16449086 -16358569 -16330201 
1650.321 -16333902 -16331350 -16292512 -16203592 -16073303 -15927836 
1650.682 -15803793 -15735095 -15740080 -15817020 -15941763 -16074326 
1651.044 -16164774 -16170520 -16067365 -15860405 -15585744 -15308094 
1651.406 -15110373 -15069922 -15249714 -15682079 -16366802 -17275946 
1651.768 -18366528 -19601362 -20954014 -22424828 -24046794 -25888726 
1652.130 -28071546 -30792134 -34367876 -39335104 -46591740 -57576896 
1652.491 -74241112 -97216856 -120071256 -128143472 -118457592 -103317480 
1652.853 -91028920 -83233432 -79144072 -77915976 -79106968 -82764720 
1653.215 -89520160 -100737232 -118603312 -143566864 -164823824 -158794768 
1653.577 -127549408 -96380872 -74437336 -59956416 -50170824 -43308032 
1653.939 -38397728 -34877808 -32432654 -30868614 -30042460 -29861760 
1654.301 -30272532 -31277512 -32938224 -35376536 -38719264 -42800404 
1654.662 -46697148 -48628224 -47305652 -43463616 -38803692 -34446640 
1655.024 -30737590 -27685890 -25215770 -23243226 -21710296 -20552722 
1655.386 -19686518 -19008662 -18412296 -17814282 -17171080 -16491419 
1655.748 -15825007 -15244500 -14812917 -14571877 -14532081 -14680034 
1656.110 -14987599 -15421280 -15945947 -16517449 -17081668 -17579706 
1656.471 -17953298 -18167398 -18222496 -18161234 -18054260 -17982166 
1656.833 -18007724 -18151288 -18385014 -18637692 -18822582 -18855294 
1657.195 -18687650 -18322506 -17814568 -17251746 -16727315 -16320437 
1657.557 -16070111 -15972808 -15984464 -16039360 -16064394 -16002700 
1657.919 -15832292 -15570495 -15271052 -15004116 -14841929 -14830017 
1658.281 -14972138 -15226264 -15518961 -15766986 -15902571 -15901772 
1658.642 -15792260 -15649959 -15568961 -15638709 -15906021 -16356463 
1659.004 -16909706 -17439934 -17816222 -17930854 -17744406 -17294988 
1659.366 -16691478 -16070494 -15563111 -15256145 -15166082 -15246548 
1659.728 -15409191 -15567650 -15659835 -15671467 -15627330 -15571807 
1660.090 -15538240 -15530024 -15517363 -15454535 -15303392 -15057376 
1660.451 -14750468 -14451996 -14243720 -14184557 -14295278 -14545891 
1660.813 -14870362 -15181729 -15404970 -15497413 -15456838 -15320697 
1661.175 -15152388 -15027610 -15009814 -15141636 -15433015 -15858041 
1661.537 -16356975 -16853136 -17281296 -17602744 -17818860 -17960230 
1661.899 -18071804 -18189580 -18330796 -18491970 -18657816 -18815856 
1662.260 -18971682 -19153734 -19412398 -19805692 -20385986 -21195136 
1662.622 -22269638 -23658924 -25433382 -27688220 -30482096 -33614820 
1662.984 -36350924 -37534276 -36612584 -34256492 -31519812 -29021134 
1663.346 -26919336 -25178532 -23699272 -22377468 -21129906 -19902362 
1663.708 -18678034 -17484810 -16382756 -15448939 -14756617 -14342822 
1664.070 -14199052 -14266678 -14459881 -14681155 -14850543 -14923639 
1664.431 -14888100 -14760012 -14570916 -14361191 -14172018 -14045033 
1664.793 -14024373 -14147066 -14436484 -14889157 -15468445 -16101625 
1665.155 -16693741 -17156078 -17419116 -17456866 -17290116 -16982902 
1665.517 -16620561 -16287373 -16051238 -15943998 -15961405 -16068099 
1665.879 -16212752 -16339488 -16402155 -16376024 -16256863 -16057562 
1666.240 -15797947 -15498468 -15173186 -14832322 -14490198 -14171536 
1666.602 -13915091 -13772205 -13787678 -13985746 -14350996 -14827839 
1666.964 -15324887 -15743468 -16014069 -16112097 -16069440 -15954826 
1667.326 -15850725 -15811047 -15840342 -15887143 -15868424 -15700135 
1667.688 -15335537 -14792037 -14158644 -13580271 -13210706 -13191743 
1668.050 -13613090 -14504523 -15836446 -17527648 -19446110 -21383264 
1668.411 -23085564 -24292628 -24835826 -24728826 -24173582 -23468106 
1668.773 -22867684 -22545360 -22565554 -22909772 -23506372 -24262266 
1669.135 -25097446 -25963234 -26891462 -28036758 -29735598 -32475978 
1669.497 -36545364 -41036592 -43684056 -43190908 -40507436 -37049396 
1669.859 -33586880 -30386642 -27507628 -24972898 -22795002 -20989944 
1670.220 -19577512 -18546868 -17858644 -17442830 -17217734 -17105464 
1670.582 -17052454 -17039648 -17073640 -17172736 -17347330 -17590526 
1670.944 -17878136 -18184178 -18499908 -18852120 -19311340 -19990150 
1671.306 -21023660 -22560458 -24730702 -27609190 -31075516 -34631744 
1671.668 -37341768 -38149068 -36736912 -33800860 -30408144 -27278014 
1672.030 -24696116 -22701646 -21224640 -20183796 -19501140 -19098470 
1672.391 -18885052 -18754772 -18602266 -18330128 -17880108 -17247288 
1672.753 -16481338 -15668431 -14901675 -14258662 -13777534 -13462750 
1673.115 -13297094 -13260780 -13342723 -13543467 -13867756 -14311628 
1673.477 -14850702 -15440051 -16014516 -16507082 -16865088 -17059368 
1673.839 -17092498 -16994406 -16814822 -16607996 -16429562 -16329436 
1674.200 -16342456 -16487496 -16759004 -17128654 -17547250 -17961152 
1674.562 -18329080 -18636040 -18904814 -19192760 -19581914 -20156056 
1674.924 -20991650 -22153440 -23712356 -25761688 -28453666 -32055374 
1675.286 -36958660 -43605424 -52041076 -60805500 -66296628 -65458716 
1675.648 -59420708 -51676608 -44604628 -38956416 -34648568 -31367592 
1676.010 -28782986 -26618020 -24671260 -22815468 -20997174 -19239170 
1676.371 -17619384 -16243394 -15219418 -14608563 -14409785 -14554286 
1676.733 -14929337 -15396975 -15829608 -16145237 -16313447 -16362047 
1677.095 -16354645 -16370153 -16468897 -16672060 -16957698 -17270566 
1677.457 -17545628 -17730380 -17808366 -17800606 -17756778 -17728246 
1677.819 -17751946 -17832218 -17942298 -18034554 -18063350 -18003210 
1678.180 -17855464 -17645090 -17408420 -17182194 -16992240 -16855430 
1678.542 -16785050 -16795666 -16906266 -17135406 -17490284 -17957656 
1678.904 -18498544 -19054680 -19554294 -19932302 -20142676 -20162446 
1679.266 -19996888 -19677178 -19260978 -18823090 -18456660 -18262560 
1679.628 -18325680 -18704726 -19400644 -20342704 -21359260 -22203846 
1679.990 -22625382 -22464850 -21765796 -20772936 -19851814 -19327662 
1680.351 -19433088 -20267986 -21793464 -23803266 -25909798 -27630362 
1680.713 -28512532 -28392094 -27460072 -26132054 -24796802 -23687068 
1681.075 -22873248 -22297748 -21839784 -21366388 -20787340 -20073458 
1681.437 -19266968 -18452976 -17735818 -17199454 -16885486 -16793496 
1681.799 -16887686 -17117886 -17432292 -17794596 -18181888 -18577314 
1682.160 -18964800 -19321388 -19620016 -19838582 -19966986 -20013216 
1682.522 -20000560 -19963062 -19935688 -19946700 -20019670 -20174212 
1682.884 -20435904 -20846746 -21473054 -22416552 -23817474 -25847020 
1683.246 -28631292 -32054204 -35492552 -37784868 -38079992 -36637068 
1683.608 -34436568 -32289304 -30589082 -29485892 -29014222 -29211662 
1683.969 -30139258 -31868060 -34371612 -37357792 -40217248 -42237116 
1684.331 -43123376 -43114916 -42685544 -42204972 -41872264 -41785148 
1684.693 -41998344 -42596700 -43769352 -45919548 -49707628 -55475996 
1685.055 -61045524 -61479820 -56703208 -50819584 -45816456 -41852764 
1685.417 -38655004 -35960660 -33579060 -31383004 -29298550 -27291550 
1685.779 -25369190 -23573944 -21956258 -20570924 -19452004 -18599600 
1686.140 -17984646 -17556160 -17259420 -17046020 -16886952 -16773893 
1686.502 -16713414 -16718643 -16799778 -16956552 -17175284 -17427900 
1686.864 -17676014 -17880966 -18007978 -18037540 -17969990 -17826812 
1687.226 -17644806 -17466254 -17331156 -17265278 -17275596 -17350896 
1687.588 -17467848 -17596126 -17704930 -17770106 -17773764 -17710276 
1687.949 -17591798 -17457788 -17376236 -17437546 -17748096 -18400196 
1688.311 -19447790 -20865790 -22520382 -24127792 -25278232 -25599908 
1688.673 -24932134 -23455740 -21577992 -19751586 -18292042 -17331794 
1689.035 -16868624 -16794868 -16948552 -17142318 -17222386 -17092658 
1689.397 -16735094 -16200047 -15581492 -14986767 -14505836 -14213515 
1689.759 -14163647 -14393470 -14933531 -15807180 -17028306 -18581282 
1690.120 -20405776 -22357264 -24172016 -25517558 -26085628 -25764716 
1690.482 -24711172 -23267094 -21779630 -20473740 -19461288 -18757596 
1690.844 -18327936 -18115790 -18058774 -18094752 -18162316 -18208896 
1691.206 -18189896 -18073424 -17846178 -17513930 -17101768 -16646104 
1691.568 -16190726 -15774941 -15427834 -15169026 -15010806 -14962407 
1691.929 -15033019 -15228248 -15542939 -15950356 -16400687 -16817660 
1692.291 -17111420 -17204996 -17048760 -16645562 -16051399 -15372446 
1692.653 -14732596 -14240033 -13967297 -13926932 -14074994 -14323587 
1693.015 -14576171 -14749507 -14800492 -14736216 -14606128 -14480808 
1693.377 -14420843 -14460522 -14592351 -14776249 -14954692 -15081379 
1693.739 -15138821 -15145765 -15146564 -15193311 -15323224 -15541788 
1694.100 -15821621 -16114650 -16376119 -16579293 -16727252 -16845806 
1694.462 -16969616 -17120626 -17296928 -17471730 -17608248 -17677192 
1694.824 -17673692 -17623172 -17576206 -17593008 -17722300 -17997552 
1695.186 -18436400 -19056360 -19889892 -21002036 -22496880 -24505848 
1695.548 -27166320 -30556190 -34568160 -38821388 -42624576 -45262528 
1695.909 -46409576 -46667332 -47470624 -49984992 -53101196 -53893512 
1696.271 -51728760 -48031212 -44091576 -40457060 -37261864 -34475008 
1696.633 -32024934 -29837260 -27841984 -25992728 -24266870 -22660764 
1696.995 -21199744 -19928568 -18901262 -18183382 -17833014 -17895530 
1697.357 -18402070 -19363726 -20762670 -22524220 -24501714 -26429998 
1697.719 -27951266 -28740996 -28635016 -27724810 -26280944 -24631438 
1698.080 -23036076 -21651730 -20558284 -19766024 -19244180 -18936410 
1698.442 -18781398 -18725070 -18734146 -18801006 -18938630 -19168350 
1698.804 -19505734 -19949074 -20474150 -21040392 -21597982 -22110646 
1699.166 -22572286 -23021308 -23537570 -24234848 -25241062 -26670654 
1699.528 -28614914 -31128908 -34248748 -37972440 -42291104 -47234928 
1699.889 -52879476 -59392444 -66933208 -75224352 -82545232 -85590680 
1700.251 -82711624 -76231184 -69460664 -63957320 -59948800 -57432640 
1700.613 -56572832 -57908232 -62362096 -70494480 -80475192 -87083880 
1700.975 -86907856 -81611496 -74244208 -66609964 -59352908 -52639856 
1701.337 -46510892 -40987024 -36099264 -31867166 -28321572 -25466068 
1701.698 -23265776 -21661564 -20553734 -19818798 -19326172 -18965084 
1702.060 -18657466 -18366592 -18091670 -17850090 -17658422 -17521440 
1702.422 -17435126 -17397566 -17419562 -17528348 -17754648 -18112262 
1702.784 -18575886 -19075544 -19505068 -19750892 -19742246 -19477348 
1703.146 -19034954 -18537566 -18116808 -17860234 -17788776 -17861888 
1703.508 -18000922 -18125516 -18177630 -18144742 -18052640 -17948562 
1703.869 -17874002 -17852792 -17889106 -17979114 -18128312 -18366434 
1704.231 -18751790 -19375070 -20352916 -21822738 -23912470 -26663674 
1704.593 -29859006 -32805488 -34520672 -34390344 -32675848 -30133106 
1704.955 -27430864 -24934886 -22776702 -21000678 -19607158 -18572806 
1705.317 -17861632 -17416218 -17166652 -17040380 -16984686 -16973916 
1705.678 -17012854 -17125466 -17344498 -17697424 -18201302 -18866398 
1706.040 -19705264 -20744254 -22030340 -23635138 -25649698 -28143602 
1706.402 -31094550 -34227188 -36830772 -37949912 -37042368 -34512928 
1706.764 -31275444 -28072758 -25250096 -22888996 -21001814 -19592526 
1707.126 -18674574 -18269200 -18358144 -18855990 -19586318 -20321456 
1707.488 -20827704 -20941386 -20627076 -19970848 -19139564 -18305446 
1707.849 -17613720 -17142032 -16898234 -16835892 -16879686 -16956008 
1708.211 -17012726 -17036462 -17046464 -17080776 -17173594 -17342714 
1708.573 -17580216 -17858738 -18140484 -18391620 -18592298 -18734526 
1708.935 -18816332 -18831720 -18763342 -18585980 -18277206 -17834348 
1709.297 -17287218 -16703850 -16179236 -15801843 -15633371 -15680833 
1709.658 -15897747 -16197398 -16491929 -16730949 -16921912 -17131392 
1710.020 -17458934 -18002576 -18812430 -19861784 -21020976 -22081204 
1710.382 -22784216 -22930296 -22483668 -21596404 -20524816 -19494648 
1710.744 -18644358 -18001906 -17524814 -17139134 -16777908 -16399635 
1711.106 -15998133 -15596580 -15234519 -14950626 -14768435 -14694224 
1711.468 -14718600 -14823036 -14984238 -15179521 -15387286 -15582771 
1711.829 -15739888 -15830791 -15829513 -15721930 -15512152 -15228569 
1712.191 -14918260 -14644668 -14471225 -14442381 -14576876 -14858579 
1712.553 -15245716 -15679521 -16106509 -16489919 -16811698 -17070708 
1712.915 -17271394 -17414214 -17493754 -17503238 -17448210 -17353952 
1713.277 -17268814 -17247988 -17330614 -17523574 -17793608 -18081944 
1713.638 -18326824 -18500068 -18627312 -18796914 -19134174 -19778940 
1714.000 -20838822 -22342912 -24169634 -25994882 -27344038 -27754618 
1714.362 -27092890 -25635800 -23882116 -22252106 -20986282 -20178006 
1714.724 -19820508 -19871374 -20280698 -21016526 -22073928 -23488950 
1715.086 -25349812 -27774542 -30858676 -34526640 -38191492 -40645776 
1715.448 -40766000 -38653520 -35436948 -32136496 -29196452 -26659374 
1715.809 -24444056 -22464064 -20667552 -19055980 -17663734 -16532535 
1716.171 -15696395 -15159908 -14897513 -14858131 -14982542 -15215067 
1716.533 -15513846 -15861554 -16263247 -16743001 -17331666 -18057152 
1716.895 -18932444 -19953188 -21098314 -22344518 -23683774 -25134380 
1717.257 -26768270 -28737432 -31318452 -34973960 -40357248 -47886748 
1717.618 -56227020 -60877476 -58694496 -52417960 -45786012 -40200152 
1717.980 -35715300 -32107968 -29183938 -26849416 -25106078 -23982522 
1718.342 -23525142 -23772556 -24748480 -26473240 -28974890 -32318986 
1718.704 -36514752 -41341448 -45993320 -48739092 -47878824 -43657088 
1719.066 -38165364 -33166338 -29268566 -26400472 -24294038 -22713344 
1719.427 -21491976 -20524026 -19750954 -19140260 -18668606 -18308560 
1719.789 -18021838 -17763076 -17486338 -17163722 -16796046 -16417343 
1720.151 -16085310 -15867049 -15816029 -15949652 -16241128 -16621549 
1720.513 -17002818 -17291262 -17419116 -17359364 -17128430 -16776985 
1720.875 -16371269 -15977822 -15641265 -15380953 -15192032 -15053567 
1721.237 -14939549 -14829760 -14717478 -14609331 -14521923 -14474398 
1721.598 -14482795 -14552941 -14679649 -14846476 -15032411 -15214619 
1721.960 -15371743 -15488236 -15551763 -15554416 -15493224 -15371391 
1722.322 -15199422 -14993809 -14775737 -14564476 -14372539 -14203862 
1722.684 -14053470 -13914096 -13782317 -13666039 -13586822 -13578087 
1723.046 -13674194 -13905464 -14289635 -14831170 -15524397 -16357709 
1723.407 -17315046 -18360938 -19429698 -20408148 -21127444 -21415784 
1723.769 -21162160 -20384058 -19221894 -17882588 -16561942 -15390899 
1724.131 -14448407 -13763250 -13332216 -13136133 -13147480 -13336843 
1724.493 -13669956 -14108578 -14603308 -15088611 -15494407 -15750721 
1724.855 -15807627 -15652804 -15318617 -14879264 -14429113 -14072652 
1725.217 -13893976 -13942013 -14225956 -14713635 -15340975 -16019018 
1725.578 -16657105 -17166524 -17474022 -17536430 -17344336 -16928764 
1725.940 -16353687 -15712470 -15105125 -14615867 -14303742 -14184717 
1726.302 -14233973 -14393150 -14595139 -14779804 -14912113 -14990192 
1726.664 -15039069 -15096772 -15192480 -15334929 -15504606 -15663126 
1727.026 -15765164 -15779670 -15701542 -15554448 -15381337 -15230360 
1727.387 -15141413 -15134725 -15212380 -15365922 -15586191 -15868295 
1727.749 -16211571 -16612269 -17054622 -17506960 -17926560 -18266880 
1728.111 -18495560 -18603060 -18606076 -18537026 -18432302 -18317008 
1728.473 -18195838 -18056294 -17879376 -17653332 -17382604 -17088612 
1728.835 -16800222 -16545199 -16338116 -16179394 -16059414 -15967954 
1729.197 -15900783 -15861746 -15859256 -15899824 -15984112 -16108170 
1729.558 -16271608 -16487783 -16790916 -17241014 -17916196 -18900850 
1729.920 -20270768 -22071912 -24288806 -26795152 -29337882 -31532660 
1730.282 -32966542 -33393566 -32824136 -31487114 -29678354 -27662388 
1730.644 -25623056 -23675866 -21906296 -20372108 -19115688 -18167240 
1731.006 -17532198 -17194488 -17113968 -17234008 -17481310 -17775036 
1731.367 -18039956 -18206100 -18223990 -18074918 -17775416 -17379962 
1731.729 -16972228 -16657552 -16531292 -16664248 -17083356 -17760818 
1732.091 -18608614 -19486092 -20236236 -20705746 -20801110 -20516662 
1732.453 -19938504 -19210388 -18485748 -17897660 -17523574 -17390118 
1732.815 -17482550 -17763936 -18188626 -18716182 -19323448 -20002426 
1733.177 -20766208 -21658066 -22767868 -24269690 -26476012 -29879420 
1733.538 -35016572 -41775032 -48226156 -51477116 -50816368 -47909004 
1733.900 -44399680 -41115444 -38339400 -36123136 -34490896 -33451244 
1734.262 -33013284 -33205170 -34082256 -35771600 -38522216 -42845948 
1734.624 -49653932 -60187100 -74722984 -87832368 -88110528 -75536152 
1734.986 -60964216 -49701304 -41825564 -36348792 -32437850 -29542236 
1735.347 -27313268 -25510498 -23965904 -22561782 -21221832 -19910718 
1735.709 -18633374 -17424018 -16342169 -15453800 -14811604 -14450106 
1736.071 -14370583 -14540925 -14895656 -15353416 -15830949 -16256545 
1736.433 -16587107 -16805706 -16918310 -16943518 -16906266 -16832004 
1736.795 -16743893 -16665427 -16618297 -16619444 -16677544 -16787728 
1737.156 -16933512 -17090810 -17242064 -17384640 -17536526 -17728596 
1737.518 -17992022 -18337466 -18739922 -19129450 -19404224 -19464804 
1737.880 -19242404 -18737954 -18023586 -17226366 -16476713 -15875323 
1738.242 -15472793 -15264111 -15204254 -15226808 -15268588 -15278697 
1738.604 -15229528 -15116964 -14954852 -14767378 -14583636 -14435779 
1738.966 -14353529 -14361704 -14475904 -14699125 -15021913 -15426971 
1739.327 -15898993 -16432209 -17039584 -17756874 -18644072 -19783184 
1739.689 -21278278 -23259590 -25890724 -29353460 -33718976 -38664372 
1740.051 -42955964 -44579572 -42588620 -38336516 -33833044 -30090752 
1740.413 -27285076 -25248316 -23764588 -22667430 -21838650 -21198544 
1740.775 -20691088 -20273394 -19908786 -19564336 -19216348 -18851486 
1741.136 -18470856 -18086360 -17717306 -17380312 -17082018 -16816066 
1741.498 -16566344 -16315585 -16055135 -15793601 -15558092 -15388628 
1741.860 -15322296 -15380537 -15558699 -15825966 -16131220 -16418777 
1742.222 -16647507 -16796366 -16868624 -16882744 -16863334 -16829422 
1742.584 -16794550 -16773924 -16793752 -16900752 -17164328 -17660998 
1742.946 -18463616 -19614252 -21103678 -22831154 -24587388 -26090246 
1743.307 -27064126 -27404952 -27244312 -26890778 -26650182 -26726740 
1743.669 -27183066 -27935110 -28761652 -29346338 -29406166 -28788350 
1744.031 -27551756 -25903680 -24099800 -22350908 -20793910 -19520116 
1744.393 -18574838 -17974440 -17710276 -17746952 -18020854 -18436844 
1744.755 -18882070 -19225508 -19348452 -19182046 -18721484 -18028290 
1745.116 -17200410 -16352922 -15588429 -14988911 -14616924 -14502824 
1745.478 -14648160 -15028026 -15603964 -16329052 -17150344 -18010522 
1745.840 -18830356 -19512640 -19960308 -20096616 -19902140 -19423868 
1746.202 -18767816 -18059124 -17412240 -16907348 -16570300 -16379949 
1746.564 -16281024 -16215051 -16142139 -16064268 -16025405 -16103381 
1746.926 -16383490 -16934786 -17792718 -18937868 -20273234 -21591992 
1747.287 -22619814 -23094486 -22911688 -22187788 -21190940 -20197870 
1747.649 -19388474 -18851232 -18586584 -18536138 -18601568 -18678796 
1748.011 -18690540 -18610012 -18469172 -18338704 -18299188 -18410358 
1748.373 -18710438 -19221800 -19967778 -20986472 -22332464 -24061400 
1748.735 -26160662 -28455372 -30523548 -31738076 -31650324 -30341934 
1749.096 -28371050 -26342878 -24670822 -23535436 -22943968 -22816882 
1749.458 -23006506 -23326134 -23552510 -23496766 -23072650 -22322644 
1749.820 -21380708 -20390824 -19456058 -18619916 -17892890 -17274546 
1750.182 -16765764 -16372737 -16099421 -15939560 -15873471 -15873119 
1750.544 -15911547 -15971147 -16051782 -16169306 -16353177 -16640268 
1750.906 -17075646 -17715428 -18629440 -19895336 -21574682 -23683178 
1751.267 -26147310 -28822894 -31554662 -34209028 -36612404 -38410680 
1751.629 -38996492 -37847524 -35060036 -31399462 -27712840 -24487716 
1751.991 -21868930 -19821774 -18284290 -17196524 -16499650 -16134605 
1752.353 -16028024 -16100634 -16275790 -16501276 -16751928 -17021870 
1752.715 -17311162 -17610730 -17895052 -18129362 -18276666 -18322410 
1753.076 -18244992 -18066242 -17808366 -17494740 -17148146 -16790374 
1753.438 -16446024 -16145810 -15918192 -15781716 -15734296 -15750816 
1753.800 -15789255 -15808521 -15788456 -15736980 -15684826 -15664980 
1754.162 -15693169 -15751168 -15791396 -15753021 -15595013 -15315930 
1754.524 -14962886 -14612728 -14349489 -14231311 -14268698 -14425106 
1754.885 -14633551 -14826623 -14951427 -14985710 -14934427 -14820474 
1755.247 -14671929 -14514745 -14371833 -14260009 -14189816 -14159446 
1755.609 -14151748 -14133083 -14065498 -13926033 -13724406 -13513276 
1755.971 -13375561 -13409230 -13684886 -14221723 -14978540 -15873214 
1756.333 -16813836 -17733878 -18622296 -19524804 -20531042 -21745500 
1756.695 -23274036 -25206108 -27610744 -30476784 -33617456 -36520688 
1757.056 -38294076 -38155260 -36110088 -32951246 -29533566 -26355726 
1757.418 -23590074 -21240702 -19287000 -17712184 -16501149 -15639924 
1757.780 -15098276 -14831522 -14785889 -14908175 -15147172 -15445198 
1758.142 -15742093 -15974851 -16093291 -16082115 -15971946 -15839895 
1758.504 -15782578 -15895192 -16226925 -16757315 -17386836 -17966906 
1758.865 -18349378 -18431986 -18202796 -17735722 -17164518 -16625440 
1759.227 -16230403 -16041659 -16067045 -16272852 -16597759 -16973790 
1759.589 -17331888 -17618652 -17801306 -17868502 -17831360 -17719754 
1759.951 -17577544 -17448210 -17365382 -17341568 -17363280 -17394446 
1760.313 -17388748 -17308360 -17135056 -16881662 -16589498 -16323308 
1760.675 -16150026 -16125314 -16282173 -16622283 -17115466 -17700858 
1761.036 -18303000 -18836480 -19224208 -19416706 -19399564 -19204300 
1761.398 -18902530 -18605122 -18435034 -18510926 -18947290 -19852732 
1761.760 -21354370 -23612482 -26832876 -31152008 -36312712 -41210408 
1762.122 -43924384 -43305632 -40153120 -36105880 -32246056 -28952758 
1762.484 -26277542 -24152678 -22507012 -21286198 -20430688 -19865362 
1762.845 -19488532 -19188798 -18856974 -18419982 -17861030 -17222544 
1763.207 -16594538 -16081829 -15782481 -15748166 -15973639 -16393956 
1763.569 -16908112 -17399888 -17766160 -17947864 -17934066 -17761486 
1763.931 -17492418 -17198118 -16932270 -16718101 -16551737 -16411822 
1764.293 -16278980 -16149865 -16044309 -15998293 -16048748 -16210230 
1764.655 -16463602 -16752724 -17005046 -17147446 -17136042 -16970092 
1765.016 -16692849 -16374780 -16088789 -15894203 -15817020 -15852323 
1765.378 -15972106 -16140640 -16321808 -16482295 -16593294 -16624834 
1765.740 -16550589 -16355921 -16047854 -15660698 -15251154 -14890566 
1766.102 -14638357 -14526153 -14547782 -14664017 -14817913 -14956901 
1766.464 -15055328 -15119077 -15181537 -15282952 -15455782 -15706973 
1766.825 -16016912 -16345294 -16648049 -16891380 -17057232 -17146266 
1767.187 -17170632 -17145472 -17079056 -16969998 -16808256 -16582036 
1767.549 -16287023 -15936621 -15565253 -15233207 -15015127 -14987567 
1767.911 -15224217 -15784558 -16720524 -18082040 -19937650 -22362080 
1768.273 -25380318 -28836690 -32118830 -34150412 -34115916 -32260112 
1768.635 -29547404 -26770262 -24295448 -22195154 -20439128 -18987604 
1768.996 -17801718 -16849948 -16095590 -15491210 -14980365 -14508849 
1769.358 -14040831 -13563829 -13092378 -12659132 -12308109 -12080466 
1769.720 -12007277 -12107921 -12385369 -12824840 -13389665 -14025945 
1770.082 -14663536 -15228665 -15663255 -15929082 -16015761 -15937770 
1770.444 -15730398 -15441809 -15125285 -14839783 -14638966 -14568513 
1770.805 -14662223 -14934267 -15380345 -15982229 -16726103 -17619542 
1771.167 -18713264 -20111864 -21970150 -24449820 -27615998 -31191512 
1771.529 -34371368 -36041936 -35580172 -33401974 -30477774 -27628030 
1771.891 -25248970 -23470366 -22272912 -21571624 -21270518 -21278848 
1772.253 -21529940 -21980764 -22614908 -23431566 -24429024 -25602906 
1772.615 -26941228 -28420462 -30016794 -31669050 -33197772 -34163580 
1772.976 -33889528 -32176002 -29879514 -27938558 -26554628 -25545584 
1773.338 -24708480 -23920498 -23124050 -22304704 -21470974 -20644044 
1773.700 -19848396 -19101990 -18421792 -17825316 -17332240 -16968850 
1774.062 -16757060 -16703466 -16786548 -16953714 -17129194 -17228628 
1774.424 -17193150 -17005558 -16700948 -16350178 -16038466 -15829992 
1774.785 -15741838 -15740687 -15756600 -15717583 -15574076 -15324535 
1775.147 -15014103 -14722699 -14533587 -14516988 -14722090 -15177986 
1775.509 -15908768 -16940618 -18297758 -19969010 -21854468 -23727634 
1775.871 -25206546 -25897186 -25596848 -24418906 -22719476 -20904252 
1776.233 -19294004 -18048602 -17207480 -16716603 -16469695 -16337732 
1776.594 -16207037 -16010875 -15732348 -15400845 -15068674 -14792197 
1776.956 -14609524 -14533266 -14552236 -14639189 -14760877 -14886147 
1777.318 -14996306 -15084035 -15154084 -15215451 -15274603 -15326518 
1777.680 -15352680 -15322519 -15207261 -14993841 -14698965 -14370359 
1778.042 -14079132 -13900458 -13884445 -14043332 -14343720 -14722635 
1778.404 -15100836 -15411941 -15622695 -15735703 -15784878 -15817275 
1778.765 -15880402 -16006086 -16208986 -16489793 -16840768 -17248338 
1779.127 -17692016 -18143948 -18563536 -18902658 -19119842 -19191176 
1779.489 -19121490 -18939900 -18688700 -18403848 -18105558 -17798062 
1779.851 -17475040 -17127346 -16752757 -16359111 -15964823 -15598211 
1780.213 -15292676 -15091363 -15044318 -15204669 -15630430 -16375130 
1780.574 -17484396 -18984972 -20871538 -23067528 -25356156 -27370046 
1780.936 -28628438 -28767854 -27786198 -26047060 -24036510 -22117700 
1781.298 -20496150 -19235556 -18319138 -17695198 -17290498 -17024004 
1781.660 -16815140 -16604710 -16362462 -16094346 -15833441 -15627393 
1782.022 -15514997 -15507772 -15580629 -15676262 -15726404 -15668975 
1782.384 -15476182 -15159427 -14764976 -14351990 -13974548 -13666167 
1782.745 -13431172 -13252907 -13106588 -12977137 -12867656 -12802867 
1783.107 -12816958 -12941311 -13186343 -13533060 -13932804 -14323779 
1783.469 -14647455 -14866744 -14980461 -15023001 -15055072 -15139940 
1783.831 -15329876 -15647594 -16082020 -16590582 -17112502 -17585976 
1784.193 -17956384 -18190562 -18276666 -18220208 -18037540 -17754838 
1784.554 -17409756 -17050034 -16740706 -16559392 -16586054 -16907316 
1784.916 -17605290 -18747760 -20344634 -22276846 -24206142 -25559734 
1785.278 -25830222 -24922904 -23211378 -21204856 -19299932 -17709068 
1785.640 -16501244 -15685210 -15227512 -15070274 -15137861 -15352073 
1786.002 -15646314 -15967155 -16278086 -16547751 -16738474 -16810934 
1786.364 -16729515 -16479712 -16080009 -15585840 -15080066 -14646974 
1786.725 -14361351 -14262574 -14348624 -14580432 -14898025 -15236246 
1787.087 -15534531 -15749091 -15850725 -15826955 -15683262 -15444751 
1787.449 -15154532 -14862486 -14620320 -14463983 -14404176 -14425202 
1787.811 -14493403 -14573127 -14640504 -14695249 -14756809 -14854001 
1788.173 -15007573 -15221402 -15481139 -15765898 -16060978 -16369833 
1788.534 -16712204 -17113268 -17583142 -18102380 -18614646 -19043390 
1788.896 -19311818 -19365248 -19190416 -18816650 -18308686 -17744120 
1789.258 -17203182 -16750015 -16423788 -16243329 -16208507 -16305724 
1789.620 -16509218 -16786198 -17100176 -17413482 -17696246 -17925036 
1789.982 -18081434 -18149700 -18112422 -17953140 -17664434 -17256300 
1790.344 -16764138 -16245788 -15782641 -15461090 -15359461 -15542619 
1790.705 -16051048 -16911140 -18146934 -19794674 -21894576 -24452576 
1791.067 -27380160 -30345302 -32719300 -33777776 -33133090 -31078014 
1791.429 -28332870 -25592630 -23241058 -21401746 -20048812 -19080936 
1791.791 -18379202 -17834444 -17373246 -16964168 -16621741 -16391657 
1792.153 -16337382 -16515981 -16963084 -17686608 -18670162 -19885174 
1792.514 -21304054 -22934570 -24835106 -27138122 -30062898 -33827988 
1792.876 -38316892 -42507928 -44565760 -43622084 -40648036 -37035584 
1793.238 -33558540 -30477558 -27860194 -25707540 -24018484 -22782078 
1793.600 -21949014 -21432594 -21110876 -20858370 -20563784 -20162384 
1793.962 -19644908 -19049922 -18444308 -17898646 -17474308 -17206462 
1794.323 -17103998 -17150058 -17306672 -17516732 -17709480 -17818194 
1794.685 -17785468 -17582666 -17219360 -16745806 -16241543 -15792994 
1795.047 -15477237 -15333075 -15353800 -15485967 -15650023 -15761873 
1795.409 -15761394 -15638612 -15437812 -15246164 -15160323 -15268940 
1795.771 -15622631 -16223030 -17019288 -17917722 -18801230 -19544000 
1796.133 -20049350 -20261566 -20173262 -19817468 -19255970 -18565124 
1796.494 -17819084 -17090906 -16444651 -15930073 -15586862 -15435765 
1796.856 -15476885 -15689397 -16032878 -16452277 -16882522 -17264546 
1797.218 -17547060 -17693860 -17687880 -17529206 -17235028 -16837230 
1797.580 -16382309 -15925474 -15522926 -15229528 -15085571 -15112389 
1797.942 -15309693 -15656192 -16112288 -16621901 -17122632 -17542190 
1798.303 -17809860 -17871268 -17695100 -17287664 -16693296 -15991364 
1798.665 -15278697 -14650530 -14185808 -13924075 -13862140 -13955842 
1799.027 -14140427 -14345963 -14522116 -14657578 -14786594 -14988015 
1799.389 -15366145 -16042713 -17130436 -18720244 -20853158 -23485968 
1799.751 -26408890 -29139786 -30996174 -31353104 -30094586 -27705226 
1800.113 -24918400 -22292492 -20078522 -18342928 -17057106 -16173521 
1800.474 -15657501 -15478324 -15593511 -15927678 -16375577 -16808606 
1800.836 -17101960 -17177162 -17019002 -16690999 -16310766 -16027896 
1801.198 -15972584 -16221434 -16786580 -17606372 -18548582 -19399754 
1801.560 -19920338 -19915306 -19340974 -18341912 -17182448 -16118290 
1801.922 -15300578 -14784640 -14542623 -14501766 -14569730 -14670680 
1802.283 -14772085 -14898730 -15126373 -15558859 -16289448 -17347362 
1802.645 -18637564 -19898722 -20778464 -20970118 -20402900 -19259710 
1803.007 -17857212 -16488580 -15345261 -14532017 -14067199 -13912973 
1803.369 -13992740 -14216432 -14494011 -14750821 -14941630 -15045630 
1803.731 -15065761 -15021657 -14944928 -14869786 -14823933 -14823228 
1804.093 -14865495 -14933371 -14998195 -15033916 -15023577 -14966280 
1804.454 -14875613 -14775128 -14691149 -14643899 -14646366 -14701527 
1804.816 -14803246 -14937629 -15084835 -15223449 -15333490 -15403244 
1805.178 -15433623 -15438515 -15439411 -15456262 -15497029 -15551667 
1805.540 -15594087 -15594022 -15534275 -15419329 -15277514 -15148164 
1805.902 -15068481 -15053727 -15092484 -15149412 -15184929 -15171106 
1806.263 -15106085 -15014199 -14935836 -14908560 -14950050 -15053279 
1806.625 -15191616 -15333938 -15455910 -15550100 -15623686 -15689045 
1806.987 -15753821 -15815711 -15864940 -15893085 -15901422 -15906276 
1807.349 -15933778 -16014356 -16170902 -16412364 -16734775 -17123810 
1807.711 -17560042 -18014782 -18449546 -18810748 -19030640 -19050906 
1808.073 -18844792 -18440020 -17912698 -17371460 -16924398 -16647538 
1808.434 -16581174 -16718930 -17015306 -17393332 -17766766 -18055308 
1808.796 -18193838 -18145790 -17902080 -17483410 -16935678 -16330361 
1809.158 -15752926 -15280649 -14972555 -14847981 -14883362 -15016952 
1809.520 -15173218 -15288645 -15330324 -15307550 -15260847 -15242421 
1809.882 -15285959 -15394257 -15534691 -15658587 -15720619 -15706271 
1810.243 -15642256 -15598370 -15668176 -15946202 -16515695 -17431148 
1810.605 -18714248 -20337518 -22211496 -24134656 -25770994 -26736678 
1810.967 -26749638 -25826632 -24271478 -22509780 -20879116 -19553566 
1811.329 -18580998 -17915338 -17467146 -17135564 -16844498 -16556170 
1811.691 -16276332 -16036807 -15873438 -15801396 -15808074 -15861843 
1812.052 -15935566 -16028695 -16176362 -16437730 -16865534 -17472652 
1812.414 -18203178 -18926196 -19462586 -19665050 -19472946 -18949542 
1812.776 -18246072 -17553614 -17027796 -16744690 -16701011 -16826424 
1813.138 -17025024 -17204424 -17313390 -17344178 -17322148 -17280022 
1813.500 -17237830 -17192608 -17124608 -17010558 -16839142 -16615618 
1813.862 -16357675 -16082531 -15797339 -15498724 -15181377 -14850575 
1814.223 -14532305 -14265973 -14090904 -14022737 -14039323 -14079934 
1814.585 -14067937 -13949039 -13718114 -13434835 -13204697 -13149794 
1814.947 -13352524 -13822311 -14485391 -15212316 -15857562 -16305214 
1815.309 -16511165 -16505167 -16375130 -16220476 -16126528 -16132593 
1815.671 -16232574 -16386999 -16546538 -16669828 -16728368 -16708918 
1816.032 -16607294 -16425574 -16174350 -15877878 -15578295 -15325238 
1816.394 -15167874 -15134085 -15218810 -15381337 -15558795 -15689110 
1816.756 -15726723 -15660154 -15509466 -15316122 -15122725 -14962791 
1817.118 -14856530 -14814454 -14847180 -14972682 -15215227 -15599457 
1817.480 -16137479 -16816416 -17582602 -18343024 -18978090 -19364710 
1817.842 -19425896 -19152054 -18599378 -17860328 -17041304 -16245117 
1818.203 -15555663 -15045982 -14762638 -14715268 -14871836 -15161507 
1818.565 -15495302 -15780469 -15952336 -15983922 -15886473 -15696013 
1818.927 -15456454 -15201630 -14944191 -14680962 -14403887 -14113998 
1819.289 -13831587 -13594626 -13446753 -13426610 -13549536 -13802924 
1819.651 -14145077 -14519648 -14866904 -15137988 -15309725 -15384695 
1820.012 -15389140 -15361060 -15341070 -15357606 -15418913 -15509562 
1820.374 -15595365 -15634488 -15587470 -15435061 -15184416 -14873916 
1820.736 -14562201 -14320637 -14215630 -14289667 -14556145 -14990448 
1821.098 -15536577 -16106253 -16600119 -16926914 -17015912 -16842172 
1821.460 -16429020 -15851619 -15213212 -14630252 -14202483 -13983243 
1821.822 -13977371 -14143635 -14421452 -14748322 -15084259 -15417026 
1822.183 -15751872 -16095143 -16438080 -16747400 -16976020 -17078226 
1822.545 -17031874 -16851574 -16589308 -16318426 -16105967 -15999187 
1822.907 -16010270 -16119728 -16287215 -16472885 -16651079 -16813580 
1823.269 -16961426 -17091924 -17188278 -17224296 -17173086 -17024610 
1823.631 -16796588 -16535725 -16303139 -16147567 -16089844 -16109159 
1823.992 -16153600 -16156601 -16069409 -15880018 -15619243 -15344173 
1824.354 -15116933 -14975308 -14915027 -14889221 -14825726 -14661934 
1824.716 -14370070 -13980676 -13579725 -13302974 -13297801 -13699044 
1825.078 -14618686 -16141532 -18338546 -21263576 -24944178 -29239018 
1825.440 -33621992 -37070908 -38363664 -37071420 -33979284 -30367270 
1825.802 -27108548 -24526454 -22637646 -21320176 -20428760 -19828958 
1826.163 -19412968 -19100278 -18840192 -18611282 -18412042 -18253664 
1826.525 -18150048 -18113154 -18147028 -18244356 -18382472 -18524040 
1826.887 -18618424 -18606870 -18442370 -18101902 -17602554 -17000778 
1827.249 -16389424 -15875228 -15546136 -15458212 -15614384 -15967250 
1827.611 -16428476 -16898106 -17286422 -17523638 -17572516 -17421632 
1827.972 -17080458 -16573744 -15942562 -15246612 -14559798 -13974804 
1828.334 -13584895 -13459891 -13629306 -14061682 -14669751 -15320920 
1828.696 -15883055 -16254246 -16393764 -16336137 -16183736 -16078763 
1829.058 -16153600 -16509250 -17179008 -18115092 -19161660 -20075388 
1829.420 -20594688 -20543464 -19946604 -19014404 -18040750 -17260472 
1829.781 -16816512 -16759546 -17074882 -17720708 -18655370 -19869160 
1830.143 -21386544 -23269514 -25581758 -28263114 -30965536 -32996208 
1830.505 -33669280 -32894884 -31166596 -29062352 -26915162 -24845214 
1830.867 -22862590 -20947068 -19106906 -17388174 -15862800 -14622339 
1831.229 -13738307 -13244100 -13127678 -13334691 -13778979 -14355131 
1831.591 -14964904 -15521295 -15959682 -16244670 -16364345 -16331190 
1831.952 -16177192 -15953293 -15719213 -15531046 -15434166 -15448363 
1832.314 -15564294 -15743531 -15929529 -16057178 -16065959 -15916754 
1832.676 -15592968 -15104485 -14481962 -13777277 -13056112 -12388622 
1833.038 -11849899 -11501608 -11384459 -11512450 -11867632 -12401116 
1833.400 -13034762 -13680423 -14247280 -14665490 -14904525 -14976364 
1833.761 -14927864 -14818169 -14703929 -14621441 -14584277 -14588539 
1834.123 -14621185 -14668694 -14723500 -14785152 -14856242 -14936828 
1834.485 -15019256 -15086915 -15119364 -15100420 -15025562 -14907663 
1834.847 -14775288 -14668630 -14625574 -14673146 -14819866 -15054079 
1835.209 -15346061 -15654465 -15938058 -16158899 -16290503 -16322926 
1835.571 -16263183 -16136648 -15980281 -15840342 -15756825 -15753468 
1835.932 -15830344 -15961310 -16099390 -16187567 -16180895 -16054178 
1836.294 -15811717 -15480914 -15103877 -14719688 -14351894 -14006375 
1836.656 -13673970 -13342883 -13010130 -12690477 -12418698 -12245653 
1837.018 -12222394 -12393903 -12787103 -13404861 -14220986 -15176417 
1837.380 -16185874 -17135310 -17912508 -18437098 -18681622 -18675178 
1837.741 -18481016 -18169622 -17792114 -17376936 -16935202 -16471131 
1838.103 -15995802 -15533220 -15115237 -14776537 -14540284 -14410843 
1838.465 -14374622 -14407830 -14488820 -14605615 -14759820 -14959333 
1838.827 -15206301 -15487917 -15770435 -16007138 -16156984 -16196696 
1839.189 -16134636 -16007267 -15870340 -15777722 -15764397 -15839672 
1839.551 -15985135 -16162891 -16323660 -16421776 -16415652 -16272917 
1839.912 -15976544 -15527945 -14955140 -14311212 -13675350 -13134428 
1840.274 -12761910 -12606480 -12675095 -12936133 -13329710 -13793327 
1840.636 -14276361 -14751300 -15212956 -15664404 -16101465 -16503923 
1840.998 -16832258 -17039042 -17086192 -16955498 -16660517 -16243521 
1841.360 -15772896 -15322584 -14962055 -14744095 -14691757 -14797962 
1841.721 -15026266 -15324535 -15634330 -15913017 -16149100 -16367631 
1842.083 -16622633 -16977358 -17481118 -18139180 -18895488 -19625620 
1842.445 -20177280 -20408782 -20246354 -19710426 -18902340 -17967066 
1842.807 -17042482 -16246777 -15652867 -15285991 -15132869 -15150532 
1843.169 -15283240 -15475383 -15690260 -15912602 -16149227 -16419735 
1843.531 -16746253 -17140342 -17596826 -18093956 -18604584 -19112962 
1843.892 -19627934 -20190502 -20871032 -21767214 -23019612 -24742002 
1844.254 -27164172 -30592138 -35416576 -41898980 -49462108 -55494600 
1844.616 -56492804 -52255500 -45836760 -39668980 -34537320 -30460568 
1844.978 -27261148 -24790856 -22956758 -21672220 -20845578 -20357818 
1845.340 -20074218 -19858270 -19607602 -19278538 -18885496 -18486224 
1845.701 -18147474 -17919216 -17810750 -17793770 -17813390 -17814218 
1846.063 -17751848 -17601090 -17357072 -17029898 -16640937 -16218562 
1846.425 -15799256 -15422462 -15123237 -14929177 -14851343 -14885603 
1846.787 -15017560 -15232120 -15520432 -15880115 -16308470 -16788046 
1847.149 -17274832 -17700858 -17977938 -18026320 -17805568 -17334084 
1847.510 -16696930 -16026651 -15484463 -15207581 -15288006 -15753916 
1847.872 -16564878 -17606276 -18694918 -19626064 -20209574 -20348396 
1848.234 -20065962 -19480612 -18737954 -17957368 -17224678 -16589308 
1848.596 -16083075 -15731996 -15550324 -15533796 -15646314 -15820727 
1848.958 -15960319 -15964216 -15764045 -15346476 -14771317 -14153288 
1849.320 -13636724 -13337550 -13308630 -13526348 -13903666 -14320477 
1849.681 -14662832 -14866265 -14923926 -14881505 -14804367 -14753350 
1850.043 -14759275 -14819930 -14913618 -15018264 -15126117 -15245812 
1850.405 -15391954 -15570144 -15765611 -15945053 -16067013 -16099742 
1850.767 -16037701 -15903912 -15742540 -15599361 -15511353 -15493480 
1851.129 -15541565 -15638709 -15765643 -15904872 -16039360 -16150057 
1851.490 -16212944 -16200494 -16092461 -15883213 -15589963 -15247155 
1851.852 -14902412 -14600906 -14373789 -14236506 -14189110 -14222429 
1852.214 -14322080 -14471547 -14649249 -14825534 -14968136 -15047582 
1852.576 -15051071 -14992657 -14916019 -14884163 -14955300 -15166819 
1852.938 -15515764 -15960863 -16431317 -16854984 -17176908 -17370858 
1853.300 -17441334 -17412622 -17314984 -17170346 -16990774 -16779758 
1853.661 -16538309 -16271513 -15988776 -15702149 -15422878 -15158660 
1854.023 -14913074 -14687401 -14480936 -14290180 -14105723 -13913133 
1854.385 -13694068 -13435606 -13140054 -12832271 -12558906 -12374227 
1854.747 -12328529 -12445874 -12716349 -13097747 -13533928 -13972398 
1855.109 -14381289 -14756009 -15108708 -15450154 -15772546 -16040254 
1855.470 -16196601 -16186129 -15972488 -15560810 -14999347 -14375743 
1855.832 -13787774 -13323444 -13044408 -12971896 -13092829 -13367560 
1856.194 -13747039 -14178848 -14617437 -15029530 -15390292 -15683709 
1856.556 -15899090 -16025949 -16054241 -15973989 -15780214 -15479124 
1856.918 -15094308 -14670327 -14262606 -13932386 -13728388 -13671561 
1857.280 -13749350 -13916631 -14110726 -14261164 -14312302 -14233427 
1857.641 -14019721 -13690504 -13282408 -12843851 -12423753 -12071475 
1858.003 -11829167 -11722330 -11756290 -11911381 -12149003 -12419213 
1858.365 -12681017 -12917994 -13144716 -13402002 -13740266 -14196069 
1858.727 -14767827 -15403979 -16008032 -16472725 -16706241 -16669573 
1859.089 -16387988 -15944734 -15453001 -15020216 -14731796 -14625574 
1859.450 -14693648 -14891558 -15162019 -15451658 -15727010 -15979674 
1859.812 -16216392 -16443631 -16652640 -16808096 -16853614 -16731141 
1860.174 -16399156 -15859703 -15166563 -14423568 -13751308 -13259238 
1860.536 -13013443 -13013346 -13195311 -13451603 -13674355 -13777695 
1860.898 -13728099 -13546100 -13294362 -13049938 -12877530 -12817215 
1861.260 -12875762 -13036305 -13268268 -13541861 -13830238 -14108225 
1861.621 -14351734 -14533139 -14627689 -14623300 -14528460 -14375616 
1861.983 -14210147 -14079068 -14009198 -13999606 -14022127 -14035344 
1862.345 -14000664 -13899110 -13741164 -13566173 -13429374 -13379673 
1862.707 -13446528 -13626031 -13882807 -14157233 -14386963 -14524999 
1863.069 -14551243 -14478789 -14346990 -14210468 -14117141 -14098602 
1863.430 -14159863 -14282004 -14430523 -14570660 -14681763 -14761165 
1863.792 -14823132 -14886468 -14961606 -15038365 -15083939 -15048606 
1864.154 -14885667 -14568033 -14105466 -13546325 -12974918 -12491206 
1864.516 -12181480 -12109081 -12295934 -12722656 -13331188 -14039258 
1864.878 -14752869 -15372894 -15819129 -16033867 -15994748 -15720427 
1865.240 -15271852 -14743646 -14237820 -13853026 -13656407 -13671658 
1865.601 -13879278 -14224385 -14634641 -15031227 -15352329 -15556909 
1865.963 -15628321 -15575003 -15428954 -15246419 -15097924 -15069857 
1866.325 -15246292 -15689652 -16426722 -17424464 -18580298 -19709476 
1866.687 -20594688 -21046010 -20971916 -20416494 -19531076 -18512514 
1867.049 -17526820 -16696325 -16081510 -15688661 -15486670 -15423518 
1867.410 -15444559 -15501697 -15569153 -15647657 -15768711 -15989223 
1867.772 -16388085 -17055576 -18071456 -19479218 -21237262 -23181192 
1868.134 -24972708 -26179848 -26467534 -25764280 -24300052 -22447484 
1868.496 -20566818 -18889748 -17533566 -16535183 -15878007 -15529480 
1868.858 -15456550 -15636662 -16052837 -16686823 -17513994 -18500670 
1869.219 -19619478 -20867370 -22271590 -23892808 -25792380 -27945486 
1869.581 -30118298 -31750426 -32149356 -31068670 -28964290 -26576882 
1869.943 -24418312 -22713880 -21482988 -20649826 -20099874 -19699690 
1870.305 -19318250 -18843016 -18213918 -17432072 -16563091 -15711736 
1870.667 -15004404 -14553454 -14424048 -14624037 -15094563 -15727170 
1871.029 -16370982 -16876624 -17131328 -17085330 -16771151 -16287725 
1871.390 -15770085 -15336561 -15070305 -15001971 -15112612 -15348012 
1871.752 -15638836 -15924292 -16158644 -16320180 -16406430 -16428253 
1872.114 -16405027 -16362399 -16331732 -16341880 -16413067 -16545199 
1872.476 -16713222 -16865470 -16938770 -16883160 -16679330 -16355092 
1872.838 -15978172 -15642321 -15429658 -15385334 -15501825 -15721163 
1873.199 -15953772 -16105806 -16115896 -15965462 -15685499 -15339407 
1873.561 -15010646 -14776441 -14688170 -14765489 -14990160 -15313084 
1873.923 -15659835 -15953230 -16127901 -16148172 -16022244 -15802292 
1874.285 -15572030 -15414787 -15394129 -15527530 -15783088 -16087703 
1874.647 -16357262 -16527751 -16572053 -16509123 -16389934 -16277799 
1875.009 -16218146 -16228775 -16295448 -16385596 -16461655 -16497098 
1875.370 -16482137 -16419927 -16319415 -16188428 -16032973 -15859958 
1875.732 -15683580 -15529384 -15428922 -15412037 -15494215 -15666898 
1876.094 -15895449 -16126016 -16304161 -16383937 -16343221 -16186129 
1876.456 -15941156 -15649799 -15356071 -15100068 -14908335 -14793350 
1876.818 -14752453 -14769941 -14817560 -14859284 -14860788 -14794792 
1877.179 -14651427 -14443055 -14205658 -13991199 -13853057 -13836208 
1877.541 -13958505 -14205049 -14526057 -14851599 -15103140 -15212924 
1877.903 -15146980 -14910384 -14549801 -14134782 -13746141 -13447203 
1878.265 -13266564 -13194443 -13188272 -13191840 -13154809 -13057012 
1878.627 -12914263 -12776678 -12705859 -12757695 -12958646 -13294491 
1878.989 -13711790 -14132794 -14481802 -14699413 -14764688 -14697876 
1879.350 -14557267 -14418407 -14356511 -14426163 -14642842 -14978508 
1879.712 -15364866 -15717424 -15949236 -16000081 -15854366 -15543227 
1880.074 -15137988 -14726639 -14400169 -14220601 -14210404 -14348528 
1880.436 -14579375 -14826975 -15013111 -15081283 -15002772 -14785249 
1880.798 -14467829 -14115762 -13803983 -13598640 -13550179 -13676924 
1881.159 -13963767 -14362440 -14807025 -15224761 -15551859 -15749922 
1881.521 -15806604 -15735639 -15566659 -15339375 -15092707 -14858708 
1881.883 -14663632 -14525512 -14453855 -14449946 -14505740 -14604078 
1882.245 -14721386 -14835428 -14929625 -14998355 -15047326 -15089859 
1882.607 -15139877 -15204765 -15282600 -15363554 -15434870 -15487118 
1882.969 -15519249 -15538432 -15557612 -15588813 -15639059 -15707837 
1883.330 -15788106 -15869796 -15943488 -16003244 -16044598 -16063660 
1883.692 -16053921 -16003435 -15895830 -15713813 -15441298 -15071874 
1884.054 -14612759 -14090840 -13549762 -13050838 -12663928 -12450317 
1884.416 -12455598 -12692987 -13138544 -13729190 -14377026 -14987919 
1884.778 -15473944 -15779318 -15886057 -15815519 -15616302 -15352361 
1885.139 -15088324 -14874268 -14747714 -14729938 -14824958 -15018456 
1885.501 -15277898 -15556973 -15800694 -15963163 -16017517 -15962459 
1885.863 -15818682 -15619530 -15396975 -15167682 -14932570 -14682148 
1886.225 -14410523 -14127598 -13864001 -13663310 -13570508 -13608819 
1886.587 -13769156 -14006792 -14258822 -14460874 -14568385 -14572422 
1886.948 -14498979 -14400265 -14332211 -14342565 -14454849 -14664818 
1887.310 -14942975 -15242453 -15509594 -15689973 -15742477 -15645612 
1887.672 -15403244 -15045534 -14627080 -14218934 -13888231 -13691274 
1888.034 -13658301 -13790214 -14062324 -14433888 -14858579 -15285895 
1888.396 -15668847 -15963130 -16126208 -16126752 -15947832 -15597059 
1888.758 -15108068 -14541342 -13972238 -13469432 -13088198 -12858680 
1889.119 -12790159 -12883159 -13140311 -13574619 -14210917 -15080387 
1889.481 -16215656 -17643468 -19382486 -21429724 -23680574 -25942322 
1889.843 -27841610 -28913144 -28836690 -27653402 -25745918 -23583704 
1890.205 -21539022 -19808636 -18469616 -17529206 -16942626 -16632041 
1890.567 -16495056 -16430998 -16354389 -16219998 -16027737 -15811780 
1890.928 -15618443 -15482769 -15415683 -15400653 -15404970 -15394193 
1891.290 -15347564 -15262639 -15151812 -15032860 -14921973 -14830113 
1891.652 -14765425 -14739418 -14770197 -14879168 -15084323 -15389108 
1892.014 -15775772 -16205186 -16629076 -17001574 -17289828 -17482424 
1892.376 -17584288 -17611398 -17580312 -17507662 -17408356 -17299032 
1892.738 -17200348 -17131392 -17100462 -17095206 -17079916 -17001222 
1893.099 -16804528 -16460061 -15977278 -15410790 -14840776 -14355902 
1893.461 -14019368 -13848308 -13814286 -13857936 -13918492 -13953243 
1893.823 -13956066 -13949842 -13972013 -14047984 -14179394 -14339873 
1894.185 -14491769 -14602059 -14661166 -14685991 -14712546 -14774776 
1894.547 -14885315 -15025114 -15147620 -15196671 -15126789 -14928024 
1894.908 -14637300 -14338206 -14136867 -14147611 -14466867 -15150628 
1895.270 -16205283 -17570034 -19114294 -20618386 -21821288 -22494302 
1895.632 -22516166 -21929230 -20906968 -19685726 -18469996 -17408642 
1895.994 -16579932 -15994811 -15620777 -15398286 -15264910 -15164419 
1896.356 -15060256 -14936444 -14792453 -14640856 -14503594 -14410746 
1896.718 -14391772 -14467989 -14639799 -14879712 -15129508 -15313979 
1897.079 -15369120 -15262063 -15013975 -14695409 -14412125 -14261227 
1897.441 -14296721 -14508945 -14826719 -15141861 -15346732 -15381848 
1897.803 -15250770 -15021305 -14790084 -14654567 -14673082 -14850127 
1898.165 -15143780 -15488972 -15826445 -16116951 -16350497 -16536044 
1898.527 -16687015 -16809212 -16897596 -16942850 -16941416 -16904416 
1898.888 -16857662 -16832004 -16852338 -16924332 -17030026 -17131168 
1899.250 -17184584 -17154772 -17024674 -16800638 -16508963 -16188683 
1899.612 -15878070 -15610453 -15406697 -15273803 -15206973 -15191776 
1899.974 -15209980 -15242453 -15276139 -15307294 -15342478 -15394481 
1900.336 -15476566 -15594535 -15741199 -15896693 -16033612 -16129561 
1900.698 -16173903 -16174415 -16152419 -16135851 -16144088 -16179394 
1901.059 -16223380 -16244831 -16212113 -16105967 -15930489 -15712727 
1901.421 -15496613 -15324279 -15227512 -15214971 -15273388 -15372190 
1901.783 -15474680 -15549429 -15574044 -15539390 -15447468 -15308542 
1902.145 -15137029 -14950178 -14767538 -14607024 -14485519 -14415395 
1902.507 -14400778 -14438279 -14518046 -14628425 -14759724 -14909168 
1902.868 -15080066 -15279145 -15510297 -15768742 -16037349 -16289512 
1903.230 -16492823 -16617754 -16647156 -16579421 -16429817 -16225137 
1903.592 -15999954 -15786763 -15610388 -15486926 -15420288 -15404587 
1903.954 -15425980 -15467741 -15513495 -15552210 -15581620 -15608247 
1904.316 -15645100 -15704833 -15794145 -15908416 -16030196 -16133137 
1904.677 -16192418 -16193122 -16136041 -16036773 -15917456 -15796445 
1905.039 -15678627 -15554704 -15406889 -15222169 -15001459 -14765937 
1905.401 -14549993 -14391899 -14315187 -14319676 -14381129 -14463631 
1905.763 -14534676 -14580144 -14609780 -14650723 -14731891 -14865560 
1906.125 -15038269 -15212380 -15343086 -15392754 -15351018 -15237462 
1906.487 -15097476 -14981101 -14928120 -14956389 -15058815 -15209468 
1906.848 -15374013 -15521199 -15625827 -15670734 -15647849 -15557420 
1907.210 -15411334 -15232855 -15056959 -14918932 -14842889 -14831875 
1907.572 -14865112 -14906318 -14921173 -14898570 -14862133 -14867961 
1907.934 -14981197 -15255153 -15699336 -16269406 -16865342 -17364298 
1908.296 -17662654 -17710848 -17536272 -17227036 -16898744 -16643967 
1908.657 -16518502 -16532695 -16664153 -16870250 -17102056 -17313136 
1909.019 -17456452 -17490508 -17384768 -17127696 -16737262 -16264491 
1909.381 -15787914 -15386454 -15121508 -15015671 -15049279 -15172578 
1909.743 -15333426 -15506621 -15707070 -15987914 -16415907 -17043822 
1910.105 -17873302 -18833180 -19767954 -20482876 -20796310 -20614122 
1910.467 -19970182 -19005746 -17909774 -16846856 -15942050 -15261839 
1910.828 -14822428 -14604205 -14561015 -14633295 -14754632 -14869850 
1911.190 -14940926 -14951875 -14909520 -14837638 -14768179 -14730450 
1911.552 -14747618 -14832867 -14990256 -15217722 -15506812 -15841525 
1911.914 -16191876 -16514800 -16756391 -16858298 -16777622 -16498214 
1912.276 -16043289 -15471898 -14874653 -14352054 -13984847 -13825745 
1912.637 -13880947 -14115057 -14456675 -14822332 -15135013 -15337328 
1912.999 -15407145 -15354727 -15215131 -15029530 -14832931 -14640343 
1913.361 -14445394 -14227399 -13967329 -13663759 -13343462 -13058555 
1913.723 -12871709 -12839541 -12987074 -13298379 -13716253 -14163326 
1914.085 -14558100 -14838182 -14974059 -14965383 -14834084 -14610132 
1914.447 -14326600 -14014363 -13703443 -13428859 -13224623 -13118547 
1914.808 -13121409 -13219192 -13371930 -13522783 -13620829 -13633770 
1915.170 -13563829 -13443829 -13329484 -13276462 -13320198 -13467022 
1915.532 -13690857 -13943232 -14164160 -14303709 -14329357 -14234549 
1915.894 -14039579 -13789090 -13544591 -13367914 -13315507 -13421085 
1916.256 -13687454 -14084072 -14554895 -15032763 -15452649 -15771234 
1916.617 -15970061 -16053665 -16039871 -15951823 -15811047 -15635032 
1916.979 -15441809 -15251602 -15084419 -14957828 -14878496 -14839047 
1917.341 -14819610 -14799755 -14769364 -14740699 -14747297 -14836517 
1917.703 -15053663 -15423070 -15943712 -16595878 -17362804 -18246230 
1918.065 -19282690 -20539292 -22079596 -23894000 -25786854 -27296932 
1918.427 -27897452 -27373314 -25991324 -24226386 -22472372 -20942080 
1918.788 -19699976 -18746522 -18042786 -17533024 -17155982 -16854984 
1919.150 -16587107 -16324809 -16058775 -15792770 -15539486 -15315899 
1919.512 -15140581 -15030171 -14993361 -15027002 -15112325 -15218170 
1919.874 -15303936 -15333938 -15288294 -15171810 -15013271 -14857203 
1920.236 -14751974 -14730450 -14803855 -14957989 -15163011 -15382840 
1920.597 -15589868 -15772833 -15934257 -16083617 -16225137 -16350145 
1920.959 -16435208 -16448991 -16363004 -16166721 -15874429 -15528777 
1921.321 -15187584 -14916627 -14771733 -14783135 -14953380 -15255793 
1921.683 -15643567 -16053986 -16421841 -16688608 -16806406 -16751321 
1922.045 -16529091 -16180895 -15775038 -15403019 -15162531 -15130821 
1922.406 -15354919 -15830439 -16499808 -17244932 -17913112 -18353506 
1922.768 -18449452 -18167048 -17561984 -16767964 -15948502 -15273963 
1923.130 -14897353 -14926679 -15426172 -16386107 -17709480 -19178940 
1923.492 -20497508 -21386102 -21683852 -21427072 -20800856 -20042042 
1923.854 -19326046 -18737890 -18275014 -17879376 -17477332 -17018844 
1924.216 -16502041 -15974181 -15509498 -15171714 -14992593 -14955140 
1924.577 -15006293 -15075522 -15107364 -15075522 -14987311 -14872508 
1924.939 -14769620 -14713283 -14725838 -14821467 -15006357 -15278793 
1925.301 -15623398 -16006691 -16378704 -16676238 -16844562 -16854282 
1925.663 -16712457 -16460029 -16157400 -15862098 -15606393 -15396687 
1926.025 -15222169 -15074274 -14961959 -14913714 -14961286 -15118277 
1926.386 -15356807 -15606201 -15763758 -15739154 -15484720 -15022425 
1926.748 -14435042 -13843429 -13361905 -13055565 -12930376 -12936937 
1927.110 -13002542 -13058330 -13069712 -13041032 -13004921 -12999326 
1927.472 -13051932 -13172360 -13355480 -13591061 -13872539 -14197224 
1927.834 -14559669 -14942495 -15313948 -15630238 -15850853 -15954187 
1928.196 -15944511 -15850054 -15709626 -15558316 -15413476 -15275754 
1928.557 -15138469 -15003348 -14891046 -14843178 -14907055 -15121989 
1928.919 -15496709 -16002573 -16573360 -17125214 -17578974 -17873908 
1929.281 -17984932 -17918802 -17708430 -17396610 -17029454 -16646167 
1929.643 -16273651 -15929274 -15621800 -15354152 -15127685 -14943295 
1930.005 -14802862 -14707837 -14657386 -14645405 -14660173 -14686792 
1930.366 -14711169 -14726639 -14737912 -14761229 -14817880 -14922966 
1930.728 -15076579 -15257552 -15429370 -15547862 -15581396 -15522478 
1931.090 -15393201 -15235798 -15100612 -15027258 -15029754 -15096036 
1931.452 -15195167 -15295427 -15377947 -15447021 -15527498 -15653986 
1931.814 -15851429 -16120685 -16431253 -16728846 -16948648 -17033658 
1932.176 -16956360 -16724924 -16383745 -15996505 -15635224 -15356774 
1932.537 -15189024 -15129733 -15149668 -15207325 -15258768 -15274411 
1932.899 -15242549 -15170722 -15079523 -14996050 -14947297 -14952579 
1933.261 -15024058 -15163875 -15364962 -15611156 -15879508 -16145140 
1933.623 -16383905 -16580632 -16732257 -16846570 -16937526 -17016580 
1933.985 -17084186 -17126646 -17116644 -17023718 -16828562 -16532345 
1934.346 -16162699 -15766665 -15403179 -15122821 -14956133 -14909328 
1934.708 -14965704 -15094884 -15262255 -15441745 -15615599 -15774781 
1935.070 -15914261 -16027927 -16106861 -16141342 -16123079 -16050089 
1935.432 -15927486 -15767304 -15585328 -15396847 -15214300 -15043357 
1935.794 -14884194 -14732243 -14582835 -14434690 -14293739 -14172627 
1936.156 -14089108 -14058313 -14085034 -14158355 -14252153 -14332146 
1936.517 -14365454 -14336058 -14250390 -14137604 -14034895 -13975543 
1936.879 -13972944 -14016930 -14080768 -14137861 -14178848 -14220986 
1937.241 -14302395 -14463822 -14727503 -15077731 -15459140 -15789799 
1937.603 -15996952 -16039008 -15928093 -15720716 -15501313 -15344205 
1937.965 -15284007 -15304928 -15348651 -15342318 -15226105 -14983342 
1938.326 -14645565 -14283415 -13974516 -13781804 -13730635 -13804657 
1938.688 -13955361 -14124262 -14268442 -14371159 -14448087 -14535477 
1939.050 -14676157 -14897609 -15200862 -15555950 -15912602 -16211316 
1939.412 -16400656 -16454000 -16372992 -16185587 -15932214 -15655585 
1939.774 -15386102 -15135973 -14902028 -14671833 -14431132 -14169516 
1940.135 -13883096 -13573463 -13247732 -12919023 -12610922 -12359543 
1940.497 -12207994 -12201068 -12366499 -12699327 -13149698 -13627605 
1940.859 -14023474 -14228938 -14180644 -13878700 -13395351 -12850381 
1941.221 -12388976 -12141948 -12186055 -12536212 -13140440 -13903603 
1941.583 -14702167 -15418434 -15961278 -16269566 -16325222 -16148556 
1941.945 -15796540 -15344813 -14878911 -14478853 -14202387 -14088050 
1942.306 -14155340 -14413536 -14873116 -15551763 -16475437 -17666758 
1942.668 -19127230 -20807522 -22558792 -24133088 -25216050 -25548676 
1943.030 -25071674 -23952452 -22484736 -20935860 -19495408 -18259128 
1943.392 -17256842 -16490335 -15944798 -15595909 -15408648 -15336369 
1943.754 -15321624 -15300353 -15220762 -15050975 -14791013 -14470745 
1944.115 -14144661 -13875074 -13711437 -13681835 -13781964 -13978110 
1944.477 -14212584 -14423343 -14559253 -14592063 -14526409 -14396868 
1944.839 -14257764 -14160055 -14137669 -14191163 -14290918 -14385392 
1945.201 -14425267 -14384302 -14268345 -14113004 -13966847 -13872121 
1945.563 -13844296 -13869618 -13915733 -13955297 -13985842 -14039611 
1945.925 -14168586 -14424177 -14826783 -15352617 -15932661 -16477063 
1946.286 -16904512 -17163434 -17250060 -17202002 -17081158 -16944346 
1946.648 -16829516 -16746253 -16683124 -16620146 -16543189 -16449502 
1947.010 -16343795 -16230850 -16108904 -15968112 -15795615 -15581876 
1947.372 -15325175 -15033755 -14723500 -14414881 -14129138 -13890285 
1947.734 -13723412 -13651141 -13688096 -13831490 -14055619 -14309160 
1948.095 -14528075 -14652804 -14643610 -14497665 -14248851 -13958954 
1948.457 -13691917 -13499850 -13407174 -13408234 -13474699 -13568453 
1948.819 -13656182 -13713748 -13730828 -13709511 -13662218 -13608723 
1949.181 -13573976 -13583996 -13656150 -13792332 -13972109 -14158612 
1949.543 -14305089 -14374494 -14355388 -14268378 -14159670 -14081313 
1949.905 -14075059 -14151684 -14289924 -14445459 -14574088 -14648352 
1950.266 -14668630 -14657578 -14647199 -14659083 -14692751 -14725646 
1950.628 -14725230 -14667637 -14549929 -14396772 -14251352 -14163807 
1950.990 -14168939 -14276458 -14465714 -14694256 -14906478 -15048414 
1951.352 -15084707 -15001971 -14815575 -14564220 -14305890 -14100559 
1951.714 -13994857 -14013240 -14149696 -14372666 -14635057 -14893511 
1952.075 -15117860 -15296643 -15433399 -15534115 -15596356 -15605562 
1952.437 -15538783 -15379705 -15131621 -14826431 -14516892 -14261965 
1952.799 -14109700 -14077111 -14148766 -14282774 -14431260 -14553999 
1953.161 -14630700 -14661967 -14660461 -14640920 -14610773 -14570371 
1953.523 -14515450 -14441933 -14348496 -14235415 -14101778 -13944419 
1953.885 -13761099 -13557437 -13353937 -13183932 -13090128 -13107360 
1954.246 -13246832 -13488544 -13782798 -14068643 -14289763 -14419817 
1954.608 -14467091 -14470938 -14479687 -14535926 -14659564 -14845547 
1954.970 -15070017 -15303488 -15523085 -15714323 -15870627 -15987307 
1955.332 -16056284 -16066661 -16009118 -15881777 -15692849 -15460994 
1955.694 -15210460 -14966056 -14753831 -14601867 -14539483 -14598599 
1956.055 -14804815 -15165475 -15660442 -16237903 -16822090 -17324154 
1956.417 -17671656 -17822772 -17776656 -17568632 -17257542 -16906648 
1956.779 -16563602 -16257789 -15998645 -15781939 -15598306 -15439123 
1957.141 -15300289 -15184225 -15101316 -15072513 -15129508 -15306431 
1957.503 -15631326 -16109798 -16714562 -17377382 -17999206 -18478634 
1957.865 -18728878 -18710122 -18440338 -17991988 -17468548 -16976562 
1958.226 -16604807 -16397720 -16355218 -16437378 -16583886 -16724413 
1958.588 -16797546 -16764520 -16612811 -16360229 -16048525 -15737588 
1958.950 -15485327 -15331891 -15290981 -15343630 -15446541 -15545177 
1959.312 -15596516 -15578104 -15494055 -15367809 -15231255 -15110885 
1959.674 -15019801 -14958501 -14919668 -14894952 -14879168 -14870714 
1960.035 -14869498 -14875454 -14889157 -14915186 -14965160 -15055135 
1960.397 -15200478 -15404522 -15651269 -15901964 -16105615 -16217539 
1960.759 -16213614 -16104978 -15934512 -15766665 -15661305 -15658779 
1961.121 -15769605 -15976800 -16245980 -16539361 -16825724 -17077432 
1961.483 -17267222 -17365540 -17338670 -17161428 -16829676 -16370887 
1961.844 -15840886 -15314075 -14866007 -14547654 -14379975 -14352087 
1962.206 -14435266 -14596964 -14815511 -15082723 -15395376 -15743021 
1962.568 -16098591 -16414598 -16637845 -16723489 -16651589 -16436996 
1962.930 -16126752 -15789064 -15487310 -15269388 -15150788 -15114021 
1963.292 -15113733 -15092324 -14999122 -14802510 -14504843 -14144532 
1963.654 -13791722 -13524517 -13411158 -13486488 -13737857 -14105979 
1964.015 -14501318 -14838727 -15056928 -15142084 -15124389 -15063233 
1964.377 -15015415 -15011766 -15047967 -15091811 -15104260 -15063456 
1964.739 -14980845 -14898378 -14872444 -14943872 -15120964 -15369216 
1965.101 -15626339 -15817212 -15884811 -15805997 -15593927 -15290181 
1965.463 -14948897 -14625639 -14363819 -14197031 -14148381 -14228458 
1965.824 -14432862 -14736216 -15094115 -15445422 -15731037 -15912410 
1966.186 -15982676 -15969837 -15925888 -15909152 -15958820 -16082404 
1966.548 -16251821 -16419448 -16535439 -16571894 -16532153 -16444301 
1966.910 -16342327 -16246682 -16158037 -16060563 -15937803 -15789319 
1967.272 -15641680 -15548565 -15580182 -15797116 -16237138 -16896450 
1967.634 -17726974 -18627758 -19461952 -20093738 -20420004 -20412196 
1967.995 -20111928 -19604496 -18975296 -18289372 -17590526 -16903970 
1968.357 -16250767 -15653091 -15132229 -14706812 -14384944 -14161210 
1968.719 -14016962 -13925776 -13861338 -13800549 -13727842 -13632357 
1969.081 -13503544 -13329003 -13093375 -12783885 -12398991 -11956866 
1969.443 -11501157 -11092805 -10806030 -10707120 -10836086 -11197472 
1969.804 -11753419 -12432897 -13139508 -13781001 -14283223 -14603212 
1970.166 -14737945 -14719176 -14603020 -14448503 -14307205 -14206299 
1970.528 -14144083 -14095010 -14022673 -13899399 -13720522 -13515042 
1970.890 -13340924 -13272446 -13369231 -13658397 -14117623 -14681987 
1971.252 -15255793 -15744330 -16086362 -16265225 -16313097 -16290916 
1971.614 -16267205 -16286768 -16356815 -16445577 -16498340 -16457031 
1971.975 -16280895 -15963003 -15531941 -15045278 -14571781 -14182440 
1972.337 -13933253 -13854309 -13948333 -14188405 -14523622 -14883041 
1972.699 -15195327 -15398734 -15453416 -15351081 -15112485 -14780925 
1973.061 -14404176 -14027325 -13681418 -13380636 -13129446 -12928575 
1973.423 -12781022 -12693984 -12677251 -12737940 -12878785 -13096751 
1973.784 -13385552 -13737216 -14144083 -14594561 -15070082 -15544377 
1974.146 -15981527 -16345168 -16608443 -16759833 -16808064 -16777016 
1974.508 -16698556 -16598269 -16491260 -16380172 -16260693 -16128954 
1974.870 -15985966 -15836636 -15683420 -15517843 -15319225 -15056128 
1975.232 -14701880 -14250293 -13727745 -13192547 -12723750 -12402952 
1975.594 -12282309 -12373519 -12639920 -13012253 -13401905 -13728580 
1975.955 -13941724 -14023474 -13990237 -13879598 -13740266 -13615659 
1976.317 -13537428 -13523265 -13575454 -13684180 -13830655 -13992964 
1976.679 -14149182 -14282357 -14385007 -14457765 -14508048 -14544578 
1977.041 -14572935 -14591486 -14591582 -14560695 -14488756 -14372923 
1977.403 -14221595 -14052892 -13893045 -13771211 -13712592 -13737248 
1977.764 -13855272 -14064793 -14350676 -14684967 -15030715 -15343918 
1978.126 -15585584 -15728416 -15763247 -15702341 -15577433 -15432951 
1978.488 -15312380 -15254097 -15281896 -15402923 -15609366 -15881712 
1978.850 -16193504 -16511004 -16798694 -17020722 -17141490 -17134578 
1979.212 -16985070 -16696164 -16290598 -15812675 -15323575 -14888901 
1979.573 -14576075 -14436740 -14496223 -14747169 -15147620 -15629120 
1979.935 -16105903 -16502552 -16767772 -16888386 -16890712 -16831430 
1980.297 -16777176 -16777782 -16853932 -16988256 -17135120 -17232958 
1980.659 -17229328 -17095748 -16833948 -16472183 -16056668 -15640657 
1981.021 -15270636 -14985487 -14812757 -14765777 -14842889 -15024121 
1981.383 -15273483 -15538719 -15764844 -15906820 -15937803 -15857913 
1981.744 -15689908 -15471642 -15239510 -15023129 -14840680 -14701431 
1982.106 -14612728 -14582290 -14614874 -14705819 -14832643 -14957637 
1982.468 -15032667 -15021017 -14914162 -14742365 -14566110 -14457958 
1982.830 -14473726 -14625991 -14877151 -15150116 -15364002 -15457157 
1983.192 -15416163 -15274507 -15096932 -14945184 -14850831 -14804848 
1983.553 -14766033 -14685094 -14531760 -14313456 -14075250 -13882743 
1983.915 -13790727 -13826291 -13975799 -14195171 -14423472 -14607762 
1984.277 -14716517 -14740347 -14688394 -14578830 -14435619 -14286204 
1984.639 -14165122 -14115538 -14177983 -14381289 -14724749 -15172162 
1985.001 -15650662 -16070845 -16355729 -16456744 -16372195 -16141118 
1985.363 -15828714 -15497317 -15191903 -14931738 -14715428 -14534260 
1985.724 -14385841 -14278349 -14226598 -14239713 -14309673 -14405875 
1986.086 -14483307 -14496831 -14415747 -14237564 -13988441 -13716894 
1986.448 -13473543 -13301207 -13223017 -13241208 -13343173 -13510738 
1986.810 -13728548 -13985681 -14275945 -14594338 -14931930 -15274987 
1987.172 -15605210 -15900016 -16137797 -16298544 -16366355 -16332403 
1987.533 -16195962 -15966516 -15663287 -15317529 -14968457 -14656617 
1987.895 -14421869 -14292938 -14284024 -14392797 -14602699 -14887652 
1988.257 -15218203 -15571742 -15933970 -16300524 -16673017 -17050384 
1988.619 -17421376 -17761900 -18034616 -18203432 -18248898 -18180204 
1988.981 -18034806 -17867356 -17733082 -17665324 -17670828 -17726466 
1989.343 -17791954 -17820102 -17774782 -17641178 -17425482 -17148656 
1989.704 -16834616 -16504275 -16170871 -15844623 -15539838 -15277610 
1990.066 -15087363 -14999859 -15034076 -15189920 -15442545 -15750114 
1990.428 -16060723 -16329562 -16530430 -16656723 -16719855 -16740322 
1990.790 -16741056 -16739175 -16744500 -16759451 -16780076 -16797834 
1991.152 -16799680 -16771885 -16700661 -16577603 -16401837 -16181789 
1991.513 -15932979 -15675239 -15431928 -15227512 -15089988 -15055776 
1991.875 -15166915 -15473049 -16019689 -16831174 -17879758 -19054648 
1992.237 -20165862 -20968570 -21274114 -21037328 -20367998 -19461730 
1992.599 -18517150 -17692270 -17070900 -16678406 -16488325 -16441621 
1992.961 -16460316 -16469248 -16415715 -16270459 -16032815 -15724262 
1993.323 -15385942 -15070178 -14830434 -14714275 -14744671 -14913330 
1993.684 -15176738 -15471578 -15729504 -15902124 -15978971 -15986923 
1994.046 -15976831 -15997238 -16075347 -16200654 -16329307 -16395550 
1994.408 -16341880 -16135754 -15781939 -15318265 -14805008 -14309256 
1994.770 -13885471 -13574009 -13395898 -13353680 -13435092 -13614214 
1995.132 -13855272 -14114960 -14353337 -14543776 -14680642 -14781245 
1995.493 -14879168 -15009718 -15191007 -15413924 -15639156 -15813537 
1995.855 -15882159 -15813665 -15610741 -15310141 -14969802 -14649025 
1996.217 -14395810 -14231247 -14152999 -14142223 -14177437 -14242085 
1996.579 -14328685 -14436645 -14565052 -14707837 -14851023 -14973290 
1996.941 -15052255 -15070274 -15018008 -14897417 -14721193 -14511252 
1997.302 -14293194 -14094144 -13938772 -13842980 -13813356 -13843654 
1997.664 -13917144 -14007433 -14085996 -14127823 -14115538 -14044423 
1998.026 -13921509 -13765337 -13598897 -13447203 -13331669 -13266019 
1998.388 -13255767 -13298797 -13388444 -13517066 -13680038 -13877031 
1998.750 -14110630 -14381097 -14680546 -14987087 -15266798 -15478069 
1999.112 -15581684 -15557197 -15410726 -15179265 -14917972 -14691053 
1999.473 -14548102 -14508400 -14558804 -14659340 -14761837 -14824061 
1999.835 -14828032 -14781982 -14715845 -14664177 -14654022 -14692206 
2000.197 -14764368 -14840232 -14887204 -14883874 -14826015 -14728753 
2000.559 -14617341 -14520449 -14457958 -14436997 -14453022 -14495454 
2000.921 -14553358 -14618878 -14688394 -14757129 -14814262 -14842249 
2001.282 -14816504 -14715941 -14533619 -14285018 -14009102 -13759334 
2001.644 -13591736 -13541733 -13613251 -13773265 -13965179 -14122530 
2002.006 -14193183 -14158099 -14034061 -13866890 -13710634 -13614150 
2002.368 -13603521 -13680615 -13830495 -14033259 -14272931 -14539034 
2002.730 -14822075 -15103781 -15350410 -15519793 -15569281 -15476246 
2003.092 -15251602 -14945984 -14637044 -14404593 -14311308 -14375840 
2003.453 -14569474 -14821756 -15049758 -15178273 -15161027 -14992401 
2003.815 -14703673 -14351798 -13998579 -13705016 -13516392 -13458285 
2004.177 -13537685 -13743026 -14047727 -14412029 -14793511 -15152324 
2004.539 -15457733 -15694639 -15859190 -15954219 -15979290 -15925026 
2004.901 -15772225 -15500003 -15095140 -14565470 -13944772 -13294973 
2005.262 -12690220 -12203774 -11895487 -11795697 -11904868 -12194625 
2005.624 -12618710 -13118355 -13634636 -14120862 -14544385 -14893576 
2005.986 -15175906 -15413092 -15629822 -15842674 -16052037 -16239181 
2006.348 -16372034 -16416704 -16354963 -16193856 -15969837 -15736436 
2006.710 -15554064 -15467102 -15489356 -15602366 -15761457 -15914006 
2007.072 -16012631 -16033709 -15980568 -15880818 -15772386 -15693935 
2007.433 -15671628 -15711768 -15801046 -15911803 -16012376 -16074292 
2007.795 -16082563 -16039360 -15962301 -15876984 -15806733 -15763950 
2008.157 -15743818 -15726946 -15687160 -15605402 -15476566 -15312796 
2008.519 -15135237 -14965544 -14813301 -14673979 -14534228 -14386258 
2008.881 -14241444 -14137764 -14129138 -14268538 -14582098 -15050527 
2009.242 -15605051 -16143385 -16568227 -16810010 -16857312 -16754765 
2009.604 -16590551 -16458530 -16426532 -16519425 -16715072 -16959832 
2009.966 -17191462 -17365826 -17463774 -17491716 -17468930 -17415518 
2010.328 -17341154 -17242894 -17107852 -16919648 -16665587 -16339488 
2010.690 -15945947 -15502145 -15041052 -14606704 -14253115 -14033003 
2011.052 -13980355 -14102163 -14369878 -14728593 -15106533 -15440306 
2011.413 -15694192 -15865387 -15981272 -16081829 -16202250 -16354389 
2011.775 -16523924 -16675599 -16771151 -16780906 -16694443 -16520925 
2012.137 -16283162 -16007490 -15716081 -15427930 -15158371 -14923031 
2012.499 -14741692 -14633904 -14616188 -14697171 -14873660 -15129381 
2012.861 -15435957 -15757846 -16051335 -16270874 -16377524 -16343348 
2013.222 -16164072 -15863886 -15499811 -15147109 -14885059 -14778202 
2013.584 -14854224 -15098532 -15455591 -15849479 -16194493 -16417757 
2013.946 -16475119 -16351102 -16062319 -15650759 -15183808 -14739354 
2014.308 -14395009 -14215470 -14230413 -14425715 -14741820 -15095011 
2014.670 -15397295 -15590219 -15666099 -15669646 -15677765 -15761105 
2015.031 -15956679 -16242884 -16548038 -16770098 -16823844 -16668329 
2015.393 -16323181 -15854558 -15352425 -14896777 -14531825 -14267320 
2015.755 -14088594 -13977821 -13928439 -13950131 -14058474 -14259560 
2016.117 -14538169 -14855698 -15159619 -15406217 -15573149 -15667282 
2016.479 -15717359 -15762543 -15836030 -15955273 -16123815 -16336871 
2016.841 -16590105 -16880258 -17203246 -17543876 -17866498 -18118714 
2017.202 -18240734 -18188878 -17958642 -17587886 -17140598 -16676683 
2017.564 -16237298 -15835103 -15463488 -15110468 -14772374 -14460426 
2017.926 -14198923 -14012503 -13914192 -13896350 -13933638 -13991649 
2018.288 -14043782 -14085227 -14137604 -14242534 -14442830 -14767026 
2018.650 -15208317 -15722057 -16225616 -16626716 -16846570 -16841822 
2019.011 -16619412 -16231425 -15762001 -15297091 -14911473 -14647263 
2019.373 -14507503 -14460714 -14457477 -14452670 -14419305 -14359941 
2019.735 -14301145 -14280914 -14328652 -14455169 -14647166 -14874909 
2020.097 -15101764 -15296739 -15442672 -15533796 -15571231 -15556398 
2020.459 -15488076 -15365122 -15193024 -14989648 -14783680 -14607922 
2020.821 -14487057 -14424497 -14398566 -14366128 -14281459 -14109476 
2021.182 -13843526 -13509229 -13161110 -12865822 -12683365 -12658329 
2021.544 -12807049 -13120573 -13567328 -14103478 -14676542 -15230999 
2021.906 -15718479 -16097186 -16339010 -16432498 -16381256 -16201228 
2022.268 -15914166 -15545465 -15119621 -14662287 -14204407 -13780231 
2022.630 -13427478 -13180685 -13060774 -13071191 -13194957 -13403062 
2022.991 -13659104 -13930846 -14195684 -14436836 -14640856 -14792646 
2023.353 -14874557 -14873437 -14788290 -14639318 -14464240 -14312751 
2023.715 -14229869 -14237179 -14328300 -14469719 -14618430 -14735799 
2024.077 -14807409 -14846284 -14887844 -14970441 -15118212 -15328533 
2024.439 -15571550 -15798554 -15957318 -16012855 -15953133 -15793057 
2024.801 -15566404 -15319289 -15098020 -14939197 -14868794 -14896713 
2025.162 -15017016 -15208957 -15442257 -15680160 -15885768 -16030068 
2025.524 -16092939 -16065162 -15947098 -15746471 -15478516 -15164675 
2025.886 -14837446 -14536215 -14302395 -14172691 -14165251 -14273700 
2026.248 -14466611 -14700213 -14930489 -15129669 -15295587 -15446797 
2026.610 -15609302 -15797595 -16002189 -16187087 -16303012 -16304385 
2026.971 -16174447 -15935024 -15647113 -15386902 -15227256 -15212860 
2027.333 -15345004 -15583570 -15858488 -16096229 -16230660 -16224882 
2027.695 -16075186 -15809895 -15479316 -15143365 -14862006 -14676734 
2028.057 -14604654 -14632687 -14723628 -14823869 -14879808 -14857939 
2028.419 -14750403 -14578766 -14381097 -14199404 -14059885 -13965821 
2028.781 -13899816 -13837332 -13763057 -13683826 -13628889 -13641090 
2029.142 -13757729 -13989596 -14311725 -14664337 -14974283 -15170626 
2029.504 -15213564 -15104516 -14886724 -14627784 -14400425 -14265171 
2029.866 -14251544 -14357889 -14554607 -14798666 -15042109 -15245396 
2030.228 -15385495 -15456006 -15467037 -15438898 -15398190 -15367649 
2030.590 -15361668 -15382648 -15421759 -15462178 -15484975 -15476278 
2030.951 -15430713 -15352329 -15251506 -15141861 -15035772 -14940926 
2031.313 -14862934 -14804655 -14768884 -14757514 -14769492 -14797866 
2031.675 -14826911 -14834980 -14797161 -14692270 -14511284 -14261131 
2032.037 -13965725 -13659392 -13383047 -13172360 -13050581 -13027816 
2032.399 -13099516 -13252745 -13470684 -13739656 -14051609 -14403278 
2032.760 -14793639 -15217499 -15659291 -16091598 -16472438 -16753808 
2033.122 -16893708 -16864546 -16666831 -16331254 -15918160 -15499970 
2033.484 -15149028 -14922390 -14846540 -14919733 -15114789 -15393426 
2033.846 -15711321 -16027290 -16305661 -16510526 -16608283 -16571447 
2034.208 -16385054 -16057817 -15627937 -15162339 -14736503 -14420138 
2034.570 -14253308 -14233300 -14316309 -14434529 -14525352 -14549096 
2034.931 -14505773 -14429209 -14371128 -14372570 -14445106 -14563066 
2035.293 -14674844 -14721001 -14658411 -14480007 -14216336 -13927285 
2035.655 -13676474 -13517259 -13473446 -13536561 -13671433 -13831201 
2036.017 -13973457 -14070407 -14119162 -14141967 -14180709 -14281363 
2036.379 -14481802 -14794311 -15196031 -15626881 -16002445 -16241383 
2036.740 -16284438 -16122121 -15798904 -15407145 -15051583 -14820154 
2037.102 -14756809 -14847437 -15030171 -15220122 -15348012 -15376411 
2037.464 -15312476 -15193823 -15069057 -14970345 -14900651 -14834019 
2037.826 -14731763 -14562714 -14319483 -14024533 -13724535 -13475888 
2038.188 -13322704 -13287935 -13365857 -13526894 -13722866 -13901453 
2038.550 -14020074 -14052443 -14000472 -13894874 -13794996 -13771307 
2038.911 -13891120 -14196999 -14689707 -15324343 -16017901 -16680287 
2039.273 -17230410 -17624762 -17864272 -17984296 -18032168 -18042054 
2039.635 -18020980 -17947482 -17786834 -17513008 -17130022 -16680032 
2039.997 -16236341 -15876409 -15664853 -15628736 -15751872 -15978588 
2040.359 -16233308 -16442610 -16546346 -16513493 -16341977 -16054625 
2040.720 -15689973 -15295331 -14918773 -14597509 -14355805 -14199404 
2041.082 -14117463 -14087087 -14084328 -14094849 -14119771 -14177084 
2041.444 -14292969 -14490775 -14774840 -15120260 -15468349 -15742732 
2041.806 -15862545 -15769638 -15448716 -14932538 -14295598 -13632903 
2042.168 -13051031 -12640500 -12461232 -12537370 -12850574 -13345775 
2042.530 -13940505 -14549256 -15094532 -15523150 -15816860 -15989607 
2042.891 -16079530 -16132658 -16192865 -16287278 -16422894 -16589658 
2043.253 -16768856 -16943422 -17104254 -17253880 -17401354 -17553870 
2043.615 -17707380 -17839914 -17913018 -17883638 -17714474 -17392250 
2043.977 -16935042 -16395997 -15850022 -15376987 -15049471 -14910832 
2044.339 -14971497 -15209468 -15582035 -16032526 -16500957 -16933416 
2044.700 -17277888 -17489426 -17535412 -17398616 -17087976 -16640237 
2045.062 -16120525 -15605114 -15166978 -14861237 -14710335 -14707325 
2045.424 -14822620 -15018872 -15256369 -15498468 -15712885 -15864749 
2045.786 -15921386 -15860405 -15680833 -15412965 -15118821 -14884163 
2046.148 -14786785 -14876862 -15155268 -15572445 -16039712 -16456775 
2046.510 -16747495 -16870920 -16831972 -16667245 -16431253 -16173393 
2046.871 -15929976 -15726563 -15580597 -15508220 -15523949 -15633019 
2047.233 -15824305 -16064459 -16306363 -16496459 -16593644 -16582673 
2047.595 -16475437 -16304480 -16107563 -15916690 -15746184 -15594566 
2047.957 -15449899 -15298530 -15128965 -14932538 -14701784 -14427510 
2048.319 -14102612 -13728227 -13322383 -12923557 -12584657 -12367400 
2048.680 -12320799 -12469313 -12805633 -13293270 -13872635 -14472027 
2049.042 -15025018 -15471098 -15765835 -15888292 -15842482 -15662391 
2049.404 -15404970 -15145509 -14953603 -14874268 -14915923 -15047774 
2049.766 -15213531 -15352073 -15426683 -15434358 -15405194 -15379866 
2050.128 -15388981 -15430361 -15468732 -15448396 -15323032 -15081858 
2050.490 -14761133 -14433279 -14182216 -14074513 -14130902 -14323299 
2050.851 -14585687 -14844971 -15038621 -15134021 -15127717 -15031259 
2051.213 -14854833 -14598310 -14252089 -13809985 -13283083 -12711394 
2051.575 -12156188 -11690981 -11381038 -11261855 -11336042 -11574819 
2051.937 -11934043 -12366338 -12835165 -13318720 -13803181 -14275207 
2052.299 -14715140 -15092611 -15373949 -15529288 -15542268 -15417474 
2052.660 -15181569 -14880000 -14563066 -14281555 -14073262 -13956612 
2053.022 -13930526 -13976698 -14067392 -14169869 -14256353 -14307910 
2053.384 -14315284 -14279503 -14210500 -14125577 -14047150 -14003936 
2053.746 -14026747 -14141421 -14362793 -14684486 -15075618 -15477940 
2054.108 -15820280 -16033964 -16069153 -15914742 -15601758 -15200063 
2054.469 -14791941 -14458118 -14252057 -14186577 -14237083 -14351798 
2054.831 -14475584 -14563099 -14597702 -14591582 -14579919 -14603052 
2055.193 -14690700 -14850383 -15063425 -15289477 -15479731 -15595334 
2055.555 -15615343 -15544665 -15408520 -15244212 -15085123 -14950979 
2055.917 -14846284 -14764176 -14696659 -14646173 -14629099 -14673691 
2056.279 -14808754 -15046302 -15370144 -15730685 -16058009 -16272470 
2056.640 -16313830 -16160527 -15838329 -15415427 -14984238 -14643771 
2057.002 -14464720 -14478597 -14668277 -14977996 -15324439 -15619946 
2057.364 -15797850 -15817979 -15676837 -15400845 -15039260 -14647904 
2057.726 -14277195 -13967072 -13739527 -13601369 -13545458 -13555607 
2058.088 -13607182 -13670438 -13717151 -13722673 -13675414 -13581845 
2058.449 -13469913 -13384042 -13372733 -13479357 -13723572 -14096261 
2058.811 -14558163 -15054559 -15525995 -15924131 -16224435 -16422544 
2059.173 -16528198 -16551321 -16493078 -16340477 -16072888 -15670542 
2059.535 -15129189 -14468438 -13736445 -12999390 -12334583 -11818526 
2059.897 -11507965 -11437261 -11609241 -11995222 -12534055 -13140954 
2060.259 -13723572 -14187571 -14463021 -14517405 -14364172 -14061425 
2060.620 -13701452 -13395094 -13237897 -13297190 -13592377 -14090936 
2060.982 -14712674 -15348331 -15888963 -16236851 -16333137 -16164519 
2061.344 -15764844 -15205054 -14580624 -13997681 -13543499 -13279515 
2061.706 -13227998 -13370741 -13655154 -14006953 -14352888 -14629003 
2062.068 -14798955 -14857907 -14829633 -14755816 -14682564 -14650210 
2062.429 -14680962 -14778747 -14931226 -15118660 -15319034 -15512887 
2062.791 -15685817 -15825167 -15919661 -15960319 -15943009 -15873119 
2063.153 -15767209 -15652165 -15554800 -15493512 -15469244 -15463840 
2063.515 -15446413 -15386742 -15271212 -15110533 -14938077 -14795592 
2063.877 -14718086 -14716742 -14775481 -14858291 -14929177 -14969481 
2064.239 -14986767 -15009462 -15070113 -15183585 -15331827 -15462881 
2064.600 -15507611 -15411494 -15155524 -14774584 -14346893 -13979618 
2064.962 -13769831 -13780937 -14030340 -14486416 -15076962 -15704993 
2065.324 -16277831 -16719248 -16984718 -17066568 -16985546 -16783808 
2065.686 -16511101 -16222391 -15964407 -15769638 -15653986 -15614863 
2066.048 -15636759 -15699655 -15787818 -15892701 -16010683 -16137797 
2066.409 -16263438 -16368685 -16432114 -16434411 -16367152 -16233245 
2066.771 -16043959 -15811589 -15545465 -15253649 -14948993 -14658539 
2067.133 -14429529 -14316726 -14371288 -14612824 -15014007 -15493160 
2067.495 -15935151 -16228903 -16295353 -16124325 -15775740 -15368001 
2067.857 -15029659 -14867096 -14932122 -15208957 -15624452 -16072026 
2068.219 -16450936 -16678883 -16714754 -16558403 -16243618 -15824560 
2068.580 -15361444 -14914162 -14527114 -14226533 -14018309 -13890862 
2068.942 -13821926 -13789539 -13782189 -13803310 -13868045 -13994504 
2069.304 -14193793 -14460778 -14773527 -15097860 -15400173 -15656350 
2069.666 -15855964 -16001455 -16100187 -16157400 -16171701 -16137447 
2070.028 -16051719 -15921641 -15769541 -15628576 -15532325 -15504447 
2070.389 -15546711 -15634872 -15720908 -15748229 -15664628 -15438323 
2070.751 -15071265 -14603821 -14110599 -13680520 -13405182 -13350499 
2071.113 -13537589 -13935403 -14464912 -15019576 -15483216 -15770053 
2071.475 -15838744 -15701892 -15414116 -15057376 -14716998 -14457829 
2071.837 -14323779 -14334166 -14489717 -14778427 -15177761 -15655041 
2072.198 -16162347 -16644062 -17043724 -17312848 -17426660 -17386234 
2072.560 -17216270 -16952216 -16631370 -16283162 -15927581 -15583538 
2072.922 -15274891 -15032059 -14888805 -14866904 -14963431 -15142469 
2073.284 -15344333 -15500162 -15556621 -15499203 -15358469 -15202430 
2073.646 -15106916 -15135908 -15313435 -15617453 -15985359 -16338179 
2074.008 -16605731 -16741917 -16737325 -16613577 -16410515 -16166210 
2074.369 -15907809 -15644526 -15370463 -15074210 -14750980 -14409978 
2074.731 -14080126 -13804979 -13630398 -13597580 -13727232 -14015262 
2075.093 -14432189 -14932186 -15459396 -15956519 -16377268 -16683187 
2075.455 -16848960 -16864322 -16737485 -16500095 -16205825 -15931670 
2075.817 -15756857 -15743244 -15915763 -16246235 -16655128 -17026010 
2076.178 -17248912 -17243402 -16989466 -16529441 -15955817 -15377307 
2076.540 -14881440 -14522692 -14311372 -14227238 -14237564 -14315476 
2076.902 -14444240 -14612728 -14805712 -14993105 -15130021 -15170978 
2077.264 -15081283 -14855602 -14520706 -14131831 -13753203 -13437758 
2077.626 -13219449 -13105624 -13085659 -13142112 -13262098 -13440425 
2077.988 -13676731 -13968933 -14305602 -14664177 -15015319 -15328213 
2078.349 -15578839 -15754811 -15853919 -15881328 -15845934 -15759796 
2078.711 -15638005 -15502720 -15384982 -15318746 -15337072 -15459843 
2079.073 -15684156 -15979482 -16289672 -16548675 -16689597 -16667021 
2079.435 -16468195 -16116694 -15664054 -15177025 -14721578 -14341059 
2079.797 -14052603 -13846607 -13699076 -13584992 -13493972 -13435028 
2080.158 -13434128 -13519571 -13704855 -13976056 -14289122 -14577292 
2080.520 -14765136 -14796297 -14645468 -14327145 -13888712 -13401262 
2080.882 -12940378 -12566599 -12322603 -12225262 -12269200 -12432157 
2081.244 -12683012 -12987621 -13310141 -13619031 -13884958 -14079261 
2081.606 -14176699 -14153481 -13992515 -13690569 -13265762 -12763423 
2081.968 -12249840 -11809949 -11521227 -11432969 -11552073 -11837615 
2082.329 -12211313 -12577834 -12862605 -13026530 -13078618 -13062542 
2082.691 -13038620 -13054954 -13129446 -13248214 -13375818 -13475535 
2083.053 -13523426 -13518319 -13476594 -13422498 -13373086 -13334755 
2083.415 -13303714 -13274373 -13245611 -13222181 -13208456 -13200453 
2083.777 -13179336 -13117004 -12987781 -12788293 -12550762 -12346403 
2084.138 -12262822 -12379058 -12733692 -13302910 -13998065 -14686151 
2084.500 -15237526 -15551411 -15594758 -15405386 -15080066 -14737496 
2084.862 -14479591 -14371032 -14419593 -14584277 -14790788 -14963079 
2085.224 -15038813 -14986607 -14810803 -14546981 -14249941 -13976698 
2085.586 -13778497 -13686363 -13706300 -13818813 -13984141 -14150369 
2085.948 -14262671 -14280370 -14184171 -13984334 -13717793 -13444889 
2086.309 -13234716 -13144908 -13213278 -13443476 -13806776 -14245837 
2086.671 -14692974 -15086019 -15378043 -15549652 -15606201 -15572541 
2087.033 -15480882 -15364611 -15251922 -15161507 -15105925 -15090980 
2087.395 -15116260 -15176417 -15261039 -15357862 -15455686 -15549077 
2087.757 -15639827 -15734360 -15837627 -15944958 -16034922 -16073432 
2088.118 -16016815 -15828459 -15493608 -15029050 -14483660 -13926675 
2088.480 -13437147 -13077107 -12879750 -12841793 -12928125 -13081286 
2088.842 -13237319 -13347960 -13387994 -13364251 -13310655 -13281219 
2089.204 -13331220 -13497345 -13786619 -14167688 -14577997 -14933082 
2089.566 -15157412 -15201310 -15056384 -14756777 -14370230 -13978174 
2089.927 -13648411 -13428120 -13333823 -13357696 -13477718 -13668736 
2090.289 -13909732 -14181189 -14465329 -14741660 -14987951 -15187232 
2090.651 -15332275 -15431064 -15502816 -15573693 -15666323 -15792770 
2091.013 -15954124 -16142139 -16344560 -16547399 -16736783 -16897086 
2091.375 -17007882 -17048250 -17000970 -16862856 -16651174 -16406590 
2091.737 -16185779 -16042043 -16014995 -16114300 -16320277 -16589785 
2092.098 -16874106 -17133908 -17346024 -17507120 -17626002 -17715778 
2092.460 -17784958 -17836002 -17865418 -17867294 -17835112 -17763044 
2092.822 -17646682 -17483664 -17276838 -17037418 -16786580 -16550398 
2093.184 -16352348 -16203048 -16093483 -15995611 -15870690 -15688661 
2093.546 -15437620 -15133189 -14809747 -14510996 -14268891 -14095042 
2093.907 -13982024 -13916503 -13895388 -13938194 -14082788 -14371769 
2094.269 -14827776 -15432951 -16121227 -16788876 -17330424 -17659058 
2094.631 -17738044 -17584256 -17257064 -16830282 -16366037 -15902571 
2094.993 -15448363 -14995602 -14536663 -14077881 -13644366 -13274535 
2095.355 -13004921 -12860450 -12845041 -12943144 -13124720 -13356315 
2095.717 -13610297 -13865991 -14113196 -14347182 -14565662 -14764784 
2096.078 -14937692 -15072513 -15156387 -15176225 -15124708 -15003796 
2096.440 -14826623 -14616123 -14398182 -14196839 -14025624 -13885857 
2096.802 -13769927 -13669635 -13583643 -13523490 -13510128 -13567393 
2097.164 -13709061 -13930526 -14205241 -14492569 -14752422 -14956389 
2097.526 -15099332 -15199007 -15288933 -15402827 -15564198 -15779095 
2097.887 -16035721 -16309714 -16570523 -16789926 -16941670 -17003518 
2098.249 -16958654 -16795346 -16512791 -16123878 -15658300 -15158179 
2098.611 -14671224 -14244682 -13912299 -13692430 -13586598 -13582198 
2098.973 -13656054 -13779909 -13926386 -14070952 -14198442 -14306403 
2099.335 -14406292 -14519360 -14667541 -14862582 -15094308 -15326870 
2099.697 -15502816 -15565061 -15472090 -15220218 -14846732 -14425619 
2100.058 -14042530 -13764951 -13626705 -13613540 -13674001 -13735354 
2100.420 -13736220 -13643210 -13461594 -13228127 -12999036 -12830791 
2100.782 -12762618 -12815735 -12991995 -13282311 -13670309 -14136867 
2101.144 -14659179 -15206205 -15740335 -16219679 -16602000 -16857406 
2101.506 -16971400 -16948902 -16810360 -16588001 -16318586 -16034666 
2101.867 -15765835 -15534339 -15355367 -15238293 -15186464 -15197983 
2102.229 -15267693 -15390931 -15564166 -15785581 -16051974 -16353082 
2102.591 -16664153 -16946608 -17145822 -17205124 -17082942 -16766082 
2102.953 -16284311 -15708892 -15148516 -14715268 -14504330 -14568578 
2103.315 -14901804 -15439955 -16073495 -16683061 -17154962 -17413928 
2103.677 -17438788 -17259228 -16944698 -16579421 -16247224 -16004743 
2104.038 -15875164 -15848681 -15892286 -15962172 -16017167 -16031185 
2104.400 -15993120 -15904168 -15770404 -15595717 -15378106 -15111429 
2104.762 -14790309 -14417285 -14006953 -13586758 -13189525 -12848259 
2105.124 -12590193 -12432093 -12384951 -12458012 -12660485 -13001384 
2105.486 -13480064 -14077400 -14744062 -15404970 -15971946 -16359719 
2105.847 -16518947 -16449247 -16206464 -15881009 -15579127 -15388789 
2106.209 -15351721 -15459204 -15657756 -15876185 -16043704 -16116790 
2106.571 -16085373 -15967092 -15792994 -15594022 -15392658 -15199167 
2106.933 -15017624 -14850639 -14702167 -14576940 -14475744 -14393053 
2107.295 -14316662 -14233267 -14135263 -14026939 -13924717 -13852063 
2107.656 -13831844 -13875780 -13980355 -14127694 -14293225 -14452413 
2108.018 -14587929 -14692718 -14766482 -14811348 -14828929 -14819129 
2108.380 -14783039 -14727247 -14667572 -14627337 -14634192 -14714467 
2108.742 -14882945 -15139333 -15463840 -15821621 -16163817 -16436899 
2109.104 -16594442 -16602160 -16449342 -16151207 -15749378 -15300034 
2109.466 -14862358 -14486512 -14199853 -14007177 -13895195 -13843943 
2109.827 -13836658 -13866890 -13937617 -14053309 -14211302 -14396708 
2110.189 -14581233 -14734006 -14832227 -14869594 -14859187 -14826431 
2110.551 -14798506 -14789636 -14796649 -14799692 -14773719 -14698869 
2110.913 -14572070 -14408887 -14240226 -14100078 -14014812 -13996718 
2111.275 -14041311 -14131286 -14242470 -14353337 -14448247 -14521442 
2111.636 -14577485 -14629804 -14696979 -14796104 -14937020 -15115589 
2111.998 -15311772 -15491658 -15619530 -15669519 -15637366 -15543515 
2112.360 -15428922 -15340559 -15310237 -15344429 -15418625 -15490474 
2112.722 -15513303 -15459236 -15330612 -15159908 -14994801 -14878015 
2113.084 -14831618 -14845643 -14882945 -14892647 -14832418 -14679393 
2113.446 -14439048 -14138919 -13820963 -13526187 -13283469 -13107553 
2113.807 -12997525 -12942758 -12926838 -12934557 -12954818 -12983151 
2114.169 -13022543 -13082090 -13173035 -13303650 -13474250 -13674997 
2114.531 -13889033 -14096453 -14284730 -14452958 -14612759 -14782078 
2114.893 -14975308 -15195359 -15430680 -15659483 -15860949 -16027194 
2115.255 -16168669 -16310766 -16479520 -16688257 -16924048 -17149260 
2115.616 -17311004 -17365890 -17299064 -17134958 -16929720 -16756104 
2115.978 -16679330 -16729739 -16896002 -17124864 -17343096 -17472622 
2116.340 -17455498 -17267032 -16915188 -16434602 -15873471 -15286502 
2116.702 -14720745 -14213771 -13793070 -13473479 -13261423 -13156610 
2117.064 -13155002 -13250496 -13435092 -13697343 -14016513 -14359652 
2117.426 -14684614 -14941182 -15088676 -15108133 -15013367 -14850286 
2117.787 -14689515 -14606512 -14653605 -14846828 -15157412 -15524428 
2118.149 -15867624 -16116535 -16230276 -16199984 -16048046 -15812740 
2118.511 -15536769 -15254001 -14989615 -14764976 -14601611 -14525063 
2118.873 -14560952 -14723692 -15007413 -15380058 -15788777 -16166370 
2119.235 -16453585 -16612716 -16634943 -16539425 -16363993 -16151302 
2119.596 -15932916 -15725892 -15532421 -15347180 -15166307 -14994161 
2119.958 -14843626 -14733013 -14676734 -14679008 -14729553 -14805743 
2120.320 -14878911 -14921461 -14917139 -14863734 -14774488 -14672441 
2120.682 -14586456 -14543393 -14561400 -14648160 -14798346 -14996498 
2121.044 -15217818 -15435605 -15626626 -15774781 -15877208 -15943998 
2121.406 -15995355 -16051974 -16127581 -16218498 -16303075 -16343413 
2121.767 -16298831 -16143735 -15877271 -15531782 -15164067 -14845195 
2122.129 -14632110 -14552685 -14594017 -14709022 -14828608 -14885219 
2122.491 -14837926 -14679905 -14440747 -14171729 -13932900 -13772334 
2122.853 -13715578 -13766203 -13908576 -14116821 -14357952 -14599304 
2123.215 -14805104 -14938589 -14968553 -14874141 -14656233 -14341315 
2123.576 -13985040 -13660452 -13438721 -13377873 -13501713 -13796954 
2123.938 -14215983 -14695025 -15168322 -15583474 -15914358 -16157079 
2124.300 -16325798 -16439484 -16515248 -16561432 -16578527 -16562996 
2124.662 -16512057 -16427360 -16314756 -16180927 -16030291 -15862385 
2125.024 -15673289 -15459108 -15222074 -14973611 -14735863 -14536022 
2125.385 -14396067 -14326087 -14317367 -14345963 -14379975 -14396451 
2125.747 -14392701 -14392957 -14440298 -14582547 -14850190 -15236407 
2126.109 -15689461 -16120780 -16435655 -16553428 -16442386 -16130358 
2126.471 -15701989 -15268653 -14935291 -14773591 -14797546 -14967049 
2126.833 -15202622 -15420767 -15553201 -15568002 -15471994 -15300673 
2127.195 -15100228 -14906734 -14740347 -14600361 -14472444 -14337821 
2127.556 -14185006 -14013465 -13834667 -13666938 -13529913 -13438593 
2127.918 -13399657 -13410708 -13462139 -13541443 -13634412 -13729222 
2128.280 -13817497 -13893526 -13954141 -13998354 -14027325 -14045803 
2128.642 -14061938 -14088691 -14139657 -14225956 -14349618 -14500613 
2129.004 -14653958 -14775673 -14832931 -14802958 -14685191 -14504394 
2129.365 -14309000 -14155405 -14095042 -14159189 -14348175 -14631501 
2129.727 -14953539 -15252850 -15469436 -15562695 -15518258 -15348267 
2130.089 -15086819 -14780188 -14480135 -14229163 -14054496 -13964216 
2130.451 -13947179 -13978463 -14027132 -14069156 -14090198 -14090744 
2130.813 -14079710 -14068290 -14061072 -14052411 -14028832 -13978366 
2131.175 -13900041 -13812136 -13748804 -13753299 -13862686 -14091353 
2131.536 -14425362 -14822620 -15228952 -15587565 -15857913 -16022148 
2131.898 -16082818 -16054433 -15954379 -15796795 -15591018 -15346476 
2132.260 -15078562 -14808306 -14562169 -14363403 -14223294 -14138855 
2132.622 -14094240 -14069156 -14047438 -14024982 -14010386 -14019175 
2132.984 -14063125 -14141069 -14234518 -14312559 -14339455 -14287808 
2133.345 -14151043 -13947339 -13718339 -13517002 -13400267 -13410708 
2133.707 -13566237 -13855016 -14236634 -14650723 -15026458 -15306335 
2134.069 -15455782 -15475223 -15397583 -15280745 -15188384 -15165827 
2134.431 -15231255 -15366658 -15528936 -15661050 -15716273 -15671564 
2134.793 -15532773 -15330132 -15106533 -14906607 -14762318 -14693648 
2135.155 -14707869 -14802510 -14966504 -15179521 -15412517 -15625443 
2135.516 -15777530 -15838841 -15800534 -15683070 -15532517 -15408168 
2135.878 -15355015 -15388693 -15481139 -15571486 -15580149 -15441457 
2136.240 -15129860 -14670071 -14131479 -13603713 -13175864 -12903520 
2136.602 -12798846 -12831692 -12948129 -13087749 -13201482 -13262933 
2136.964 -13263704 -13207203 -13101219 -12955558 -12784272 -12609054 
2137.325 -12464290 -12390587 -12425041 -12590547 -12882999 -13270132 
2137.687 -13695320 -14098570 -14427510 -14653125 -14774872 -14814679 
2138.049 -14804559 -14770741 -14727600 -14673498 -14597990 -14491672 
2138.411 -14356446 -14209313 -14081120 -14004546 -14005573 -14091738 
2138.773 -14248786 -14441036 -14620577 -14742653 -14773431 -14702520 
2139.135 -14545186 -14340770 -14140267 -13994312 -13942976 -14001370 
2139.496 -14158515 -14377924 -14611158 -14805904 -14921621 -14940349 
2139.858 -14868761 -14735606 -14581298 -14450362 -14377539 -14381481 
2140.220 -14462925 -14604526 -14775577 -14936476 -15050462 -15087811 
2140.582 -15034460 -14896072 -14697555 -14477443 -14275496 -14125417 
2140.944 -14042113 -14020266 -14037429 -14066429 -14086735 -14094112 
2141.305 -14102259 -14137348 -14225251 -14377443 -14584085 -14813974 
2141.667 -15025370 -15175777 -15236855 -15200862 -15079523 -14897353 
2142.029 -14682757 -14464784 -14266037 -14105626 -13999317 -13957318 
2142.391 -13981574 -14061842 -14176988 -14297586 -14397830 -14466419 
2142.753 -14512406 -14562105 -14646654 -14786081 -14972938 -15168130 
2143.115 -15307390 -15328181 -15187712 -14885508 -14464175 -14002493 
2143.476 -13588717 -13291502 -13149601 -13161945 -13299600 -13518415 
2143.838 -13778497 -14050390 -14313071 -14550987 -14745760 -14875005 
2144.200 -14919220 -14868697 -14730610 -14528012 -14295983 -14067039 
2144.562 -13861595 -13685335 -13531391 -13389022 -13252103 -13122019 
2144.924 -13005468 -12906029 -12818727 -12729831 -12625694 -12506402 
2145.285 -12397928 -12354261 -12441366 -12720500 -13214821 -13892339 
2145.647 -14657610 -15378490 -15912697 -16146513 -16034985 -15609846 
2146.009 -14975947 -14270173 -13639293 -13193575 -12984051 -13003442 
2146.371 -13197657 -13492269 -13811847 -14106044 -14352792 -14555953 
2146.733 -14733205 -14903309 -15075875 -15246356 -15399341 -15515637 
2147.094 -15581972 -15595078 -15563207 -15502401 -15431352 -15364546 
2147.456 -15310269 -15271883 -15250706 -15249267 -15272492 -15324823 
2147.818 -15406217 -15507452 -15610613 -15690196 -15721258 -15687704 
2148.180 -15584785 -15421567 -15215707 -14988303 -14756361 -14531985 
2148.542 -14323587 -14138503 -13986483 -13878122 -13820160 -13809537 
2148.904 -13829051 -13850394 -13839128 -13768899 -13632549 -13447941 
2149.265 -13253966 -13100480 -13035309 -13086559 -13257984 -13527055 
2149.627 -13855336 -14195492 -14503721 -14750020 -14918612 -15012151 
2149.989 -15048671 -15060704 -15087076 -15165186 -15322328 -15563559 
2150.351 -15866475 -16180480 -16441973 -16584555 -16560635 -16356241 
2150.713 -15993567 -15526826 -15023513 -14556466 -14182889 -13939927 
2151.074 -13845580 -13899752 -14088177 -14381194 -14737593 -15101477 
2151.436 -15408136 -15601503 -15642321 -15526443 -15287398 -14994513 
2151.798 -14730834 -14568705 -14554704 -14692974 -14949602 -15262863 
2152.160 -15568194 -15810821 -15959233 -16009470 -15980026 -15904360 
2152.522 -15819576 -15763503 -15766505 -15846029 -16004041 -16223349 
2152.884 -16468929 -16691159 -16842330 -16886632 -16812752 -16637972 
2153.245 -16404038 -16164072 -15962267 -15825262 -15754651 -15733145 
2153.607 -15734743 -15739825 -15743723 -15756121 -15793920 -15869828 
2153.969 -15983187 -16116280 -16237585 -16310256 -16305501 -16206080 
2154.331 -16010620 -15729088 -15378715 -14978188 -14545443 -14099917 
2154.693 -13662475 -13255863 -12903905 -12624890 -12428776 -12314036 
2155.054 -12270262 -12280699 -12329914 -12408040 -12511842 -12642302 
2155.416 -12800615 -12982990 -13180397 -13380926 -13576032 -13766717 
2155.778 -13966847 -14202034 -14498338 -14873404 -15323063 -15817083 
2156.140 -16297428 -16692307 -16936986 -16986280 -16835190 -16519936 
2156.502 -16114492 -15705632 -15372702 -15168034 -15099716 -15134533 
2156.864 -15207581 -15248819 -15197279 -15022617 -14732243 -14367922 
2157.225 -13992547 -13671337 -13461336 -13393616 -13471777 -13671914 
2157.587 -13953082 -14264818 -14558068 -14799115 -14970633 -15075458 
2157.949 -15130117 -15158531 -15180513 -15203933 -15221721 -15215579 
2158.311 -15164163 -15053183 -14883970 -14675549 -14460682 -14272097 
2158.673 -14134397 -14055169 -14024598 -14022737 -14031848 -14047054 
2159.034 -14079774 -14152935 -14289411 -14499811 -14773047 -15075938 
2159.396 -15359813 -15579350 -15702788 -15723623 -15660346 -15551922 
2159.758 -15445102 -15380410 -15389044 -15484815 -15665172 -15910078 
2160.120 -16184790 -16440919 -16617659 -16657265 -16513461 -16168317 
2160.482 -15642416 -14998355 -14330512 -13736574 -13303457 -13077524 
2160.844 -13056626 -13194250 -13419800 -13662860 -13871126 -14027132 
2161.205 -14144372 -14254911 -14389560 -14564828 -14775032 -14997394 
2161.567 -15201918 -15365314 -15480978 -15559371 -15621992 -15691347 
2161.929 -15782673 -15898036 -16028184 -16156984 -16269501 -16353847 
2162.291 -16401453 -16405346 -16354773 -16235894 -16036965 -15753565 
2162.653 -15397583 -14999763 -14609812 -14282164 -14064472 -13984783 
2163.014 -14041921 -14206460 -14427125 -14649954 -14826975 -14929145 
2163.376 -14949954 -14901260 -14804111 -14678207 -14537817 -14387188 
2163.738 -14224000 -14043718 -13844488 -13629467 -13406628 -13185765 
2164.100 -12975915 -12783885 -12613625 -12469442 -12358125 -12290297 
2164.462 -12279668 -12338255 -12469828 -12664186 -12894900 -13122630 
2164.823 -13300661 -13392621 -13380733 -13276109 -13115429 -12955719 
2165.185 -12854757 -12850832 -12952664 -13132918 -13338353 -13502099 
2165.547 -13569738 -13512377 -13333887 -13064953 -12751261 -12438984 
2165.909 -12160087 -11932979 -11766222 -11666402 -11644080 -11711332 
2166.271 -11872694 -12112239 -12386915 -12630136 -12762329 -12723492 
2166.633 -12493073 -12108984 -11657822 -11262694 -11046132 -11087379 
2166.994 -11409377 -11966633 -12666921 -13390468 -14032617 -14527755 
2167.356 -14856434 -15042365 -15132708 -15177121 -15204702 -15218874 
2167.718 -15198430 -15112869 -14935868 -14663184 -14318585 -13956869 
2168.080 -13650274 -13470074 -13473543 -13681643 -14073743 -14584790 
2168.442 -15124133 -15588877 -15887238 -15966771 -15818905 -15484336 
2168.803 -15034812 -14563226 -14155244 -13871030 -13739913 -13755706 
2169.165 -13884155 -14072107 -14265075 -14415299 -14490006 -14477539 
2169.527 -14385713 -14237884 -14064088 -13895452 -13754005 -13648668 
2169.889 -13575710 -13523522 -13480610 -13443187 -13419575 -13430080 
2170.251 -13500492 -13651044 -13887653 -14195140 -14539643 -14872155 
2170.613 -15141284 -15307998 -15350218 -15270540 -15092036 -14855090 
2170.974 -14604975 -14383790 -14224834 -14145462 -14147514 -14218934 
2171.336 -14339424 -14484557 -14632654 -14770420 -14893959 -15008598 
2171.698 -15125989 -15259664 -15419489 -15608694 -15822165 -16047886 
2172.060 -16269023 -16466249 -16622633 -16724223 -16762670 -16735381 
2172.422 -16645499 -16500287 -16308662 -16079977 -15821908 -15540382 
2172.783 -15242069 -14936188 -14637460 -14367153 -14148220 -14002075 
2173.145 -13940665 -13961521 -14045803 -14162716 -14280208 -14371512 
2173.507 -14426163 -14451740 -14470969 -14511252 -14594754 -14730930 
2173.869 -14912081 -15116133 -15313596 -15478292 -15591817 -15647305 
2174.231 -15646474 -15595269 -15497828 -15353864 -15160387 -14916820 
2174.593 -14632142 -14330864 -14051544 -13842627 -13751854 -13808638 
2174.954 -14015005 -14337725 -14718086 -15079235 -15351273 -15493704 
2175.316 -15504063 -15422271 -15315930 -15265166 -15331635 -15543930 
2175.678 -15888836 -16318841 -16764680 -17155504 -17440984 -17594724 
2176.040 -17618908 -17534776 -17375982 -17177258 -16968022 -16771948 
2176.402 -16603403 -16467653 -16360069 -16267363 -16169626 -16046800 
2176.763 -15888739 -15700903 -15507899 -15345325 -15251954 -15251602 
2177.125 -15342158 -15491210 -15644908 -15744170 -15741039 -15618188 
2177.487 -15393138 -15115237 -14844587 -14638869 -14533619 -14532209 
2177.849 -14608210 -14714019 -14799051 -14818009 -14745920 -14580528 
2178.211 -14341315 -14062162 -13783697 -13547674 -13386709 -13323187 
2178.573 -13367078 -13515332 -13752946 -14055426 -14393502 -14733685 
2178.934 -15045182 -15304447 -15497413 -15623142 -15692241 -15724774 
2179.296 -15741773 -15761171 -15790725 -15826765 -15855996 -15861364 
2179.658 -15830055 -15758902 -15656991 -15542364 -15438195 -15364450 
2180.020 -15331763 -15340719 -15382009 -15439922 -15496101 -15534978 
2180.382 -15545177 -15523277 -15474839 -15416482 -15373309 -15372606 
2180.743 -15438356 -15579286 -15783217 -16014325 -16223988 -16363069 
2181.105 -16398517 -16327361 -16178789 -16005894 -15862098 -15786860 
2181.467 -15787531 -15838936 -15891358 -15891135 -15801748 -15612658 
2181.829 -15343630 -15034203 -14733461 -14480936 -14303133 -14212168 
2182.191 -14207967 -14284730 -14433087 -14641817 -14895624 -15176738 
2182.552 -15468349 -15756153 -16032781 -16294811 -16537320 -16747750 
2182.914 -16901038 -16962192 -16899508 -16697090 -16370153 -15965367 
2183.276 -15558252 -15230807 -15044957 -15029659 -15170082 -15416514 
2183.638 -15698185 -15950738 -16129306 -16214890 -16211858 -16136393 
2184.000 -16005734 -15830694 -15617389 -15371263 -15102373 -14827487 
2184.362 -14566976 -14337725 -14149440 -14001113 -13884155 -13788127 
2184.723 -13707520 -13644301 -13608177 -13611003 -13663406 -13771532 
2185.085 -13936398 -14156912 -14431517 -14757866 -15129508 -15531334 
2185.447 -15935855 -16302023 -16584523 -16742045 -16749090 -16605094 
2185.809 -16336072 -15988329 -15612211 -15252913 -14937020 -14669335 
2186.171 -14439369 -14232369 -14041022 -13873469 -13751116 -13700329 
2186.532 -13738114 -13858770 -14028030 -14186705 -14272994 -14236731 
2186.894 -14063093 -13779685 -13453660 -13170850 -13006079 -13006208 
2187.256 -13171235 -13459184 -13797949 -14115506 -14355741 -14491480 
2187.618 -14525352 -14478308 -14375616 -14233813 -14059115 -13850747 
2187.980 -13610233 -13349503 -13092121 -12869135 -12710943 -12635092 
2188.342 -12642591 -12717572 -12835295 -12970577 -13105399 -13234555 
2188.703 -13364154 -13506724 -13674515 -13874977 -14105595 -14353497 
2189.065 -14595299 -14802317 -14944095 -14994353 -14939069 -14780381 
2189.427 -14539932 -14254109 -13971949 -13743026 -13605319 -13579436 
2189.789 -13661319 -13824237 -14020234 -14193568 -14291719 -14274950 
2190.151 -14131735 -13882807 -13583194 -13306670 -13136679 -13140954 
2190.512 -13349599 -13745241 -14261356 -14802510 -15259344 -15547032 
2190.874 -15624836 -15504958 -15245716 -14933371 -14659083 -14487346 
2191.236 -14448311 -14530671 -14693455 -14876766 -15021561 -15087876 
2191.598 -15059424 -14949794 -14795240 -14646974 -14550153 -14531633 
2191.960 -14587129 -14681635 -14758026 -14757962 -14649762 -14443696 
2192.322 -14198282 -13998611 -13936815 -14069990 -14396163 -14846092 
2192.683 -15303200 -15638068 -15742637 -15572702 -15155587 -14584149 
2193.045 -13978013 -13460598 -13122212 -13001641 -13089420 -13336811 
2193.407 -13676667 -14031655 -14334647 -14535991 -14606833 -14547590 
2193.769 -14388406 -14188821 -14020330 -13956548 -14049139 -14309769 
2194.131 -14704730 -15160259 -15587534 -15897652 -16033262 -15979195 
2194.492 -15761968 -15435670 -15064256 -14705723 -14396163 -14152583 
2194.854 -13976345 -13862942 -13807482 -13808349 -13864354 -13971596 
2195.216 -14119708 -14293578 -14473726 -14643258 -14790084 -14907823 
2195.578 -14993553 -15045182 -15058336 -15027802 -14950434 -14830722 
2195.940 -14682853 -14532434 -14409625 -14339873 -14337501 -14399304 
2196.302 -14506926 -14633199 -14755272 -14862133 -14958981 -15061856 
2196.663 -15189120 -15347916 -15527945 -15700007 -15825296 -15870947 
2197.025 -15818330 -15673418 -15462145 -15224601 -14999571 -14817528 
2197.387 -14697171 -14645565 -14662575 -14741115 -14866392 -15008917 
2197.749 -15123365 -15157316 -15059616 -14804719 -14407189 -13929787 
2198.111 -13467858 -13122116 -12970995 -13036723 -13280609 -13612801 
2198.472 -13932547 -14153705 -14237724 -14199790 -14096101 -13994921 
2198.834 -13946280 -13970152 -14053470 -14166469 -14280690 -14385456 
2199.196 -14488820 -14608979 -14758122 -14932474 -15109285 -15258000 
2199.558 -15351402 -15379002 -15348619 -15280393 -15193216 -15093859 
2199.920 -14975499 -14824766 -14635249 -14419850 -14212456 -14061265 
2200.281 -14011958 -14086221 -14272578 -14525128 -14780445 -14971690 
2200.643 -15052767 -15008821 -14855890 -14630508 -14376032 -14133050 
2201.005 -13927991 -13775223 -13678111 -13633127 -13630655 -13656952 
2201.367 -13695416 -13727938 -13741389 -13733203 -13715450 -13713877 
2201.729 -13760329 -13884765 -14100110 -14396708 -14738906 -15076931 
2202.091 -15355048 -15528489 -15576346 -15504159 -15342510 -15135269 
2202.452 -14933082 -14779484 -14705082 -14727728 -14851279 -15066209 
2202.814 -15350154 -15669582 -15979547 -16228424 -16372131 -16380906 
2203.176 -16253768 -16020359 -15740847 -15488716 -15329365 -15306590 
2203.538 -15425405 -15654242 -15931286 -16189162 -16368557 -16433487 
2203.900 -16379246 -16227212 -16018156 -15797053 -15609462 -15490858 
2204.261 -15461730 -15525931 -15666770 -15850022 -16025597 -16144916 
2204.623 -16173011 -16103284 -15962780 -15807724 -15704002 -15696555 
2204.985 -15792673 -15947448 -16080169 -16092589 -15912570 -15523246 
2205.347 -14976940 -14380584 -13865703 -13551946 -13500942 -13703603 
2205.709 -14079132 -14511027 -14872411 -15071169 -15077475 -14923831 
2206.071 -14691565 -14476353 -14363723 -14395073 -14559061 -14794503 
2206.432 -15016408 -15138340 -15100132 -14888004 -14534324 -14107776 
2206.794 -13685046 -13336843 -13106460 -13006369 -13027784 -13154520 
2207.156 -13374854 -13685753 -14086798 -14567456 -15093284 -15607161 
2207.518 -16034028 -16301224 -16366994 -16230626 -15938345 -15564454 
2207.880 -15194559 -14895081 -14697907 -14602507 -14585527 -14619776 
2208.241 -14688009 -14789636 -14935484 -15135621 -15387349 -15670095 
2208.603 -15947832 -16182939 -16344370 -16419990 -16416959 -16359111 
2208.965 -16276747 -16199697 -16153250 -16154302 -16212210 -16328894 
2209.327 -16497193 -16698461 -16900400 -17062936 -17137348 -17079630 
2209.689 -16860658 -16474161 -15942754 -15316826 -14674139 -14101328 
2210.051 -13683987 -13491114 -13554643 -13863809 -14361864 -14962951 
2210.412 -15561544 -16061520 -16399188 -16547877 -16522232 -16362270 
2210.774 -16119473 -15835391 -15533476 -15221114 -14896969 -14562746 
2211.136 -14232402 -13930590 -13688803 -13533350 -13475503 -13508715 
2211.498 -13610489 -13752047 -13905368 -14052154 -14186513 -14312366 
2211.860 -14438472 -14573961 -14723276 -14883458 -15043453 -15184577 
2212.221 -15284551 -15320441 -15277194 -15154020 -14970602 -14765521 
2212.583 -14588090 -14488596 -14498370 -14619648 -14820282 -15045470 
2212.945 -15229624 -15319545 -15294979 -15175010 -15013911 -14880097 
2213.307 -14839239 -14926584 -15137381 -15425757 -15722919 -15957989 
2213.669 -16078126 -16068833 -15953293 -15784271 -15619083 -15503903 
2214.031 -15454951 -15456614 -15469275 -15449611 -15370271 -15229176 
2214.392 -15050879 -14873340 -14731059 -14635954 -14571813 -14498466 
2214.754 -14372410 -14162107 -13866793 -13517644 -13172393 -12895704 
2215.116 -12737940 -12726421 -12858680 -13107713 -13428474 -13771307 
2215.478 -14086638 -14328588 -14464079 -14476738 -14375743 -14198250 
2215.840 -14011893 -13899399 -13932451 -14154603 -14556145 -15074274 
2216.201 -15598530 -16010525 -16214795 -16167423 -15892031 -15470874 
2216.563 -15019512 -14642266 -14411388 -14344136 -14407573 -14533619 
2216.925 -14649473 -14704666 -14683109 -14608563 -14531729 -14514745 
2217.287 -14604270 -14818905 -15139940 -15518482 -15884459 -16166434 
2217.649 -16312713 -16298225 -16130773 -15842322 -15481266 -15095363 
2218.010 -14722186 -14389207 -14112587 -13903699 -13773587 -13731983 
2218.372 -13784275 -13924011 -14130131 -14364108 -14576139 -14718183 
2218.734 -14749411 -14648768 -14417991 -14081378 -13679877 -13265055 
2219.096 -12895769 -12624633 -12494876 -12530707 -12730153 -13061931 
2219.458 -13467729 -13878026 -14218997 -14434786 -14499716 -14420298 
2219.820 -14230349 -13977275 -13710378 -13464453 -13258305 -13096237 
2220.181 -12974565 -12888821 -12838254 -12825354 -12852279 -12915356 
2220.543 -13002863 -13093022 -13160853 -13183482 -13147191 -13053636 
2220.905 -12921435 -12784947 -12683816 -12656719 -12729027 -12904002 
2221.267 -13160339 -13455715 -13741260 -13969831 -14113485 -14168970 
2221.629 -14156687 -14110438 -14065498 -14048657 -14070984 -14130292 
2221.990 -14216464 -14319130 -14428824 -14535510 -14624902 -14673275 
2222.352 -14651460 -14534067 -14310859 -13999124 -13645072 -13320873 
2222.714 -13099773 -13040131 -13168214 -13469335 -13892563 -14363659 
2223.076 -14807762 -15155876 -15359749 -15394992 -15257296 -14962886 
2223.438 -14544001 -14052090 -13548284 -13098197 -12763455 -12584561 
2223.800 -12577576 -12730089 -13009584 -13369873 -13763860 -14152679 
2224.161 -14503529 -14791109 -14995665 -15101732 -15103620 -15010614 
2224.523 -14851535 -14668598 -14510900 -14419593 -14411484 -14474943 
2224.885 -14571269 -14650851 -14666419 -14592992 -14436131 -14231311 
2225.247 -14030243 -13883899 -13829789 -13877930 -14011348 -14192029 
2225.609 -14377186 -14528653 -14625190 -14666291 -14669975 -14665779 
2225.970 -14683365 -14747297 -14869690 -15049182 -15271948 -15515988 
2226.332 -15754715 -15958084 -16100571 -16162634 -16137095 -16033612 
2226.694 -15881170 -15723815 -15607768 -15572286 -15631868 -15770501 
2227.056 -15942657 -16090099 -16161742 -16130295 -16004330 -15822612 
2227.418 -15638676 -15494151 -15406537 -15361700 -15328021 -15273643 
2227.780 -15190111 -15100132 -15054463 -15108421 -15297026 -15617037 
2228.141 -16022852 -16438143 -16777366 -16978920 -17014350 -16894822 
2228.503 -16656913 -16349189 -16014900 -15682910 -15373853 -15103429 
2228.865 -14888997 -14751204 -14706460 -14759628 -14896265 -15084675 
2229.227 -15279497 -15433079 -15510745 -15496070 -15395792 -15235094 
2229.589 -15054175 -14896009 -14796361 -14777338 -14839367 -14959846 
2229.950 -15096036 -15200607 -15233175 -15177634 -15048927 -14893128 
2230.312 -14770516 -14731283 -14799211 -14957349 -15155172 -15320345 
2230.674 -15388789 -15324983 -15131077 -14844138 -14522661 -14229516 
2231.036 -14011989 -13899655 -13902897 -14016962 -14225732 -14501766 
2231.398 -14808370 -15095140 -15308574 -15404139 -15356263 -15171330 
2231.760 -14888165 -14570884 -14285724 -14089749 -14015262 -14065595 
2232.121 -14220376 -14443600 -14694000 -14925367 -15091684 -15149860 
2232.483 -15061856 -14808754 -14399176 -13878122 -13318366 -12811039 
2232.845 -12445133 -12280120 -12338899 -12602972 -13025952 -13544044 
2233.207 -14094817 -14628202 -15101636 -15481074 -15737684 -15845774 
2233.569 -15791716 -15579574 -15237014 -14809619 -14356511 -13936718 
2233.930 -13594530 -13359495 -13243907 -13248889 -13370323 -13601594 
2234.292 -13931296 -14336859 -14782398 -15215771 -15571838 -15789255 
2234.654 -15818074 -15633466 -15244245 -14694448 -14058859 -13425646 
2235.016 -12891297 -12534377 -12399442 -12488631 -12757599 -13126424 
2235.378 -13494357 -13774774 -13913390 -13904726 -13788929 -13637847 
2235.740 -13527504 -13507366 -13588813 -13739527 -13900298 -14001884 
2236.101 -13994665 -13863135 -13631779 -13355383 -13105753 -12955333 
2236.463 -12954401 -13126328 -13460630 -13919391 -14441676 -14958949 
2236.825 -15411974 -15755419 -15969837 -16058935 -16043000 -15946236 
2237.187 -15786923 -15571646 -15296930 -14958149 -14560952 -14128271 
2237.549 -13702993 -13338546 -13080965 -12959578 -12973246 -13093118 
2237.910 -13269103 -13449804 -13596552 -13693554 -13750602 -13796505 
2238.272 -13866954 -13989596 -14176283 -14418663 -14692206 -14962599 
2238.634 -15197759 -15378746 -15503296 -15587182 -15657183 -15743021 
2238.996 -15862737 -16016720 -16182939 -16325351 -16402442 -16382053 
2239.358 -16254118 -16034666 -15762864 -15486989 -15256593 -15107685 
2239.719 -15056832 -15103973 -15237110 -15438260 -15688119 -15968911 
2240.081 -16261300 -16541945 -16785848 -16964962 -17055514 -17045064 
2240.443 -16936444 -16750779 -16523669 -16302628 -16132753 -16047951 
2240.805 -16061872 -16162571 -16313383 -16460219 -16550779 -16545486 
2241.167 -16433613 -16236754 -16006086 -15805103 -15687160 -15684156 
2241.529 -15792547 -15978396 -16186418 -16361952 -16463442 -16471833 
2241.890 -16392136 -16247032 -16068291 -15887301 -15734136 -15634425 
2242.252 -15607096 -15663894 -15803793 -16010173 -16248757 -16475629 
2242.614 -16645594 -16722787 -16692244 -16560540 -16351199 -16092652 
2242.976 -15809990 -15517363 -15218107 -14911633 -14600425 -14294989 
2243.338 -14015069 -13783055 -13617361 -13526894 -13508362 -13548926 
2243.699 -13630109 -13736220 -13855561 -13983275 -14120221 -14271423 
2244.061 -14444401 -14646173 -14881921 -15150884 -15443663 -15740080 
2244.423 -16012281 -16229127 -16362846 -16398199 -16334733 -16187631 
2244.785 -15980089 -15740177 -15492457 -15254993 -15041725 -14863286 
2245.147 -14728593 -14645148 -14615835 -14636435 -14694608 -14773527 
2245.509 -14854705 -14923926 -14974059 -15003252 -15012599 -15002612 
2245.870 -14972682 -14924439 -14864664 -14808626 -14775737 -14781886 
2246.232 -14828960 -14897866 -14949026 -14932122 -14807313 -14558708 
2246.594 -14206748 -13801672 -13415463 -13118002 -12955816 -12947036 
2246.956 -13077172 -13310944 -13601915 -13908223 -14195396 -14436676 
2247.318 -14614009 -14715845 -14739706 -14695025 -14604814 -14501926 
2247.679 -14418856 -14381578 -14399656 -14466290 -14562073 -14665587 
2248.041 -14758987 -14830913 -14874205 -14879520 -14831939 -14714819 
2248.403 -14517661 -14248338 -13937713 -13639806 -13415431 -13309626 
2248.765 -13336361 -13467055 -13637590 -13763796 -13776250 -13639132 
2249.127 -13365825 -13011706 -12661900 -12404465 -12301120 -12379316 
2249.489 -12624053 -12988585 -13402966 -13794354 -14100270 -14274534 
2249.850 -14298035 -14178784 -13951029 -13664530 -13377873 -13145327 
2250.212 -13001480 -12958485 -13003153 -13105592 -13227677 -13337711 
2250.574 -13417487 -13464613 -13489957 -13510835 -13545265 -13605030 
2250.936 -13692720 -13801672 -13918107 -14022416 -14093759 -14115955 
2251.298 -14079485 -13985970 -13849912 -13698177 -13564470 -13483630 
2251.659 -13485139 -13583482 -13775127 -14035505 -14325638 -14594113 
2252.021 -14787651 -14864343 -14798090 -14589051 -14263760 -13874368 
2252.383 -13483983 -13153299 -12930634 -12838962 -12875858 -13015951 
2252.745 -13222310 -13452663 -13669988 -13851100 -13986034 -14078426 
2253.107 -14140523 -14189431 -14240514 -14302651 -14375134 -14447349 
2253.469 -14500516 -14514104 -14475584 -14388598 -14279568 -14191836 
2253.830 -14180836 -14294797 -14556337 -14952131 -15429210 -15908130 
2254.192 -16295640 -16517576 -16536362 -16360005 -16035624 -15633786 
2254.554 -15230168 -14880705 -14618718 -14450811 -14363114 -14329550 
2254.916 -14321471 -14316309 -14297875 -14259304 -14201938 -14132184 
2255.278 -14058121 -13985585 -13915637 -13843429 -13760393 -13660260 
2255.639 -13545747 -13434095 -13357922 -13355929 -13465320 -13703892 
2256.001 -14060174 -14487250 -14915379 -15268909 -15488236 -15553457 
2256.363 -15488876 -15356455 -15229368 -15175138 -15232151 -15400429 
2256.725 -15645804 -15912857 -16146321 -16300587 -16354198 -16308852 
2257.087 -16183641 -16005639 -15803441 -15605051 -15433879 -15312924 
2257.448 -15263438 -15299553 -15426620 -15636567 -15908960 -16213423 
2257.810 -16518278 -16797642 -17031970 -17209010 -17317690 -17341598 
2258.172 -17259070 -17045956 -16686505 -16185779 -15577433 -14923831 
2258.534 -14300760 -13788576 -13445692 -13294941 -13318592 -13465673 
2258.896 -13667869 -13857615 -13991938 -14058731 -14077881 -14087601 
2259.258 -14133339 -14249684 -14449849 -14723884 -15043325 -15371647 
2259.619 -15674088 -15929371 -16134094 -16302565 -16458912 -16627831 
2259.981 -16823046 -17040380 -17255948 -17432644 -17534426 -17532102 
2260.343 -17413036 -17182226 -16859000 -16472694 -16057018 -15650054 
2260.705 -15287590 -15000915 -14811925 -14724493 -14721033 -14761165 
2261.067 -14795144 -14774039 -14672602 -14501479 -14310058 -14170894 
2261.428 -14151395 -14292392 -14584790 -14969962 -15351529 -15634330 
2261.790 -15748739 -15676677 -15451338 -15141861 -14821307 -14537817 
2262.152 -14309417 -14126443 -13970954 -13830238 -13706557 -13612994 
2262.514 -13564086 -13564086 -13605480 -13674868 -13765946 -13888680 
2262.876 -14069187 -14335449 -14700118 -15141221 -15601663 -15995003 
2263.238 -16237745 -16277386 -16109893 -15782386 -15379098 -14997650 
2263.599 -14712578 -14563451 -14546532 -14629707 -14769716 -14932378 
2263.961 -15101668 -15273995 -15448492 -15617006 -15759157 -15847914 
2264.323 -15859766 -15785133 -15634937 -15439859 -15242165 -15078979 
2264.685 -14975435 -14934972 -14942079 -14967561 -14982061 -14967497 
2265.047 -14924439 -14873500 -14847981 -14885315 -15010198 -15226649 
2265.408 -15512759 -15828554 -16124709 -16359080 -16509665 -16573489 
2265.770 -16559456 -16476618 -16326403 -16104084 -15806893 -15449259 
2266.132 -15067874 -14721546 -14478148 -14386803 -14462573 -14675901 
2266.494 -14964904 -15250003 -15463200 -15570144 -15572030 -15500258 
2266.856 -15396591 -15300130 -15234615 -15211612 -15238774 -15326134 
2267.218 -15485583 -15721578 -16019050 -16334126 -16600277 -16752118 
2267.579 -16742267 -16562549 -16244289 -15849160 -15445422 -15089571 
2267.941 -14818969 -14646302 -14570468 -14584149 -14678592 -14839816 
2268.303 -15039773 -15236566 -15375548 -15411334 -15330516 -15166915 
2268.665 -14998195 -14920789 -15021817 -15337009 -15835742 -16421586 
2269.027 -16972324 -17375122 -17572706 -17580820 -17473448 -17340996 
2269.388 -17243436 -17190602 -17142094 -17034868 -16812432 -16457923 
2269.750 -16001774 -15514805 -15075875 -14748001 -14556690 -14485006 
2270.112 -14485166 -14499075 -14483565 -14419753 -14321471 -14226694 
2270.474 -14189720 -14262735 -14481962 -14857203 -15363907 -15941892 
2270.836 -16503191 -16959706 -17239964 -17311416 -17184774 -16903684 
2271.198 -16523508 -16090609 -15636535 -15176130 -14717382 -14275881 
2271.559 -13878283 -13560713 -13357696 -13284593 -13330931 -13460887 
2271.921 -13631265 -13806326 -13976922 -14161498 -14397957 -14720585 
2272.283 -15138981 -15625188 -16116951 -16532950 -16793560 -16852594 
2272.645 -16705602 -16390542 -15966803 -15499363 -15040252 -14621986 
2273.007 -14264017 -13977371 -13768097 -13638490 -13583001 -13588460 
2273.368 -13635536 -13706011 -13789315 -13884445 -13996557 -14129747 
2273.730 -14277291 -14420298 -14530126 -14582034 -14567777 -14504490 
2274.092 -14432574 -14401868 -14456227 -14609908 -14838534 -15081858 
2274.454 -15267789 -15332339 -15241557 -15000595 -14648064 -14243624 
2274.816 -13848308 -13518800 -13294427 -13194797 -13223081 -13367431 
2275.177 -13606026 -13907935 -14239360 -14564476 -14850127 -15073826 
2275.539 -15224826 -15308830 -15344557 -15361317 -15390355 -15455847 
2275.901 -15568450 -15719725 -15882256 -16015250 -16079370 -16047407 
2276.263 -15914997 -15703075 -15454056 -15221626 -15053055 -14981197 
2276.625 -15012470 -15126437 -15278857 -15416163 -15488716 -15458149 
2276.987 -15308126 -15044701 -14696018 -14304062 -13923915 -13616975 
2277.348 -13440103 -13444022 -13660774 -14094946 -14717638 -15466846 
2277.710 -16260182 -17001926 -17609936 -18025398 -18217126 -18183192 
2278.072 -17943156 -17534488 -17002594 -16401837 -15789127 -15213308 
2278.434 -14714819 -14314931 -14014267 -13795799 -13633609 -13503511 
2278.796 -13391207 -13297898 -13236869 -13226134 -13276816 -13385649 
2279.157 -13532065 -13684854 -13809825 -13885118 -13909282 -13904565 
2279.519 -13908159 -13959660 -14089429 -14305505 -14590461 -14902060 
2279.881 -15187425 -15390995 -15471098 -15412229 -15228504 -14962438 
2280.243 -14671801 -14423343 -14274053 -14260682 -14397605 -14675229 
2280.605 -15065857 -15527434 -16013015 -16469726 -16841566 -17077782 
2280.967 -17135406 -16990072 -16645370 -16136298 -15525227 -14886564 
2281.328 -14297650 -13813933 -13460598 -13230248 -13093343 -13012735 
2281.690 -12961701 -12936615 -12957520 -13058266 -13268172 -13598158 
2282.052 -14029410 -14517886 -14999347 -15408936 -15696108 -15829545 
2282.414 -15803633 -15633466 -15349803 -14989296 -14590910 -14192189 
2282.776 -13821926 -13501103 -13237897 -13028813 -12861125 -12721594 
2283.137 -12604420 -12518860 -12489596 -12549957 -12730282 -13040936 
2283.499 -13463842 -13948719 -14429978 -14836869 -15116964 -15250706 
2283.861 -15251698 -15159683 -15022105 -14882113 -14763439 -14668950 
2284.223 -14586744 -14499428 -14393310 -14262606 -14110406 -13946665 
2284.585 -13786554 -13648154 -13554547 -13530619 -13595974 -13758371 
2284.947 -14002590 -14288417 -14551755 -14725838 -14760172 -14640504 
2285.308 -14397701 -14101585 -13838872 -13677918 -13652072 -13746846 
2285.670 -13913293 -14087825 -14224834 -14316309 -14396355 -14525352 
2286.032 -14764336 -15149572 -15671788 -16273044 -16859414 -17334084 
2286.394 -17615216 -17660202 -17471284 -17087944 -16573105 -15994364 
2286.756 -15421823 -14915762 -14525512 -14289860 -14229804 -14346637 
2287.117 -14619583 -15010902 -15467198 -15928540 -16341561 -16660262 
2287.479 -16855112 -16915028 -16845518 -16665779 -16403304 -16090801 
2287.841 -15758773 -15432215 -15129860 -14862549 -14637140 -14460810 
2288.203 -14342918 -14294925 -14326056 -14434914 -14603469 -14795912 
2288.565 -14966280 -15066913 -15067457 -14964359 -14783903 -14572134 
2288.927 -14382957 -14263568 -14240482 -14320125 -14492217 -14739162 
2289.288 -15039452 -15372158 -15716081 -16044598 -16329052 -16544497 
2289.650 -16677035 -16733596 -16743319 -16753362 -16809564 -16944218 
2290.012 -17160536 -17433536 -17715174 -17953650 -18110198 -18164348 
2290.374 -18117190 -17982452 -17778692 -17519564 -17212480 -16863304 
2290.736 -16480796 -16082659 -15695054 -15344173 -15050879 -14823805 
2291.097 -14660236 -14550858 -14485967 -14459752 -14470585 -14518911 
2291.459 -14604622 -14727184 -14887908 -15092932 -15354312 -15684508 
2291.821 -16088694 -16552821 -17040826 -17492322 -17839628 -18030738 
2292.183 -18047552 -17918866 -17710592 -17504734 -17361368 -17300210 
2292.545 -17296928 -17300464 -17254834 -17125500 -16915188 -16664343 
2292.906 -16436197 -16289162 -16260693 -16351772 -16533684 -16759036 
2293.268 -16983030 -17174582 -17318516 -17412684 -17457248 -17446396 
2293.630 -17367388 -17204774 -16952408 -16622346 -16249523 -15883597 
2293.992 -15574076 -15362659 -15269709 -15294852 -15419872 -15618092 
2294.354 -15862098 -16132914 -16425159 -16744435 -17100368 -17497414 
2294.716 -17927960 -18368530 -18784664 -19132874 -19373422 -19480106 
2295.077 -19443670 -19274100 -18993186 -18627502 -18200604 -17736390 
2295.439 -17263654 -16818170 -16447492 -16201038 -16114684 -16200783 
2295.801 -16436676 -16772140 -17137540 -17471858 -17736708 -17927198 
2296.163 -18067546 -18198412 -18358048 -18564328 -18810588 -19067808 
2296.525 -19298948 -19467780 -19550430 -19535986 -19418862 -19194504 
2296.886 -18858814 -18414964 -17882492 -17303998 -16742490 -16259704 
2297.248 -15902316 -15683420 -15582068 -15555950 -15564965 -15591785 
2297.610 -15648520 -15768263 -15981143 -16288778 -16649261 -16982744 
2297.972 -17196462 -17226812 -17060962 -16749695 -16385404 -16080616 
2298.334 -15927231 -15970539 -16210901 -16613416 -17130628 -17713042 
2298.696 -18320092 -18910178 -19426498 -19796606 -19937206 -19783438 
2299.057 -19323796 -18614710 -17768102 -16908208 -16146321 -15548981 
2299.419 -15135077 -14888805 -14774039 -14752678 -14795048 -14887813 
2299.781 -15026170 -15208317 -15428059 -15669487 -15906755 -16109766 
2300.143 -16243171 -16272150 -16167231 -15908960 -15499555 -14970506 
2300.505 -14387764 -13836369 -13406885 -13178307 -13195696 -13467279 
2300.866 -13955200 -14583380 -15237462 -15794942 -16167870 -16328862 
2301.228 -16320340 -16222520 -16118100 -16057625 -16055390 -16097696 
2301.590 -16157655 -16208060 -16232925 -16232319 -16220637 -16219296 
2301.952 -16246585 -16312044 -16411120 -16524753 -16619891 -16657552 
2302.314 -16602192 -16430615 -16141629 -15758678 -15327862 -14906126 
2302.676 -14560118 -14355741 -14346829 -14574024 -15054015 -15774781 
2303.037 -16678948 -17660170 -18565918 -19217838 -19487930 -19355898 
2303.399 -18923404 -18351252 -17793356 -17344750 -17027732 -16814632 
2303.761 -16650727 -16487591 -16303809 -16120940 -15993694 -15990278 
2304.123 -16152356 -16467335 -16854922 -17195188 -17366782 -17297822 
2304.485 -16993258 -16524274 -15999284 -15521295 -15175521 -15011062 
2304.846 -15045053 -15277994 -15706973 -16334126 -17157224 -18153830 
2305.208 -19244622 -20262356 -20983440 -21200376 -20850064 -20055076 
2305.570 -19055884 -18082738 -17277762 -16704902 -16364409 -16227914 
2305.932 -16260725 -16434953 -16728144 -17114574 -17556446 -17992338 
2306.294 -18341978 -18531342 -18510546 -18277396 -17875878 -17384228 
2306.656 -16886952 -16451159 -16121740 -15913846 -15823219 -15837690 
2307.017 -15948886 -16158931 -16482137 -16940968 -17556064 -18327492 
2307.379 -19216190 -20111832 -20838662 -21211610 -21116240 -20579520 
2307.741 -19740346 -18779208 -17845224 -17047454 -16457923 -16109319 
2308.103 -16004296 -16106924 -16352028 -16652482 -16930356 -17140088 
2308.465 -17271870 -17347426 -17403772 -17481374 -17609806 -17802100 
2308.826 -18050796 -18329016 -18591092 -18782730 -18862844 -18823186 
2309.188 -18711074 -18625978 -18716374 -19139658 -20017108 -21363928 
2309.550 -23006852 -24546118 -25467004 -25463224 -24612466 -23289990 
2309.912 -21895018 -20723122 -19909578 -19449628 -19240850 -19123202 
2310.274 -18942436 -18591950 -18055564 -17391390 -16697919 -16063660 
2310.635 -15546871 -15168130 -14920116 -14786242 -14755432 -14826911 
2310.997 -15001748 -15269709 -15603453 -15964760 -16329851 -16711725 
2311.359 -17170538 -17803436 -18723038 -20010400 -21644922 -23410186 
2311.721 -24886048 -25657788 -25570200 -24815924 -23730300 -22604590 
2312.083 -21587736 -20710136 -19938440 -19220088 -18520230 -17840804 
2312.445 -17215920 -16699513 -16344115 -16181022 -16218241 -16436294 
2312.806 -16796112 -17238084 -17690616 -18080926 -18339402 -18424364 
2313.168 -18337656 -18132348 -17899090 -17755474 -17835940 -18276792 
2313.530 -19222686 -20795078 -23032494 -25710318 -28204960 -29676250 
2313.892 -29616676 -28262866 -26261042 -24188532 -22346532 -20842768 
2314.254 -19689654 -18852534 -18287688 -17949930 -17799112 -17803342 
2314.615 -17940772 -18198602 -18562488 -19006220 -19481594 -19910750 
2314.977 -20207960 -20305298 -20178736 -19859632 -19426752 -18989380 
2315.339 -18657656 -18546994 -18771622 -19452352 -20722332 -22693974 
2315.701 -25351408 -28278730 -30562802 -31287252 -30349598 -28428498 
2316.063 -26262478 -24277650 -22614624 -21297588 -20305394 -19600032 
2316.425 -19147426 -18914490 -18872614 -18992740 -19242182 -19573900 
2316.786 -19911636 -20162288 -20235032 -20071402 -19671034 -19092352 
2317.148 -18441132 -17837242 -17406828 -17252510 -17440888 -18007088 
2317.510 -18963308 -20318548 -22049994 -24048266 -25973442 -27217238 
2317.872 -27322166 -26457964 -25191820 -23952892 -22929824 -22166756 
2318.234 -21652014 -21366860 -21277270 -21328250 -21433192 -21488852 
2318.595 -21400264 -21109990 -20623126 -20000402 -19331148 -18696442 
2318.957 -18160472 -17769056 -17556160 -17560488 -17825762 -18399242 
2319.319 -19330926 -20677186 -22517236 -24956286 -28129190 -32085966 
2319.681 -36438012 -39948776 -40889508 -38838960 -35184048 -31466130 
2320.043 -28376698 -26002996 -24262078 -23040444 -22239168 -21770428 
2320.405 -21538234 -21439784 -21375504 -21279952 -21126498 -20923200 
2320.766 -20695352 -20472254 -20281774 -20150488 -20116420 -20232470 
2321.128 -20563372 -21179864 -22141536 -23487820 -25230870 -27377638 
2321.490 -29928568 -32844168 -35957456 -38769416 -40421496 -40254184 
2321.852 -38519368 -36080720 -33603072 -31339354 -29296258 -27416368 
2322.214 -25661004 -24024220 -22532430 -21231300 -20163490 -19351240 
2322.575 -18815538 -18552010 -18542898 -18756932 -19158584 -19711376 
2322.937 -20391298 -21194222 -22131146 -23222026 -24479886 -25901244 
2323.299 -27478206 -29214698 -31154476 -33409856 -36140180 -39410972 
2323.661 -42820252 -45106092 -44926352 -42403268 -38757964 -34971148 
2324.023 -31451490 -28321228 -25611622 -23357408 -21603940 -20369926 
2324.385 -19660932 -19456090 -19710964 -20361484 -21316674 -22458056 
2324.746 -23612326 -24582912 -25195352 -25358688 -25119274 -24653010 
2325.108 -24220746 -24078860 -24468268 -25608498 -27735286 -31093408 
2325.470 -35804556 -41397776 -45835924 -46275000 -42587512 -37523156 
2325.832 -33074756 -29662540 -27077170 -25043434 -23394174 -22071032 
2326.194 -21073726 -20438686 -20189456 -20305804 -20702998 -21229626 
2326.555 -21703678 -21951722 -21894576 -21578150 -21159192 -20825556 
2326.917 -20744160 -21030890 -21750134 -22939724 -24635760 -26919990 
2327.279 -29900486 -33639964 -37838960 -41200704 -41787856 -39304748 
2327.641 -35518596 -31911716 -28916864 -26475576 -24436040 -22693974 
2328.003 -21197756 -19920496 -18857832 -18006644 -17359110 -16909642 
2328.365 -16661538 -16629905 -16839142 -17307182 -18034616 -18997816 
2328.726 -20159282 -21473526 -22900152 -24433376 -26105628 -28011132 
2329.088 -30322468 -33261582 -36925216 -40742380 -42766236 -41112100 
2329.450 -36886656 -32589388 -29309174 -27029318 -25454818 -24312648 
2329.812 -23408900 -22610440 -21836382 -21054218 -20279306 -19560598 
2330.174 -18966036 -18553060 -18353094 -18367926 -18570678 -18913888 
2330.535 -19336568 -19787046 -20231142 -20673112 -21172510 -21866756 
2330.897 -22998902 -24947932 -28220796 -33167380 -39084320 -43352412 
2331.259 -43678000 -40950392 -37387312 -34200176 -31681124 -29760846 
2331.621 -28287982 -27137250 -26214256 -25447600 -24778964 -24153712 
2331.983 -23523918 -22854920 -22140214 -21413038 -20758564 -20294642 
2332.344 -20153082 -20442732 -21211356 -22430146 -24002556 -25825728 
2332.706 -27809444 -29941372 -32311608 -35055208 -38002132 -40092552 
2333.068 -39913020 -37588580 -34394692 -31203046 -28317162 -25810366 
2333.430 -23707492 -22010404 -20727386 -19846368 -19326616 -19109822 
2333.792 -19122474 -19292864 -19560598 -19893594 -20290090 -20775146 
2334.154 -21389162 -22176896 -23178428 -24433628 -25987236 -27906184 
2334.515 -30313880 -33379086 -37243100 -41647140 -45043012 -44884552 
2334.877 -41053320 -36270500 -32299824 -29353554 -27167970 -25500250 
2335.239 -24220778 -23274916 -22633086 -22273542 -22155958 -22219586 
2335.601 -22390906 -22604968 -22825432 -23053798 -23326918 -23701092 
2335.963 -24234660 -24973836 -25952904 -27203670 -28789964 -30831426 
2336.324 -33553694 -37308264 -42347972 -47939596 -51366000 -50313848 
2336.686 -46309012 -41920128 -38179540 -35112576 -32517392 -30222034 
2337.048 -28126210 -26208362 -24502248 -23060272 -21945610 -21197220 
2337.410 -20819902 -20792866 -21074324 -21615824 -22360160 -23254658 
2337.772 -24245188 -25275668 -26303804 -27296342 -28245510 -29184154 
2338.134 -30215140 -31507208 -33112458 -34602156 -35259088 -34991688 
2338.495 -34202688 -33213918 -32165386 -31105158 -30047624 -28999564 
2338.857 -27968570 -26961970 -25998096 -25104920 -24313368 -23660492 
2339.219 -23176416 -22877398 -22766704 -22835650 -23072556 -23470964 
2339.581 -24047860 -24856324 -26005524 -27691328 -30201418 -33797336 
2339.943 -38200416 -41612160 -41630732 -38549776 -34615804 -31146518 
2340.304 -28370118 -26158854 -24355724 -22863470 -21639942 -20665024 
2340.666 -19934580 -19443036 -19176054 -19120792 -19270582 -19634140 
2341.028 -20238036 -21121226 -22325728 -23885754 -25837124 -28231012 
2341.390 -31150372 -34758168 -39264796 -44712584 -50288060 -53394040 
2341.752 -51499920 -46010548 -40169676 -35441740 -31873756 -29195648 
2342.114 -27180388 -25696484 -24676802 -24057356 -23760478 -23678314 
2342.475 -23691554 -23692244 -23624688 -23502008 -23394582 -23394174 
2342.837 -23579280 -24010990 -24745162 -25874774 -27589382 -30262302 
2343.199 -34488108 -40767508 -48314032 -53722908 -53826832 -49748316 
2343.561 -44393364 -39421836 -35296448 -32061960 -29632614 -27899812 
2343.923 -26755434 -26060134 -25652384 -25366316 -25082686 -24747136 
2344.284 -24375992 -24028328 -23781402 -23703822 -23845514 -24246880 
2344.646 -24954034 -26045250 -27639752 -29881864 -32771722 -35747372 
2345.008 -37573904 -37447836 -35949220 -34083264 -32376378 -30920642 
2345.370 -29653472 -28472906 -27300760 -26106500 -24909544 -23767192 
2345.732 -22753214 -21950682 -21426316 -21235432 -21416570 -21985584 
2346.094 -22930452 -24214134 -25806338 -27703858 -29976504 -32788776 
2346.455 -36353088 -40741052 -45444904 -48933096 -49480676 -46929096 
2346.817 -42695908 -38191100 -34124680 -30716784 -27971212 -25862472 
2347.179 -24350524 -23372950 -22848918 -22660858 -22667682 -22715388 
2347.541 -22692400 -22568952 -22416080 -22369442 -22585404 -23203118 
2347.903 -24328062 -26030770 -28298474 -30949338 -33415228 -34775544 
2348.264 -34327648 -32263774 -29491528 -26834184 -24706444 -23183674 
2348.626 -22207308 -21671084 -21444072 -21369668 -21273924 -21016588 
2348.988 -20529652 -19863874 -19159916 -18600234 -18333146 -18437988 
2349.350 -18922580 -19719766 -20695290 -21652454 -22397042 -22789028 
2349.712 -22809336 -22555740 -22197674 -21901034 -21778684 -21898168 
2350.073 -22282984 -22932496 -23824094 -24917962 -26143598 -27375584 
2350.435 -28446498 -29176284 -29446510 -29249890 -28673168 -27834368 
2350.797 -26827424 -25713878 -24533406 -23321864 -22129730 -21017064 
2351.159 -20044192 -19270234 -18740874 -18498892 -18584552 -19026740 
2351.521 -19829750 -20957520 -22347728 -23925924 -25656912 -27579992 
2351.883 -29796920 -32403104 -35301364 -37880348 -39025868 -37973476 
2352.244 -35204428 -31892474 -28901796 -26568406 -24903506 -23826100 
2352.606 -23219418 -22955752 -22898770 -22917536 -22909960 -22819460 
2352.968 -22653940 -22468880 -22339796 -22326170 -22470546 -22812858 
2353.330 -23423466 -24438294 -26065970 -28475886 -31389228 -33780168 
2353.692 -34698280 -34280868 -33258698 -32165080 -31233544 -30503718 
2354.053 -29930702 -29425270 -28888838 -28241724 -27458454 -26576446 
2354.415 -25682680 -24878696 -24240582 -23815372 -23612326 -23624940 
2354.777 -23863080 -24424764 -25604938 -28007776 -32305640 -38077596 
2355.139 -42935764 -44872244 -44167960 -42037660 -39374176 -36657320 
2355.501 -34130592 -31912270 -30077676 -28654402 -27651350 -27080376 
2355.863 -26949418 -27267776 -28029614 -29210392 -30742220 -32516010 
2356.224 -34413364 -36285704 -37957868 -39160412 -39458144 -38430908 
2356.586 -36369636 -34302516 -32795380 -31737614 -30877348 -30067968 
2356.948 -29251778 -28424866 -27608164 -26845864 -26196662 -25720656 
2357.310 -25481376 -25523714 -25870464 -26525796 -27498202 -28828940 
2357.672 -30626352 -33130788 -36747660 -41903580 -48292300 -53439688 
2358.033 -54113512 -50735332 -46087848 -41792580 -38205576 -35263056 
2358.395 -32834120 -30824142 -29187158 -27893350 -26932384 -26307702 
2358.757 -26028088 -26114426 -26592622 -27496432 -28852874 -30681960 
2359.119 -33002444 -35754208 -38663036 -40868396 -40797372 -37829392 
2359.481 -33877484 -30815036 -28857340 -27605302 -26732970 -26076330 
2359.843 -25571888 -25203450 -24969048 -24875628 -24932790 -25159144 
2360.204 -25590162 -26283002 -27323130 -28828226 -30973344 -34011608 
2360.566 -38271384 -44028524 -50723692 -55672148 -55540116 -51170456 
2360.928 -45983544 -41658220 -38304936 -35617080 -33348952 -31392868 
2361.290 -29730338 -28396192 -27434690 -26857296 -26647688 -26766430 
2361.652 -27181010 -27885146 -28930534 -30460784 -32722068 -36045044 
2362.013 -40571180 -45280260 -47388696 -45446244 -41672184 -38260704 
2362.375 -35740324 -33893972 -32426872 -31142508 -29953836 -28856718 
2362.737 -27916466 -27224428 -26862902 -26882556 -27269860 -27938030 
2363.099 -28714884 -29376502 -29642828 -29236880 -28039958 -26596672 
2363.461 -26327224 -27885676 -30027278 -31468966 -31905930 -31472572 
2363.823 -30421398 -29000338 -27457552 -26014916 -24870090 -24170072 
2364.184 -23974496 -24273294 -25000614 -26094552 -27529800 -29399724 
2364.546 -31999480 -35852732 -41389492 -47663744 -51296816 -50020132 
2364.908 -45629764 -40677848 -36312800 -32808590 -30162102 -28295712 
2365.270 -27161714 -26714526 -26905136 -27687848 -29019646 -30881822 
2365.632 -33277112 -36274400 -40023480 -44728636 -50561036 -57130948 
2365.993 -62412696 -62989956 -58242508 -51646540 -45913500 -41530380 
2366.355 -38104912 -35232416 -32691214 -30417474 -28454504 -26919772 
2366.717 -25929152 -25588974 -25982024 -27183252 -29285820 -32431546 
2367.079 -36854332 -42674556 -49292124 -54269900 -53908844 -48089736 
2367.441 -40783132 -34824568 -30640956 -27808232 -25875304 -24529992 
2367.802 -23598172 -22999878 -22710764 -22750134 -23168972 -24056480 
2368.164 -25556236 -27902144 -31465206 -36697424 -43819500 -51756852 
2368.526 -56953240 -55988660 -50117096 -43154580 -37264260 -32920562 
2368.888 -29935126 -27996034 -26851908 -26292450 -26145440 -26268030 
2369.250 -26561142 -26980280 -27541122 -28329518 -29491250 -31182508 
2369.612 -33424738 -35715572 -36800908 -35741516 -33225120 -30603070 
2369.973 -28537106 -27093484 -26124286 -25478502 -25059948 -24825626 
2370.335 -24780186 -24962730 -25427256 -26234344 -27444798 -29135852 
2370.697 -31383190 -34211324 -37421236 -40227152 -41386328 -40389704 
2371.059 -38076836 -35500796 -33148378 -31103246 -29320540 -27770034 
2371.421 -26462484 -25424256 -24699402 -24326088 -24333826 -24760436 
2371.782 -25670438 -27175036 -29378328 -32209784 -35053252 -36577256 
2372.144 -35815328 -33283710 -30247964 -27525168 -25399944 -23890300 
2372.506 -22923884 -22428258 -22325476 -22536520 -22981712 -23595224 
2372.868 -24340342 -25207514 -26222054 -27413194 -28725180 -29892258 
2373.230 -30442094 -30068772 -28932488 -27391046 -25697482 -23968068 
2373.592 -22270960 -20676176 -19267792 -18154244 -17424210 -17139578 
2373.953 -17331156 -18008964 -19173042 -20799974 -22799056 -24853130 
2374.315 -26370350 -26824684 -26232598 -25070300 -23794640 -22663752 
2374.677 -21773768 -21154270 -20822492 -20784370 -21047556 -21626890 
2375.039 -22561782 -23928496 -25839216 -28402552 -31546250 -34749456 
2375.401 -36982000 -37251032 -35531480 -32663740 -29555546 -26716644 
2375.762 -24340312 -22472748 -21090548 -20170544 -19701432 -19690634 
2376.124 -20177218 -21227132 -22912222 -25202670 -27804410 -30042490 
2376.486 -31050128 -30459456 -28685824 -26482748 -24390998 -22656518 
2376.848 -21325980 -20349820 -19666600 -19233718 -19044278 -19132366 
2377.210 -19557432 -20372582 -21550342 -22894592 -23995346 -24358950 
2377.572 -23779176 -22482942 -20916284 -19429318 -18206260 -17299222 
2377.933 -16690712 -16356081 -16284917 -16494002 -17027190 -17935496 
2378.295 -19239898 -20851642 -22518116 -23826884 -24382350 -24077858 
2378.657 -23139854 -21940224 -20767692 -19788186 -19056962 -18570804 
2379.019 -18316850 -18291882 -18511084 -18998354 -19761814 -20751426 
2379.381 -21802824 -22652586 -23011126 -22723060 -21862282 -20666602 
2379.742 -19404414 -18270344 -17394892 -16846250 -16654044 -16829326 
2380.104 -17362038 -18217634 -19313812 -20514830 -21616078 -22373252 
2380.466 -22602830 -22263280 -21483840 -20479462 -19468036 -18602202 
2380.828 -17960198 -17579166 -17465364 -17608758 -17981752 -18535692 
2381.190 -19188546 -19813764 -20267290 -20414786 -20190850 -19632558 
2381.552 -18862876 -18034998 -17270820 -16651237 -16208634 -15942242 
2381.913 -15831398 -15841078 -15924675 -16019849 -16060213 -15983986 
2382.275 -15756058 -15388628 -14944480 -14516283 -14185519 -14001659 
2382.637 -13966141 -14043429 -14175224 -14306660 -14403278 -14463182 
2382.999 -14516764 -14611959 -14788739 -15052671 -15366849 -15664596 
2383.361 -15883725 -15987275 -15979387 -15896790 -15795646 -15730206 
2383.722 -15738195 -15834656 -16005287 -16209273 -16383745 -16463347 
2384.084 -16392328 -16143480 -15728991 -15205117 -14664978 -14214637 
2384.446 -13961521 -13980772 -14294669 -14861845 -15580469 -16309522 
2384.808 -16896862 -17237194 -17293238 -17103808 -16753521 -16343413 
2385.170 -15955912 -15635384 -15395025 -15223417 -15100164 -15005172 
2385.531 -14925719 -14855986 -14794503 -14741468 -14697779 -14665843 
2385.893 -14650370 -14657386 -14692366 -14757866 -14851535 -14965544 
2386.255 -15089380 -15208732 -15309437 -15377659 -15400046 -15367073 
2386.617 -15275595 -15133125 -14958949 -14783103 -14639607 -14553742 
2386.979 -14535670 -14572262 -14632110 -14670583 -14647519 -14541374 
2387.341 -14354747 -14114608 -13862397 -13644847 -13498982 -13449194 
2387.702 -13503447 -13654031 -13879695 -14147964 -14422766 -14664690 
2388.064 -14840296 -14929145 -14926936 -14847052 -14715493 -14565310 
2388.426 -14425074 -14315059 -14246799 -14223679 -14246286 -14313584 
2388.788 -14422254 -14561753 -14711265 -14841833 -14918484 -14913778 
2389.150 -14817720 -14642649 -14419401 -14186064 -13974516 -13797596 
2389.511 -13649985 -13515492 -13382886 -13255959 -13157478 -13117712 
2389.873 -13161495 -13289960 -13475503 -13666841 -13811206 -13876743 
2390.235 -13866762 -13818973 -13790085 -13830752 -13959371 -14153576 
2390.597 -14357408 -14510131 -14569154 -14535670 -14453855 -14399207 
2390.959 -14444240 -14630156 -14949890 -15349227 -15743371 -16041020 
2391.321 -16178053 -16125314 -15894139 -15523502 -15068705 -14585591 
2391.682 -14118649 -13704502 -13368074 -13124463 -12978520 -12922400 
2392.044 -12934718 -12983215 -13035662 -13066401 -13064246 -13033186 
2392.406 -12987235 -12939992 -12895929 -12846425 -12775230 -12669013 
2392.768 -12528679 -12376740 -12255155 -12217820 -12309333 -12553144 
2393.130 -12941440 -13438208 -13984847 -14515354 -14974795 -15322328 
2393.491 -15539966 -15630014 -15610645 -15508763 -15354760 -15181857 
2393.853 -15020568 -14898666 -14840296 -14860949 -14967049 -15151972 
2394.215 -15396495 -15665492 -15911195 -16082468 -16128156 -16014230 
2394.577 -15734583 -15318329 -14826975 -14344232 -13961232 -13745402 
2394.939 -13729447 -13900361 -14209602 -14586456 -14961895 -15288837 
2395.301 -15544633 -15728639 -15849032 -15909279 -15901964 -15813218 
2395.662 -15635064 -15379738 -15086915 -14820667 -14645725 -14609716 
2396.024 -14719720 -14937180 -15182977 -15363395 -15402475 -15258352 
2396.386 -14939997 -14498562 -14015871 -13572049 -13232048 -13033700 
2396.748 -12983248 -13063056 -13238894 -13472997 -13725081 -13959629 
2397.110 -14149631 -14275496 -14329743 -14317463 -14254751 -14163904 
2397.471 -14067552 -13983179 -13918203 -13869971 -13828859 -13784757 
2397.833 -13731855 -13673841 -13624779 -13608980 -13655379 -13790727 
2398.195 -14034959 -14393246 -14853104 -15382904 -15938856 -16469600 
2398.557 -16924398 -17266140 -17472812 -17540504 -17480164 -17312658 
2398.919 -17062204 -16751034 -16401134 -16033133 -15666898 -15323063 
2399.281 -15018424 -14763311 -14560214 -14403791 -14284473 -14193472 
2399.642 -14127277 -14086735 -14074417 -14088177 -14116243 -14136802 
2400.004 -14124422 -14058217 -13934793 -13772977 -13614567 -13508972 
2400.366 -13501906 -13617778 -13850972 -14164705 -14501574 -14804015 
2400.728 -15024825 -15142788 -15163011 -15111141 -15019672 -14915891 
2401.090 -14816151 -14722090 -14625639 -14516604 -14390104 -14250903 
2401.451 -14113485 -13997103 -13920674 -13895291 -13920963 -13985328 
2401.813 -14068033 -14146938 -14202964 -14227014 -14220633 -14193183 
2402.175 -14156302 -14117494 -14076277 -14024116 -13949489 -13844778 
2402.537 -13713877 -13575582 -13459538 -13396187 -13408684 -13499882 
2402.899 -13651494 -13825937 -13982826 -14089653 -14136258 -14138214 
2403.260 -14133852 -14171889 -14292040 -14516764 -14840072 -15232024 
2403.622 -15643055 -16020935 -16322510 -16519936 -16607836 -16600374 
2403.984 -16526315 -16417693 -16305182 -16208986 -16135562 -16079722 
2404.346 -16028887 -15970157 -15895896 -15807532 -15714068 -15627746 
2404.708 -15557357 -15504255 -15462049 -15422175 -15379610 -15339056 
2405.070 -15314171 -15320633 -15365218 -15435670 -15496101 -15496422 
2405.431 -15390739 -15154660 -14802702 -14389367 -13999157 -13713491 
2405.793 -13590869 -13645297 -13845804 -14128849 -14423343 -14678848 
2406.155 -14871451 -15005909 -15099108 -15164675 -15200255 -15190528 
2406.517 -15118885 -14985262 -14815767 -14662543 -14582194 -14618334 
2406.879 -14778939 -15032731 -15316347 -15560745 -15719021 -15778424 
2407.240 -15764110 -15721163 -15694063 -15701285 -15727267 -15726820 
2407.602 -15647946 -15450859 -15128069 -14708766 -14254142 -13839674 
2407.964 -13530716 -13373986 -13382693 -13536626 -13782991 -14049395 
2408.326 -14254302 -14318265 -14189559 -13852769 -13341759 -12732212 
2408.688 -12135568 -11670563 -11427773 -11454010 -11733167 -12195366 
2409.050 -12728866 -13218999 -13574812 -13747295 -13741068 -13605062 
2409.411 -13416876 -13252810 -13176572 -13223371 -13395351 -13667324 
2409.773 -13995467 -14331537 -14628425 -14851951 -14983790 -15020120 
2410.135 -14969802 -14848589 -14675196 -14464688 -14227335 -13969254 
2410.497 -13694486 -13410836 -13134364 -12889529 -12711394 -12636251 
2410.859 -12692182 -12890171 -13214596 -13622692 -14047407 -14419593 
2411.220 -14680899 -14804047 -14800492 -14718183 -14624934 -14581233 
2411.582 -14626184 -14762286 -14961382 -15179713 -15381400 -15555247 
2411.944 -15718224 -15903562 -16141629 -16437920 -16764967 -17064338 
2412.306 -17267284 -17323834 -17215378 -16963880 -16616894 -16230850 
2412.668 -15845422 -15473784 -15106629 -14728753 -14338270 -13960270 
2413.030 -13641990 -13442770 -13410805 -13562769 -13878475 -14305409 
2413.391 -14778747 -15232568 -15618987 -15912026 -16101561 -16188173 
2413.753 -16176904 -16076017 -15899472 -15670445 -15421759 -15187584 
2414.115 -14997170 -14865592 -14790244 -14754119 -14735350 -14716486 
2414.477 -14689963 -14657962 -14626087 -14596452 -14562714 -14511188 
2414.839 -14427221 -14304640 -14153352 -13999606 -13878892 -13828505 
2415.200 -13873822 -14020780 -14253436 -14538169 -14832963 -15092611 
2415.562 -15282696 -15381944 -15384982 -15300929 -15149860 -14957637 
2415.924 -14748354 -14542047 -14350227 -14177341 -14022865 -13885921 
2416.286 -13768868 -13679588 -13629949 -13634316 -13706204 -13854726 
2416.648 -14083366 -14388341 -14757610 -15168834 -15588460 -15976928 
2417.010 -16289001 -16485997 -16545549 -16468195 -16280130 -16027225 
2417.371 -15766250 -15545624 -15395184 -15319641 -15301185 -15306750 
2417.733 -15300929 -15258608 -15167171 -15028411 -14853296 -14657674 
2418.095 -14456259 -14261227 -14080736 -13918460 -13772720 -13634926 
2418.457 -13492174 -13328553 -13132178 -12900850 -12646518 -12395674 
2418.819 -12181642 -12040183 -11997737 -12065643 -12238469 -12497130 
2419.180 -12813194 -13152495 -13483211 -13774838 -14000985 -14143378 
2419.542 -14190618 -14142800 -14010642 -13816373 -13588877 -13359657 
2419.904 -13162009 -13025823 -12976783 -13036305 -13215882 -13512955 
2420.266 -13905368 -14352824 -14797417 -15174274 -15430073 -15529448 
2420.628 -15467581 -15267853 -14976555 -14646718 -14325638 -14049299 
2420.990 -13836978 -13695994 -13625935 -13622692 -13678561 -13780841 
2421.351 -13913390 -14055619 -14188469 -14300760 -14391258 -14469271 
2421.713 -14549544 -14646269 -14765873 -14904685 -15050558 -15187329 
2422.075 -15299234 -15372894 -15398286 -15366049 -15267245 -15095715 
2422.437 -14852336 -14549641 -14212680 -13878090 -13583129 -13356443 
2422.799 -13212538 -13147834 -13146419 -13186954 -13253999 -13340667 
2423.160 -13449804 -13588075 -13758981 -13956356 -14163262 -14352087 
2423.522 -14492665 -14560247 -14540797 -14436997 -14269083 -14073069 
2423.884 -13889258 -13755578 -13694678 -13705465 -13761838 -13820129 
2424.246 -13838166 -13789861 -13682831 -13557341 -13479068 -13509936 
2424.608 -13683344 -13986195 -14359235 -14710976 -14947233 -15008758 
2424.969 -14883970 -14615227 -14275656 -13950484 -13706172 -13575519 
2425.331 -13562769 -13652168 -13823562 -14058859 -14343271 -14656617 
2425.693 -14963783 -15218874 -15369952 -15378650 -15238102 -14980845 
2426.055 -14673627 -14393855 -14211911 -14163904 -14244746 -14412542 
2426.417 -14610132 -14784384 -14902860 -14963079 -14985999 -15005012 
2426.779 -15048574 -15133221 -15258256 -15410183 -15568801 -15716912 
2427.140 -15845677 -15955273 -16052868 -16147057 -16242724 -16336648 
2427.502 -16416641 -16463762 -16458433 -16385628 -16239883 -16027769 
2427.864 -15766665 -15480787 -15195167 -14935547 -14723948 -14578670 
2428.226 -14514489 -14536887 -14638165 -14791205 -14953636 -15071426 
2428.588 -15095812 -15002804 -14804591 -14552813 -14321343 -14188469 
2428.949 -14202259 -14361544 -14611510 -14863350 -15023449 -15024217 
2429.311 -14853296 -14555440 -14220248 -13942526 -13801255 -13828249 
2429.673 -14003520 -14262478 -14520802 -14702872 -14757033 -14672602 
2430.035 -14477956 -14233011 -14007049 -13863648 -13842274 -13944579 
2430.397 -14133403 -14341860 -14499235 -14547141 -14468341 -14294123 
2430.759 -14102483 -13991938 -14050198 -14328300 -14818072 -15453704 
2431.120 -16124932 -16716985 -17130086 -17305748 -17236844 -16961138 
2431.482 -16548483 -16077679 -15630430 -15272204 -15044382 -14962503 
2431.844 -15011799 -15150820 -15316218 -15444047 -15479571 -15396303 
2432.206 -15202622 -14940670 -14673851 -14464527 -14364365 -14397605 
2432.568 -14559862 -14820218 -15132229 -15442512 -15696108 -15849510 
2432.929 -15873279 -15759125 -15522382 -15203614 -14860405 -14550409 
2433.291 -14323683 -14206043 -14196679 -14273892 -14408151 -14574441 
2433.653 -14758282 -14955940 -15164579 -15371551 -15552274 -15671117 
2434.015 -15694447 -15607320 -15420832 -15173570 -14916210 -14701270 
2434.377 -14561496 -14505228 -14518110 -14574793 -14649153 -14721226 
2434.739 -14778427 -14810772 -14806320 -14752582 -14640856 -14475841 
2435.100 -14278157 -14084039 -13932290 -13848918 -13838422 -13882262 
2435.462 -13949842 -14014620 -14070888 -14137444 -14249139 -14433567 
2435.824 -14693007 -14990864 -15262702 -15431864 -15444559 -15293827 
2436.186 -15027162 -14729746 -14492922 -14384847 -14419401 -14554960 
2436.548 -14707421 -14789156 -14734006 -14523173 -14186160 -13788865 
2436.909 -13406082 -13093118 -12877820 -12756344 -12707404 -12708401 
2437.271 -12750038 -12839187 -12992959 -13224238 -13529560 -13882840 
2437.633 -14243720 -14567167 -14822684 -15006069 -15140036 -15262863 
2437.995 -15408424 -15589228 -15783824 -15940709 -15991107 -15879253 
2438.357 -15581524 -15121573 -14563259 -13999477 -13523136 -13197239 
2438.719 -13046402 -13049778 -13157285 -13303907 -13435542 -13521659 
2439.080 -13559461 -13569931 -13587657 -13649471 -13780937 -13991392 
2439.442 -14270141 -14589948 -14909712 -15184673 -15379258 -15473145 
2439.804 -15469788 -15394833 -15289477 -15193376 -15131877 -15106629 
2440.166 -15096580 -15067169 -14988143 -14852047 -14682404 -14532786 
2440.528 -14466867 -14543520 -14790180 -15191328 -15685562 -16181853 
2440.889 -16579740 -16786134 -16744148 -16439324 -15905926 -15216571 
2441.251 -14476097 -13801768 -13293366 -13025758 -13024761 -13264990 
2441.613 -13671561 -14142672 -14575914 -14887748 -15040125 -15041757 
2441.975 -14940574 -14798187 -14672089 -14594658 -14567552 -14569154 
2442.337 -14569763 -14549929 -14508336 -14462477 -14437670 -14454400 
2442.698 -14514809 -14599720 -14673338 -14699509 -14653157 -14532305 
2443.060 -14358850 -14174198 -14026747 -13955810 -13986740 -14123781 
2443.422 -14353177 -14646654 -14969641 -15286150 -15560457 -15764045 
2443.784 -15875515 -15884172 -15792100 -15615887 -15384151 -15129317 
2444.146 -14884355 -14672154 -14500741 -14363659 -14244426 -14125673 
2444.508 -13996108 -13857872 -13726589 -13627283 -13583835 -13609879 
2444.869 -13701485 -13836369 -13975799 -14076405 -14103991 -14039515 
2445.231 -13888359 -13675511 -13440553 -13223081 -13052800 -12943659 
2445.593 -12892616 -12884865 -12904067 -12940732 -12997365 -13086752 
2445.955 -13224270 -13419125 -13665685 -13941467 -14209698 -14432414 
2446.317 -14581425 -14647359 -14643707 -14602860 -14567616 -14575979 
2446.678 -14655624 -14816824 -15053471 -15346156 -15667824 -15989350 
2447.040 -16278788 -16506571 -16647315 -16681371 -16601808 -16416417 
2447.402 -16150026 -15837148 -15518834 -15232664 -15003316 -14843338 
2447.764 -14751909 -14719944 -14733205 -14775897 -14830786 -14877407 
2448.126 -14894920 -14864599 -14774872 -14628938 -14446388 -14261773 
2448.488 -14112491 -14031398 -14033869 -14114255 -14248081 -14401836 
2448.849 -14544802 -14654310 -14719976 -14739194 -14710272 -14627784 
2449.211 -14482539 -14267576 -13986676 -13662732 -13338642 -13066465 
2449.573 -12899242 -12871580 -12987974 -13220349 -13515010 -13809537 
2449.935 -14045739 -14191836 -14247087 -14243144 -14228906 -14259208 
2450.297 -14374622 -14587481 -14878815 -15202206 -15501473 -15722472 
2450.658 -15834400 -15838042 -15765898 -15668081 -15596580 -15588589 
2451.020 -15653251 -15771938 -15906405 -16016304 -16069153 -16050186 
2451.382 -15961628 -15816126 -15627872 -15406186 -15157539 -14889670 
2451.744 -14618174 -14370230 -14178399 -14073807 -14073967 -14175096 
2452.106 -14351381 -14561656 -14765264 -14928889 -15037308 -15091684 
2452.468 -15103429 -15084163 -15038973 -14963239 -14846284 -14676830 
2452.829 -14448535 -14164866 -13839385 -13494454 -13155709 -12850992 
2453.191 -12606094 -12439885 -12365565 -12388364 -12507561 -12720500 
2453.553 -13025952 -13426771 -13926771 -14525159 -15206461 -15932022 
2453.915 -16644062 -17267732 -17730888 -17987952 -18029626 -17889646 
2454.277 -17630616 -17327176 -17035602 -16779056 -16545199 -16300140 
2454.638 -16008321 -15654305 -15253553 -14849742 -14498562 -14243240 
2455.000 -14102708 -14064088 -14092701 -14145110 -14189463 -14215086 
2455.362 -14231600 -14260009 -14319067 -14413727 -14529358 -14632142 
2455.724 -14676286 -14618686 -14424017 -14078972 -13597195 -13025823 
2456.086 -12440561 -11934333 -11609338 -11545329 -11782249 -12305339 
2456.448 -13045404 -13888359 -14699477 -15366369 -15812324 -16017262 
2456.809 -16010907 -15858360 -15632667 -15392050 -15174466 -14993009 
2457.171 -14846828 -14731860 -14648256 -14600810 -14593953 -14624229 
2457.533 -14675581 -14719336 -14723596 -14658731 -14508496 -14274502 
2457.895 -13976665 -13648154 -13328778 -13062992 -12889786 -12841342 
2458.257 -12938738 -13185893 -13567072 -14044134 -14564572 -15064225 
2458.618 -15484080 -15785165 -15954923 -16012376 -15999347 -15971594 
2458.980 -15978588 -16050696 -16193504 -16388021 -16598556 -16784348 
2459.342 -16915218 -16975830 -16968660 -16908814 -16817564 -16712872 
2459.704 -16603658 -16490079 -16365303 -16221944 -16057018 -15876537 
2460.066 -15696555 -15541181 -15435126 -15399981 -15446253 -15569792 
2460.427 -15750466 -15955688 -16148461 -16292641 -16364058 -16355187 
2460.789 -16275406 -16147662 -16000401 -15861683 -15750337 -15676167 
2461.151 -15640881 -15643278 -15682206 -15758613 -15872736 -16018795 
2461.513 -16181150 -16334094 -16443662 -16479457 -16423691 -16279396 
2461.875 -16071644 -15843665 -15646858 -15522190 -15494023 -15560298 
2462.237 -15694447 -15848968 -15968591 -16005127 -15923845 -15716465 
2462.598 -15401580 -15025306 -14646750 -14329390 -14124871 -14057704 
2462.960 -14121664 -14281395 -14488949 -14695858 -14872444 -15016664 
2463.322 -15151236 -15311196 -15525740 -15804943 -16131094 -16463952 
2463.684 -16751226 -16950178 -17035410 -17005652 -16876338 -16670560 
2464.046 -16406527 -16090704 -15721066 -15294404 -14815959 -14308776 
2464.407 -13812586 -13379930 -13069069 -12926838 -12982186 -13236965 
2464.769 -13664818 -14209474 -14790948 -15323287 -15717711 -15906883 
2465.131 -15860084 -15589739 -15150724 -14626792 -14116596 -13701838 
2465.493 -13436697 -13338321 -13390404 -13553487 -13780584 -14032906 
2465.855 -14282870 -14516443 -14729105 -14918964 -15084867 -15224313 
2466.217 -15336209 -15421311 -15482130 -15520943 -15537281 -15526347 
2466.578 -15480595 -15392530 -15258864 -15082339 -14871803 -14640408 
2466.940 -14402124 -14168778 -13950323 -13753459 -13583547 -13444793 
2467.302 -13339574 -13268268 -13229155 -13219546 -13237737 -13284497 
2467.664 -13362516 -13474732 -13619416 -13788159 -13963863 -14124871 
2468.026 -14251160 -14329133 -14356735 -14341155 -14294636 -14226309 
2468.387 -14138599 -14027228 -13885953 -13714294 -13523618 -13337357 
2468.749 -13187018 -13100769 -13092829 -13157574 -13270775 -13396637 
2469.111 -13498244 -13552042 -13552427 -13513437 -13460630 -13425454 
2469.473 -13433132 -13496317 -13613411 -13769766 -13943970 -14111657 
2469.835 -14253853 -14359395 -14424849 -14452701 -14446452 -14406548 
2470.197 -14329005 -14208351 -14044391 -13849013 -13652072 -13498084 
2470.558 -13432072 -13488030 -13668447 -13938996 -14229900 -14461258 
2470.920 -14564316 -14506574 -14304544 -14020812 -13744888 -13557084 
2471.282 -13512377 -13618100 -13838166 -14104215 -14342116 -14493563 
2471.644 -14526409 -14441837 -14268121 -14052411 -13845098 -13693811 
2472.006 -13632067 -13671337 -13797789 -13972751 -14145623 -14263215 
2472.367 -14293514 -14238077 -14135616 -14047246 -14033516 -14129939 
2472.729 -14326504 -14567712 -14768467 -14853328 -14779580 -14561624 
2473.091 -14262157 -13976152 -13790535 -13751918 -13855369 -14047085 
2473.453 -14248691 -14381546 -14399271 -14294893 -14100976 -13871929 
2473.815 -13671754 -13557662 -13567939 -13722352 -14018053 -14430715 
2474.177 -14912465 -15398926 -15821014 -16113948 -16240330 -16198101 
2474.538 -16023489 -15774973 -15518546 -15305247 -15155108 -15058784 
2474.900 -14986062 -14906158 -14799915 -14669782 -14536535 -14429882 
2475.262 -14372827 -14372762 -14418343 -14485391 -14544129 -14568962 
2475.624 -14547045 -14479398 -14380841 -14274758 -14190232 -14153929 
2475.986 -14182760 -14279150 -14426869 -14593953 -14738009 -14821435 
2476.347 -14822172 -14741916 -14603821 -14445106 -14301241 -14190265 
2476.709 -14107423 -14028158 -13922054 -13767552 -13567136 -13350949 
2477.071 -13173035 -13091414 -13152302 -13375561 -13746076 -14215823 
2477.433 -14711040 -15154372 -15470491 -15605498 -15536993 -15275946 
2477.795 -14864695 -14364396 -13847088 -13372733 -12979742 -12681209 
2478.156 -12467864 -12320477 -12224263 -12179611 -12204483 -12326628 
2478.518 -12568402 -12935522 -13408748 -13948686 -14503818 -15027258 
2478.880 -15486510 -15864685 -16158005 -16367599 -16493747 -16535023 
2479.242 -16492376 -16374078 -16196888 -15982771 -15750816 -15507995 
2479.604 -15249299 -14962855 -14642362 -14299253 -13964120 -13679428 
2479.966 -13482762 -13385488 -13364122 -13363768 -13325115 -13206046 
2480.327 -13008716 -12780958 -12605771 -12562737 -12693277 -12980225 
2480.689 -13348539 -13690921 -13900714 -13918556 -13748387 -13458220 
2481.051 -13147898 -12921660 -12850286 -12950155 -13186600 -13489990 
2481.413 -13785174 -14008652 -14129329 -14150530 -14103221 -14029890 
2481.775 -13971949 -13957575 -13992387 -14061585 -14134558 -14179394 
2482.136 -14173236 -14115313 -14027934 -13954398 -13940312 -14015358 
2482.498 -14178496 -14393053 -14595010 -14710880 -14689259 -14516251 
2482.860 -14225603 -13884445 -13577863 -13379480 -13328071 -13425069 
2483.222 -13637430 -13916310 -14210147 -14483307 -14719592 -14920917 
2483.584 -15101220 -15280393 -15479124 -15714260 -15995450 -16320214 
2483.946 -16670018 -17006034 -17276296 -17429046 -17424814 -17255696 
2484.307 -16949540 -16567716 -16180448 -15845934 -15589324 -15394353 
2484.669 -15211420 -14981549 -14667925 -14273091 -13845708 -13462300 
2485.031 -13206432 -13131600 -13242815 -13492623 -13800774 -14081217 
2485.393 -14269180 -14347021 -14344072 -14326247 -14364525 -14514200 
2485.755 -14791493 -15167459 -15573149 -15920905 -16130423 -16143128 
2486.116 -15944159 -15564006 -15076418 -14577068 -14167977 -13934953 
2486.478 -13921862 -14122915 -14477699 -14890918 -15244053 -15432919 
2486.840 -15396336 -15127685 -14680034 -14147419 -13646357 -13274727 
2487.202 -13094436 -13119158 -13318463 -13631907 -13991039 -14343431 
2487.564 -14656809 -14923639 -15151140 -15349930 -15523757 -15665684 
2487.926 -15760563 -15792994 -15755130 -15650662 -15494663 -15310621 
2488.287 -15124581 -14958053 -14828736 -14748322 -14723628 -14756969 
2488.649 -14843722 -14971338 -15115781 -15245268 -15325782 -15327766 
2489.011 -15238645 -15067874 -14849934 -14634256 -14479334 -14436836 
2489.373 -14536439 -14782847 -15153316 -15605913 -16083777 -16530143 
2489.735 -16895110 -17137604 -17232544 -17169550 -16955498 -16613832 
2490.096 -16185971 -15728768 -15301185 -14961382 -14749571 -14678336 
2490.458 -14730386 -14862582 -15021176 -15153028 -15224217 -15225561 
2490.820 -15168930 -15076482 -14967240 -14846220 -14702776 -14518046 
2491.182 -14280017 -13996654 -13704149 -13460051 -13323540 -13338996 
2491.544 -13511284 -13802025 -14133339 -14418407 -14583796 -14595362 
2491.906 -14470873 -14274758 -14097223 -14018631 -14091000 -14316438 
2492.267 -14650851 -15016119 -15329972 -15532773 -15602110 -15559946 
2492.629 -15461346 -15375100 -15353161 -15417634 -15550100 -15702756 
2492.991 -15812164 -15826445 -15724869 -15524205 -15273836 -15035516 
2493.353 -14865848 -14792934 -14810803 -14884546 -14971338 -15037020 
2493.715 -15074210 -15104260 -15168770 -15309437 -15545784 -15863983 
2494.076 -16216487 -16537575 -16758144 -16832578 -16748037 -16525805 
2494.438 -16209112 -15849160 -15492265 -15167907 -14893800 -14679745 
2494.800 -14534324 -14468694 -14493851 -14614009 -14819258 -15083107 
2495.162 -15366754 -15624677 -15822420 -15943551 -15995642 -16004840 
2495.524 -16007075 -16032558 -16092749 -16175596 -16247064 -16265161 
2495.885 -16190279 -16003435 -15713781 -15359526 -14996018 -14681892 
2496.247 -14462508 -14354138 -14339680 -14371833 -14390714 -14335961 
2496.609 -14167912 -13879727 -13500685 -13090385 -12720790 -12467059 
2496.971 -12381989 -12487601 -12769697 -13183128 -13660260 -14125641 
2497.333 -14518302 -14799019 -14959398 -15018616 -15014647 -14989200 
2497.695 -14970633 -14968105 -14967336 -14940382 -14856978 -14703064 
2498.056 -14490422 -14258951 -14063446 -13958826 -13977757 -14114768 
2498.418 -14321535 -14516860 -14614265 -14539483 -14262029 -13803983 
2498.780 -13239858 -12670557 -12198330 -11901387 -11808498 -11898066 
2499.142 -12107115 -12358351 -12576353 -12710686 -12745373 -12694274 
2499.504 -12591191 -12475302 -12384661 -12347111 -12381119 -12498257 
2499.865 -12701418 -12983408 -13322544 -13684533 -14023026 -14290565 
2500.227 -14453920 -14500741 -14445490 -14321632 -14172531 -14034607 
2500.589 -13928535 -13859797 -13824847 -13821958 -13859444 -13954558 
2500.951 -14125320 -14376834 -14691373 -15024825 -15317178 -15514550 
2501.313 -15581492 -15516947 -15350122 -15130917 -14906670 -14707613 
2501.675 -14541598 -14397413 -14258213 -14114640 -13971596 -13845644 
2502.036 -13754005 -13702255 -13678914 -13658301 -13613508 -13528500 
2502.398 -13410901 -13290795 -13214821 -13225138 -13348057 -13582744 
2502.760 -13904726 -14272097 -14639799 -14974859 -15260047 -15495814 
2503.122 -15694957 -15875962 -16053921 -16235095 -16413450 -16570713 
2503.484 -16678151 -16699927 -16604360 -16368875 -15989607 -15485327 
2503.845 -14898474 -14289122 -13719720 -13251396 -12928897 -12775295 
2504.207 -12793569 -12968679 -13272189 -13665942 -14110791 -14568257 
2504.569 -15005749 -15403340 -15753565 -16061073 -16336169 -16587298 
2504.931 -16811730 -16991568 -17094188 -17084312 -16935678 -16644796 
2505.293 -16237298 -15766794 -15306047 -14922069 -14665843 -14555569 
2505.655 -14574184 -14674428 -14793639 -14875005 -14877503 -14790532 
2506.016 -14633936 -14452701 -14299542 -14221499 -14246253 -14373275 
2506.378 -14575466 -14807153 -15022809 -15186656 -15286407 -15334226 
2506.740 -15362116 -15408520 -15503967 -15664438 -15884748 -16142841 
2507.102 -16404325 -16633635 -16798184 -16872420 -16842872 -16707325 
2507.464 -16477415 -16175915 -15838042 -15504222 -15210908 -14986639 
2507.825 -14843434 -14777050 -14770485 -14803214 -14857107 -14921717 
2508.187 -14995250 -15081058 -15182881 -15300801 -15429433 -15558508 
2508.549 -15675176 -15763342 -15806254 -15788330 -15696108 -15525036 
2508.911 -15283688 -14997618 -14704377 -14449144 -14270975 -14190425 
2509.273 -14204214 -14286782 -14402509 -14514296 -14598343 -14647647 
2509.635 -14668982 -14675485 -14679682 -14690860 -14715333 -14760973 
2509.996 -14838471 -14956580 -15114469 -15291557 -15449195 -15534467 
2510.358 -15502145 -15336177 -15063585 -14752710 -14493306 -14371737 
2510.720 -14433087 -14667541 -15009558 -15365954 -15639603 -15763056 
2511.082 -15716210 -15521008 -15225401 -14876991 -14510131 -14137797 
2511.444 -13759269 -13376299 -13004857 -12679954 -12451766 -12366338 
2511.805 -12454084 -12715867 -13121505 -13612448 -14114800 -14558516 
2512.167 -14882850 -15053759 -15067777 -14952803 -14760108 -14554543 
2512.529 -14402413 -14351638 -14425715 -14618142 -14898730 -15220058 
2512.891 -15530886 -15789863 -15966516 -16046258 -16027927 -15921736 
2513.253 -15746376 -15525803 -15288549 -15059616 -14855986 -14682884 
2513.615 -14533459 -14394560 -14255392 -14116051 -13989307 -13895131 
2513.976 -13848693 -13849303 -13874624 -13887814 -13850009 -13741582 
2514.338 -13574266 -13391657 -13250978 -13205275 -13278616 -13457289 
2514.700 -13694582 -13930397 -14118104 -14237115 -14299606 -14337917 
2515.062 -14390104 -14479687 -14609524 -14765073 -14924726 -15068961 
2515.424 -15186337 -15270893 -15317242 -15317529 -15265550 -15164387 
2515.785 -15036604 -14923287 -14879904 -14953155 -15162659 -15487917 
2516.147 -15873695 -16244734 -16530143 -16691988 -16730567 -16681690 
2516.509 -16593644 -16510846 -16455723 -16426722 -16409175 -16390892 
2516.871 -16372865 -16370822 -16405251 -16488070 -16611217 -16745584 
2517.233 -16847206 -16871016 -16788492 -16591731 -16295161 -15926784 
2517.594 -15521743 -15113381 -14729810 -14396708 -14135135 -13961521 
2517.956 -13884669 -13901998 -13997969 -14145526 -14313873 -14471290 
2518.318 -14591390 -14655624 -14650819 -14569378 -14409336 -14177308 
2518.680 -13889932 -13573109 -13260330 -12980546 -12752709 -12579668 
2519.042 -12450961 -12350396 -12268169 -12209605 -12197427 -12264594 
2519.404 -12439434 -12734368 -13135683 -13606283 -14090744 -14535190 
2519.765 -14897321 -15154787 -15307742 -15373150 -15377755 -15347660 
2520.127 -15306302 -15268749 -15241269 -15222265 -15203518 -15174434 
2520.489 -15125412 -15053567 -14965160 -14876606 -14808626 -14782687 
2520.851 -14814679 -14910832 -15068065 -15275403 -15517011 -15770340 
2521.213 -16005319 -16185269 -16264619 -16201772 -15970284 -15571742 
2521.574 -15041565 -14447862 -13878603 -13412219 -13104692 -12973472 
2521.936 -12998972 -13135972 -13332890 -13549569 -13759334 -13948269 
2522.298 -14105723 -14216176 -14260522 -14224289 -14109989 -13944483 
2522.660 -13778690 -13674901 -13681932 -13822375 -14080479 -14411228 
2523.022 -14751204 -15044414 -15257488 -15382744 -15433655 -15431033 
2523.384 -15392434 -15324343 -15224505 -15088163 -14913970 -14706972 
2523.745 -14476226 -14231151 -13980965 -13736798 -13516649 -13351046 
2524.107 -13278359 -13333726 -13535437 -13868270 -14278990 -14680802 
2524.469 -14983854 -15113477 -15037820 -14776793 -14397317 -13991039 
2524.831 -13643017 -13418515 -13343719 -13409744 -13580624 -13809184 
2525.193 -14047791 -14253789 -14398631 -14467989 -14467028 -14420747 
2525.554 -14374718 -14385841 -14504394 -14762414 -15156483 -15645707 
2525.916 -16156059 -16604710 -16920222 -17058062 -17010782 -16800478 
2526.278 -16465643 -16043065 -15562057 -15043518 -14505996 -13977468 
2526.640 -13496767 -13107135 -12846200 -12727418 -12732148 -12808754 
2527.002 -12891136 -12916514 -12845910 -12677605 -12444779 -12202711 
2527.364 -12003828 -11885718 -11857766 -11905772 -12001378 -12119360 
2527.725 -12247070 -12387656 -12553466 -12755058 -12990901 -13243072 
2528.087 -13478972 -13661448 -13763539 -13775769 -13712368 -13605159 
2528.449 -13496541 -13424137 -13409101 -13450993 -13527440 -13600663 
2528.811 -13626192 -13569255 -13412507 -13163200 -12851122 -12524558 
2529.173 -12237503 -12033802 -11942134 -11968696 -12102186 -12321057 
2529.534 -12604935 -12940700 -13322287 -13745177 -14195620 -14640952 
2529.896 -15031771 -15304639 -15398894 -15278601 -14942687 -14432189 
2530.258 -13817721 -13189911 -12631230 -12198330 -11919376 -11792021 
2530.620 -11795794 -11903514 -12093034 -12346725 -12647869 -12975658 
2530.982 -13298155 -13575422 -13770665 -13858481 -13839418 -13740876 
2531.344 -13616398 -13526284 -13522622 -13634026 -13856011 -14152679 
2531.705 -14466835 -14741468 -14929081 -15006805 -14978348 -14870235 
2532.067 -14720873 -14567552 -14440298 -14353882 -14309609 -14298997 
2532.429 -14310603 -14334262 -14363050 -14392893 -14419465 -14434272 
2532.791 -14424113 -14370775 -14255264 -14064825 -13797146 -13464967 
2533.153 -13096558 -12733307 -12420179 -12196526 -12088522 -12101186 
2533.514 -12216918 -12398830 -12602778 -12783725 -12910306 -12971509 
2533.876 -12977363 -12953950 -12931791 -12936519 -12977266 -13044151 
2534.238 -13109161 -13138801 -13102666 -12985273 -12792925 -12556009 
2534.600 -12324857 -12156511 -12110950 -12235795 -12555301 -13065854 
2534.962 -13730282 -14482186 -15226969 -15866378 -16310895 -16498756 
2535.323 -16415013 -16093707 -15614352 -15075618 -14583251 -14218677 
2535.685 -14021582 -13989083 -14079870 -14233427 -14383757 -14482795 
2536.047 -14507022 -14457317 -14352728 -14220697 -14086991 -13968452 
2536.409 -13874368 -13808798 -13774838 -13777887 -13824333 -13917466 
2536.771 -14052250 -14212713 -14373980 -14507535 -14594754 -14634737 
2537.133 -14650114 -14679361 -14767474 -14946304 -15218906 -15553105 
2537.494 -15887590 -16153697 -16292289 -16281119 -16141821 -15937164 
2537.856 -15746791 -15645964 -15683262 -15865900 -16162539 -16514705 
2538.218 -16861104 -17146904 -17339816 -17430448 -17428346 -17354238 
2538.580 -17231460 -17083452 -16927966 -16776538 -16634401 -16500829 
2538.942 -16371876 -16245883 -16128059 -16033517 -15984369 -15999857 
2539.303 -16086617 -16226765 -16378671 -16479999 -16471099 -16314788 
2539.665 -16012568 -15607864 -15177986 -14811925 -14577741 -14507951 
2540.027 -14587000 -14761485 -14953283 -15087076 -15113925 -15020120 
2540.389 -14832643 -14609107 -14428471 -14363916 -14468919 -14760172 
2540.751 -15209916 -15746439 -16267618 -16673846 -16884212 -16866616 
2541.113 -16644923 -16293215 -15911259 -15592009 -15405098 -15374941 
2541.474 -15487181 -15700007 -15966006 -16242595 -16497640 -16709238 
2541.836 -16856418 -16917164 -16872196 -16711438 -16443217 -16095079 
2542.198 -15710330 -15332563 -14993361 -14707741 -14474174 -14286204 
2542.560 -14142768 -14053758 -14036210 -14101778 -14245324 -14438247 
2542.922 -14634961 -14792006 -14881345 -14906062 -14895624 -14894119 
2543.283 -14935676 -15029627 -15154916 -15273259 -15344621 -15347820 
2543.645 -15288741 -15196415 -15107173 -15046814 -15023161 -15024858 
2544.007 -15033916 -15037020 -15034780 -15039165 -15065281 -15118629 
2544.369 -15189824 -15256208 -15295107 -15292132 -15249811 -15183905 
2544.731 -15114564 -15053407 -14998099 -14933883 -14845547 -14729041 
2545.093 -14599015 -14484814 -14420555 -14430779 -14518366 -14664497 
2545.454 -14835172 -14997298 -15125573 -15209117 -15246963 -15240406 
2545.816 -15187264 -15082114 -14923222 -14720073 -14498210 -14295598 
2546.178 -14147579 -14075764 -14075443 -14118874 -14163005 -14170767 
2546.540 -14127085 -14045835 -13964280 -13926514 -13968195 -14099660 
2546.902 -14304704 -14545987 -14782879 -14979917 -15115077 -15179009 
2547.263 -15167426 -15074882 -14894248 -14621922 -14268185 -13864964 
2547.625 -13471937 -13163360 -13011385 -13067043 -13336297 -13773361 
2547.987 -14283511 -14754856 -15077538 -15180225 -15052255 -14744703 
2548.349 -14355453 -13992258 -13748258 -13665814 -13730378 -13878347 
2548.711 -14029345 -14115859 -14108642 -14027325 -13929241 -13883289 
2549.073 -13934986 -14089556 -14304158 -14507824 -14621474 -14592608 
2549.434 -14413536 -14124069 -13796280 -13512024 -13341824 -13322480 
2549.796 -13454719 -13705819 -14024629 -14349489 -14621794 -14799692 
2550.158 -14859187 -14803246 -14661070 -14486672 -14344072 -14291462 
2550.520 -14364749 -14561496 -14838182 -15117829 -15319129 -15375452 
2550.882 -15262990 -15008917 -14688009 -14398214 -14225860 -14226149 
2551.243 -14399624 -14694608 -15019096 -15275787 -15386390 -15314043 
2551.605 -15073922 -14725453 -14355196 -14044327 -13855176 -13811558 
2551.967 -13898693 -14068033 -14254655 -14395265 -14436324 -14348849 
2552.329 -14130131 -13804979 -13418932 -13036112 -12730153 -12565602 
2552.691 -12590451 -12818309 -13222920 -13735964 -14262735 -14706972 
2553.052 -14986511 -15061568 -14939549 -14672794 -14337276 -14014748 
2553.414 -13775737 -13662282 -13691307 -13855882 -14133948 -14489205 
2553.776 -14875165 -15238102 -15516788 -15656287 -15622151 -15410790 
2554.138 -15057503 -14631245 -14222878 -13913102 -13760297 -13783505 
2554.500 -13963414 -14251640 -14587738 -14918260 -15197759 -15394257 
2554.862 -15484015 -15445742 -15263790 -14933275 -14470072 -13913390 
2555.223 -13326657 -12787488 -12363310 -12101992 -12015528 -12081078 
2555.585 -12247102 -12451476 -12640885 -12779091 -12858070 -12894675 
2555.947 -12924812 -12989036 -13123274 -13348250 -13662860 -14042787 
2556.309 -14443696 -14813910 -15099684 -15260591 -15279593 -15164675 
2556.671 -14948129 -14677695 -14409432 -14191131 -14055715 -14015518 
2557.032 -14061169 -14166084 -14293130 -14408631 -14487217 -14521795 
2557.394 -14523557 -14519167 -14539868 -14610261 -14740155 -14919573 
2557.756 -15122821 -15315547 -15469244 -15568386 -15614001 -15620394 
2558.118 -15607416 -15592584 -15584242 -15583890 -15590059 -15602973 
2558.480 -15627522 -15670542 -15734743 -15812483 -15884874 -15923653 
2558.842 -15898738 -15790118 -15591210 -15311229 -14968297 -14585879 
2559.203 -14185808 -13786619 -13409037 -13076303 -12815156 -12652342 
2559.565 -12603937 -12668401 -12822427 -13027880 -13239698 -13420539 
2559.927 -13552684 -13636916 -13686940 -13716637 -13731309 -13723669 
2560.289 -13680968 -13595171 -13474956 -13348281 -13258659 -13246125 
2560.651 -13334883 -13519957 -13768322 -14024789 -14229547 -14337212 
2561.012 -14322337 -14185968 -13950098 -13652168 -13335333 -13043057 
2561.374 -12818727 -12696237 -12698747 -12830566 -13073956 -13386966 
2561.736 -13710378 -13984494 -14156687 -14197993 -14106685 -13904629 
2562.098 -13627636 -13313000 -12994663 -12696109 -12434121 -12222749 
2562.460 -12075633 -12006826 -12027904 -12143204 -12345662 -12616135 
2562.822 -12926967 -13243200 -13531198 -13764310 -13924653 -14008332 
2563.183 -14025046 -13998771 -13960719 -13945061 -13980227 -14079004 
2563.545 -14235511 -14425362 -14614426 -14767122 -14859508 -14886499 
2563.907 -14862102 -14812052 -14762927 -14732532 -14720937 -14711265 
2564.269 -14674428 -14582931 -14418503 -14182889 -13899142 -13611356 
2564.631 -13375014 -13242461 -13254256 -13423237 -13729447 -14118456 
2564.992 -14516443 -14845932 -15046302 -15096324 -15019000 -14877247 
2565.354 -14746048 -14692622 -14745152 -14882593 -15037852 -15123941 
2565.716 -15067937 -14835524 -14449208 -13980708 -13533060 -13198300 
2566.078 -13037334 -13062831 -13243811 -13521113 -13831041 -14127823 
2566.440 -14386290 -14600745 -14774072 -14907823 -14998099 -15040829 
2566.802 -15040477 -15016567 -15004820 -15048862 -15181313 -15411718 
2567.163 -15716113 -16043639 -16325319 -16495598 -16512601 -16362654 
2567.525 -16063660 -15654465 -15187073 -14713026 -14280401 -13933606 
2567.887 -13708322 -13631554 -13713588 -13940858 -14269789 -14630091 
2568.249 -14943391 -15133989 -15157668 -15014103 -14750020 -14443504 
2568.611 -14182216 -14041440 -14057576 -14223903 -14494428 -14806160 
2568.972 -15095011 -15318234 -15464639 -15550260 -15607448 -15665652 
2569.334 -15740335 -15824208 -15891295 -15906820 -15844623 -15697993 
2569.696 -15485838 -15246068 -15025466 -14864055 -14779548 -14764880 
2570.058 -14791781 -14825534 -14837029 -14818425 -14785056 -14771446 
2570.420 -14815318 -14944896 -15168130 -15470139 -15818235 -16171861 
2570.781 -16496364 -16765062 -16959992 -17069276 -17078832 -16973440 
2571.143 -16740514 -16378704 -15906531 -15366241 -14822556 -14343912 
2571.505 -13992098 -13805620 -13790471 -13921862 -14153384 -14435234 
2571.867 -14721930 -14985006 -15212476 -15403340 -15559243 -15678627 
2572.229 -15754268 -15778072 -15747814 -15675910 -15590027 -15532485 
2572.591 -15549877 -15675079 -15917584 -16250256 -16614469 -16922708 
2572.952 -17083644 -17024768 -16706847 -16140128 -15381465 -14527852 
2573.314 -13686587 -12962601 -12438500 -12157671 -12128060 -12324019 
2573.676 -12698168 -13186825 -13722706 -14244842 -14696722 -15037660 
2574.038 -15242901 -15304032 -15229848 -15042461 -14776377 -14470489 
2574.400 -14170767 -13925487 -13777792 -13764053 -13901613 -14181189 
2574.761 -14560919 -14972042 -15332819 -15563942 -15618635 -15495079 
2575.123 -15242869 -14943935 -14694608 -14573639 -14615387 -14805648 
2575.485 -15088611 -15393553 -15655136 -15840597 -15954539 -16031090 
2575.847 -16111139 -16221084 -16356783 -16482806 -16543252 -16484082 
2576.209 -16279843 -15944542 -15534947 -15128869 -14810707 -14638005 
2576.571 -14626055 -14744511 -14929337 -15103973 -15198911 -15175969 
2576.932 -15030267 -14786690 -14482795 -14156784 -13836112 -13535437 
2577.294 -13266661 -13047462 -12905514 -12877787 -12994921 -13266597 
2577.656 -13668897 -14145879 -14619776 -15010646 -15264718 -15363971 
2578.018 -15331028 -15212380 -15064864 -14932730 -14836838 -14779099 
2578.380 -14750468 -14744607 -14765617 -14827776 -14948578 -15138565 
2578.741 -15393681 -15693104 -16003722 -16291045 -16522329 -16673559 
2579.103 -16730949 -16689055 -16551418 -16331287 -16053665 -15750434 
2579.465 -15455143 -15193759 -14973611 -14781053 -14586328 -14359652 
2579.827 -14085419 -13775640 -13467055 -13213792 -13063636 -13038781 
2580.189 -13127131 -13285846 -13458477 -13593117 -13664787 -13678818 
2580.551 -13665975 -13663888 -13703699 -13797436 -13937199 -14101425 
2580.912 -14266165 -14415042 -14541278 -14647711 -14741244 -14827680 
2581.274 -14907311 -14973515 -15011574 -15001715 -14920693 -14747361 
2581.636 -14470873 -14097576 -13654448 -13183482 -12735430 -12349526 
2581.998 -12039861 -11789441 -11558106 -11300693 -10989147 -10632180 
2582.360 -10278445 -10005475 -9886724 -9970471 -10256958 -10699717 -11217718 
2582.782 -11724588 -12157928 -12487181 -12717926 -12877530 -12997783 
2583.144 -13098744 -13185218 -13249435 -13282311 -13281830 -13259462 
2583.505 -13237190 -13244454 -13309176 -13449162 -13668736 -13954494 
2583.867 -14275143 -14582323 -14823677 -14952899 -14944287 -14804943 
2584.229 -14575819 -14323875 -14115538 -14002717 -14001915 -14094593 
2584.591 -14237019 -14383853 -14508977 -14612728 -14716677 -14845131 
2584.953 -15005620 -15178338 -15321272 -15389492 -15362499 -15259599 
2585.314 -15140517 -15079970 -15144676 -15358757 -15694287 -16075538 
2585.676 -16410770 -16624196 -16677257 -16580474 -16382085 -16147759 
2586.038 -15932629 -15771490 -15673738 -15630782 -15626147 -15643278 
2586.400 -15668336 -15686776 -15682749 -15641330 -15552977 -15421184 
2586.762 -15264207 -15113029 -14998002 -14940093 -14941630 -14987407 
2587.124 -15051102 -15109029 -15149636 -15176482 -15203966 -15247444 
2587.485 -15316122 -15408136 -15514454 -15624677 -15733944 -15843345 
2587.847 -15955081 -16065001 -16156761 -16202090 -16172307 -16048653 
2588.209 -15835933 -15565413 -15291236 -15071009 -14947233 -14933435 
2588.571 -15006613 -15113573 -15183168 -15152420 -14978604 -14653509 
2588.933 -14205145 -13695288 -13206207 -12821011 -12617359 -12644458 
2589.294 -12915002 -13399593 -14032201 -14721130 -15364450 -15880978 
2589.656 -16221147 -16379055 -16386330 -16299980 -16179554 -16064810 
2590.018 -15969519 -15878933 -15764365 -15596421 -15362499 -15072130 
2590.380 -14753479 -14440971 -14163165 -13934793 -13755610 -13619577 
2590.742 -13525320 -13483437 -13516552 -13648315 -13888167 -14220024 
2591.104 -14599944 -14968201 -15264494 -15455143 -15542012 -15563559 
2591.465 -15573405 -15619978 -15721865 -15858967 -15978748 -16019050 
2591.827 -15938153 -15728639 -15425181 -15087684 -14784704 -14564508 
2592.189 -14446708 -14423023 -14471098 -14568705 -14703481 -14872444 
2592.551 -15071265 -15281352 -15466047 -15571359 -15544569 -15354504 
2592.913 -15003220 -14529581 -13996269 -13473543 -13011996 -12634062 
2593.274 -12332779 -12084527 -11864053 -11661048 -11486732 -11373034 
2593.636 -11360864 -11485280 -11765062 -12192402 -12732212 -13320873 
2593.998 -13882487 -14338110 -14620673 -14696114 -14570371 -14293387 
2594.360 -13942430 -13610393 -13376428 -13283533 -13336714 -13504764 
2594.722 -13740458 -13996397 -14243496 -14471482 -14680034 -14864503 
2595.083 -15004404 -15061664 -14997394 -14787330 -14444689 -14023378 
2595.445 -13614888 -13319138 -13210321 -13317274 -13607117 -13996365 
2595.807 -14369365 -14622627 -14687945 -14553005 -14261227 -13898307 
2596.169 -13565273 -13343430 -13283115 -13388958 -13627797 -13940761 
2596.531 -14267031 -14561208 -14799659 -14982286 -15122021 -15230903 
2596.893 -15309629 -15344781 -15314683 -15204702 -15018200 -14783840 
2597.254 -14547782 -14363819 -14270238 -14276746 -14359844 -14473277 
2597.616 -14564412 -14592159 -14542751 -14429529 -14285724 -14146264 
2597.978 -14039483 -13978430 -13964313 -13995114 -14072363 -14203958 
2598.340 -14400009 -14663216 -14981389 -15322392 -15642352 -15892509 
2598.702 -16030643 -16033517 -15897077 -15636023 -15276394 -14853456 
2599.063 -14405041 -13967586 -13578216 -13267946 -13058715 -12961540 
2599.425 -12974404 -13085209 -13276141 -13530748 -13835726 -14179041 
2599.787 -14548006 -14922678 -15275083 -15576186 -15800854 -15939847 
2600.149 -16003625 -16021892 -16031314 -16063597 -16134957 -16240425 
2600.511 -16357709 -16456392 -16512567 -16514609 -16467748 -16390126 
2600.873 -16306713 -16241224 -16209815 -16219551 -16267076 -16339678 
2601.234 -16416065 -16472088 -16485645 -16443662 -16350178 -16227275 
2601.596 -16110661 -16034570 -16019210 -16055390 -16103731 -16099837 
2601.958 -15979195 -15700296 -15260816 -14701976 -14097672 -13534410 
2602.320 -13079068 -12768764 -12603422 -12558552 -12600397 -12703028 
2602.682 -12856171 -13060774 -13317917 -13617875 -13933510 -14227399 
2603.043 -14463021 -14618366 -14695665 -14720329 -14731635 -14764239 
2603.405 -14838695 -14952835 -15085987 -15206301 -15284295 -15302048 
2603.767 -15255601 -15154276 -15014807 -14858196 -14703257 -14566719 
2604.129 -14462285 -14399432 -14382283 -14409689 -14476449 -14575786 
2604.491 -14704057 -14863607 -15061184 -15302752 -15585168 -15887940 
2604.853 -16173201 -16390542 -16488835 -16437601 -16236691 -15923589 
2605.214 -15559915 -15221018 -14969257 -14833667 -14805552 -14841577 
2605.576 -14883041 -14872860 -14779292 -14604750 -14384687 -14171632 
2605.938 -14020812 -13971083 -14032554 -14185775 -14388213 -14592191 
2606.300 -14754183 -14850895 -14882945 -14872667 -14853136 -14856402 
2606.662 -14903276 -14996050 -15120421 -15252210 -15369919 -15461410 
2607.023 -15527882 -15580022 -15628831 -15675176 -15704801 -15689205 
2607.385 -15596612 -15406537 -15121573 -14771542 -14408984 -14096966 
2607.747 -13885824 -13803823 -13848596 -13992547 -14192061 -14401516 
2608.109 -14586103 -14722475 -14800941 -14821723 -14793063 -14730033 
2608.471 -14656329 -14603725 -14604365 -14683140 -14846348 -15074466 
2608.833 -15322680 -15530790 -15644269 -15625028 -15465599 -15187073 
2609.194 -14831330 -14443856 -14061682 -13709960 -13400909 -13140601 
2609.556 -12933657 -12783435 -12687001 -12630973 -12592446 -12543713 
2609.918 -12468025 -12371780 -12290910 -12281279 -12397285 -12668949 
2610.280 -13079807 -13564374 -14019464 -14344874 -14469046 -14378469 
2610.642 -14119900 -13788383 -13492655 -13317307 -13307795 -13458349 
2611.003 -13726172 -14048690 -14369012 -14648320 -14867513 -15025370 
2611.365 -15129381 -15189376 -15213308 -15207965 -15178082 -15125317 
2611.727 -15046270 -14931386 -14766930 -14540188 -14248049 -13902800 
2612.089 -13534827 -13184543 -12893549 -12693373 -12594217 -12584657 
2612.451 -12636702 -12718408 -12801580 -12871451 -12927739 -12981189 
2612.812 -13046402 -13134879 -13251653 -13392588 -13545618 -13690761 
2613.174 -13805685 -13865061 -13845901 -13733395 -13525320 -13237897 
2613.536 -12904870 -12578928 -12320702 -12186216 -12219141 -12435312 
2613.898 -12818824 -13319330 -13865703 -14374077 -14764624 -14984206 
2614.260 -15010966 -14861461 -14581778 -14240578 -13909539 -13647416 
2614.622 -13496927 -13476466 -13583289 -13797115 -14085900 -14408151 
2614.983 -14715428 -14962534 -15111685 -15144132 -15068321 -14921878 
2615.345 -14763439 -14651620 -14630796 -14709086 -14854994 -15003252 
2615.707 -15082018 -15036508 -14850030 -14551403 -14207453 -13902351 
2616.069 -13705016 -13657787 -13764053 -13995498 -14303453 -14637204 
2616.431 -14954852 -15222265 -15414212 -15507803 -15480275 -15314619 
2616.792 -15005364 -14566527 -14032906 -13459987 -12915453 -12462487 
2617.154 -12157155 -12034801 -12106568 -12359285 -12757728 -13249821 
2617.516 -13769574 -14253244 -14646269 -14913874 -15050462 -15077122 
2617.878 -15034460 -14964679 -14900427 -14850927 -14801741 -14720425 
2618.240 -14572935 -14338879 -14021036 -13647351 -13264154 -12924876 
2618.602 -12671555 -12528390 -12496100 -12557007 -12681177 -12837514 
2618.963 -13002509 -13160627 -13304709 -13431814 -13536530 -13609173 
2619.325 -13636884 -13607631 -13517997 -13379512 -13221763 -13085048 
2619.687 -13016176 -13053443 -13214692 -13492366 -13853057 -14247024 
2620.049 -14614617 -14903213 -15075970 -15115237 -15024506 -14825662 
2620.411 -14555248 -14255809 -13973714 -13751020 -13616044 -13580721 
2620.772 -13636370 -13759045 -13915284 -14074994 -14221499 -14352984 
2621.134 -14480648 -14619583 -14778299 -14952355 -15124069 -15268141 
2621.496 -15363171 -15395696 -15363811 -15272940 -15130277 -14941246 
2621.858 -14710688 -14450362 -14184011 -13948045 -13786330 -13731309 
2622.220 -13790535 -13934440 -14105146 -14227143 -14237115 -14108738 
2622.582 -13861788 -13557245 -13271996 -13079518 -13021835 -13102731 
2622.943 -13294234 -13554547 -13844938 -14139946 -14431581 -14718727 
2623.305 -14998770 -15260303 -15484015 -15650406 -15750337 -15790118 
2623.667 -15792260 -15786955 -15804943 -15865900 -15975138 -16123176 
2624.029 -16291205 -16453201 -16579771 -16643457 -16618615 -16486475 
2624.391 -16241735 -15895449 -15476885 -15026906 -14593440 -14215470 
2624.752 -13915861 -13697536 -13545265 -13432940 -13332473 -13224270 
2625.114 -13101283 -12971188 -12853148 -12775520 -12767155 -12849320 
2625.476 -13030645 -13300693 -13630206 -13972687 -14278349 -14503433 
2625.838 -14620640 -14627784 -14545443 -14411195 -14266069 -14150818 
2626.200 -14098314 -14130645 -14263215 -14500260 -14833475 -15234519 
2626.562 -15656350 -16036870 -16307799 -16418299 -16344944 -16102072 
2626.923 -15732890 -15299138 -14859797 -14454304 -14104472 -13817400 
2627.285 -13598897 -13462686 -13430209 -13520407 -13736703 -14056774 
2627.647 -14432671 -14802061 -15113637 -15338608 -15480179 -15563399 
2628.009 -15619434 -15665395 -15696492 -15692657 -15636470 -15530982 
2628.371 -15410375 -15328469 -15339407 -15471834 -15710169 -15995067 
2628.732 -16243074 -16383681 -16379852 -16246937 -16039776 -15835391 
2629.094 -15697451 -15655041 -15698282 -15788456 -15877783 -15927678 
2629.456 -15923334 -15870180 -15785964 -15688151 -15587822 -15488332 
2629.818 -15389108 -15289989 -15192511 -15096867 -14996914 -14878143 
2630.180 -14721449 -14510131 -14242182 -13937745 -13641058 -13406885 
2630.542 -13291471 -13332441 -13535534 -13871030 -14278317 -14682757 
2630.903 -15004916 -15184768 -15193279 -15038108 -14762126 -14433888 
2631.265 -14135135 -13934889 -13878796 -13976505 -14202002 -14499267 
2631.627 -14799596 -15041853 -15178817 -15189408 -15076386 -14861045 
2631.989 -14574377 -14252795 -13935403 -13657691 -13452020 -13341855 
2632.351 -13335493 -13423912 -13580849 -13771532 -13959276 -14119066 
2632.712 -14242021 -14334262 -14408439 -14472732 -14523044 -14541278 
2633.074 -14501543 -14382957 -14182857 -13923883 -13652585 -13424362 
2633.436 -13293270 -13292756 -13427414 -13674419 -13993189 -14339904 
2633.798 -14677054 -14983694 -15252594 -15483281 -15672043 -15804688 
2634.160 -15856219 -15799800 -15617101 -15312828 -14919125 -14496030 
2634.521 -14114608 -13835726 -13696187 -13693554 -13790695 -13926932 
2634.883 -14046188 -14112138 -14121408 -14099725 -14088883 -14126764 
2635.245 -14229996 -14392219 -14589756 -14797290 -14999699 -15198815 
2635.607 -15406825 -15632827 -15867496 -16076975 -16206814 -16203623 
2635.969 -16031664 -15692305 -15224505 -14700854 -14204503 -13805075 
2636.331 -13550918 -13456839 -13509614 -13674547 -13907004 -14156142 
2636.692 -14368178 -14496511 -14504586 -14378244 -14132986 -13817464 
2637.054 -13503801 -13265151 -13160788 -13211382 -13395351 -13654127 
2637.416 -13917113 -14123460 -14239584 -14267736 -14238526 -14195524 
2637.778 -14174647 -14195780 -14258310 -14347021 -14438984 -14512181 
2638.140 -14548198 -14529870 -14441323 -14269276 -14007241 -13662957 
2638.501 -13263351 -12854242 -12487729 -12213278 -12061743 -12036638 
2638.863 -12116396 -12263917 -12443266 -12629331 -12816507 -13015565 
2639.225 -13245001 -13518447 -13836658 -14184171 -14534388 -14855954 
2639.587 -15120229 -15308478 -15408744 -15415235 -15324375 -15133541 
2639.949 -14843274 -14461707 -14010995 -13527055 -13057526 -12656269 
2640.311 -12367046 -12217402 -12209251 -12320799 -12508623 -12720790 
2640.672 -12911593 -13048266 -13120509 -13139990 -13136164 -13145519 
2641.034 -13201225 -13325500 -13521017 -13770505 -14038681 -14283608 
2641.396 -14463887 -14550249 -14534581 -14430587 -14270238 -14092155 
2641.758 -13934600 -13822118 -13762383 -13748002 -13763443 -13792781 
2642.120 -13826483 -13864034 -13911368 -13975896 -14061232 -14165154 
2642.481 -14279952 -14395458 -14500036 -14581650 -14626344 -14616380 
2642.843 -14533811 -14366961 -14118745 -13813741 -13498598 -13233108 
2643.205 -13067462 -13026627 -13094340 -13217681 -13318431 -13326497 
2643.567 -13208039 -12981093 -12712552 -12494780 -12417668 -12529130 
2643.929 -12822588 -13236291 -13682221 -14069187 -14336474 -14469719 
2644.291 -14498210 -14477732 -14465169 -14503337 -14605903 -14759724 
2644.652 -14932122 -15085315 -15185760 -15211228 -15154883 -15024858 
2645.014 -14842729 -14637140 -14443344 -14294732 -14216881 -14224930 
2645.376 -14320445 -14491608 -14714371 -14956580 -15179969 -15341262 
2645.738 -15401197 -15328981 -15113477 -14772278 -14355902 -13941756 
2646.100 -13611677 -13437340 -13451700 -13640031 -13941531 -14274053 
2646.461 -14562073 -14759179 -14865207 -14918773 -14977260 -15085027 
2646.823 -15257104 -15469532 -15674472 -15817180 -15862258 -15807148 
2647.185 -15679011 -15520081 -15365474 -15230264 -15103525 -14958341 
2647.547 -14768114 -14525063 -14248177 -13981414 -13775320 -13674868 
2647.909 -13700200 -13841343 -14059821 -14302203 -14516604 -14660814 
2648.271 -14714147 -14675997 -14561624 -14393598 -14197993 -14000632 
2648.632 -13825841 -13699493 -13648508 -13694421 -13849206 -14104889 
2648.994 -14429305 -14764432 -15040669 -15195519 -15191232 -15032923 
2649.356 -14770485 -14488371 -14272385 -14188052 -14254142 -14437830 
2649.718 -14664370 -14846284 -14916275 -14842025 -14635249 -14337501 
2650.080 -14002332 -13670502 -13362869 -13083891 -12833139 -12618710 
2650.441 -12461972 -12389266 -12420275 -12552790 -12760495 -12999487 
2650.803 -13230441 -13438047 -13641604 -13886498 -14224802 -14688523 
2651.165 -15268588 -15909918 -16523508 -17022284 -17339722 -17455306 
2651.527 -17394096 -17216782 -16996094 -16793052 -16650632 -16584078 
2651.889 -16586915 -16634496 -16691957 -16716093 -16660422 -16487623 
2652.250 -16177606 -15740400 -15216571 -14675645 -14195331 -13836272 
2652.612 -13629049 -13562255 -13592667 -13660901 -13720104 -13749061 
2652.974 -13757825 -13776186 -13837909 -13962163 -14144468 -14358754 
2653.336 -14568320 -14743102 -14866200 -14939934 -14980845 -15012759 
2653.698 -15058080 -15133829 -15251058 -15414212 -15620649 -15858296 
2654.060 -16106509 -16335275 -16512154 -16612364 -16624643 -16555723 
2654.421 -16425477 -16259352 -16075028 -15877560 -15660537 -15416643 
2654.783 -15149380 -14881857 -14651683 -14500934 -14454144 -14503273 
2655.145 -14600009 -14669239 -14637492 -14455522 -14125288 -13701132 
2655.507 -13279676 -12961058 -12822137 -12891136 -13140311 -13496413 
2655.869 -13864098 -14161723 -14332852 -14361255 -14263376 -14078330 
2656.230 -13850394 -13617714 -13413117 -13262291 -13189333 -13219803 
2656.592 -13375014 -13666135 -14083943 -14595651 -15141636 -15646411 
2656.954 -16040349 -16269822 -16318489 -16210230 -16006533 -15785325 
2657.316 -15620042 -15561769 -15622088 -15774781 -15964855 -16133040 
2657.678 -16231202 -16238350 -16162826 -16034858 -15889794 -15751168 
2658.040 -15625732 -15501953 -15362372 -15194527 -15002708 -14807762 
2658.401 -14641368 -14530159 -14485359 -14496511 -14536983 -14571172 
2658.763 -14571172 -14525800 -14441901 -14338270 -14235415 -14148477 
2659.125 -14082019 -14034158 -14002172 -13988537 -14002237 -14054303 
2659.487 -14150818 -14286717 -14444176 -14598599 -14724749 -14807345 
2659.849 -14844619 -14847596 -14834372 -14823228 -14830626 -14868794 
2660.210 -14948641 -15080866 -15271692 -15517555 -15796188 -16067397 
2660.572 -16273299 -16355539 -16275598 -16026651 -15641361 -15182209 
2660.934 -14728208 -14345868 -14076501 -13930237 -13890862 -13928825 
2661.296 -14014107 -14124935 -14245291 -14360646 -14454400 -14508272 
2661.658 -14510836 -14467316 -14405234 -14366864 -14394207 -14509297 
2662.020 -14697876 -14906126 -15053375 -15064673 -14892615 -14540317 
2662.381 -14059372 -13538071 -13069133 -12721690 -12532156 -12499190 
2662.743 -12597596 -12792025 -13051321 -13349246 -13658815 -13950323 
2663.105 -14186609 -14331762 -14365454 -14292938 -14149728 -13990493 
2663.467 -13876390 -13849848 -13921316 -14066044 -14236409 -14378277 
2663.829 -14448439 -14429433 -14327145 -14164256 -13965179 -13747938 
2664.190 -13518415 -13273378 -13007976 -12722946 -12430387 -12154642 
2664.552 -11927789 -11782959 -11750034 -11845675 -12070864 -12407235 
2664.914 -12822781 -13273249 -13712978 -14107391 -14434112 -14688202 
2665.276 -14875038 -15001652 -15067585 -15060928 -14961350 -14751877 
2665.638 -14430779 -14022641 -13575261 -13155580 -12832592 -12656719 
2666.000 -12654820 -12823296 -13135136 -13545361 -14002428 -14454753 
2666.361 -14849998 -15144772 -15309789 -15337264 -15249107 -15097572 
2666.723 -14956356 -14894824 -14962086 -15163235 -15456998 -15762448 
2667.085 -15988553 -16065704 -15964407 -15707294 -15357510 -14998866 
2667.447 -14700566 -14503273 -14408439 -14388246 -14399560 -14403663 
2667.809 -14380488 -14329550 -14267127 -14215983 -14198282 -14227687 
2668.170 -14307365 -14429914 -14580048 -14736247 -14874557 -14973898 
2668.532 -15018872 -15003956 -14934043 -14822812 -14688105 -14546436 
2668.894 -14412638 -14298452 -14215374 -14177437 -14198090 -14285499 
2669.256 -14433632 -14617276 -14790340 -14894152 -14878944 -14717382 
2669.618 -14421420 -14041119 -13658461 -13360588 -13213985 -13250238 
2669.979 -13455234 -13778176 -14145815 -14489814 -14760076 -14934043 
2670.341 -15016823 -15031675 -15007861 -14967657 -14921430 -14864247 
2670.703 -14779644 -14643963 -14435844 -14143922 -13773168 -13347703 
2671.065 -12911497 -12524462 -12246974 -12133312 -12217402 -12503247 
2671.427 -12962408 -13537493 -14156238 -14736568 -15208221 -15524684 
2671.789 -15668144 -15653506 -15522638 -15335377 -15148132 -15005716 
2672.150 -14928697 -14911473 -14928536 -14946529 -14939485 -14894856 
2672.512 -14817016 -14719176 -14614073 -14502471 -14370423 -14193632 
2672.874 -13951992 -13640641 -13280416 -12912140 -12590193 -12362505 
2673.236 -12253867 -12260663 -12353166 -12490562 -12634062 -12763423 
2673.598 -12881133 -13007912 -13170174 -13387705 -13665011 -13988504 
2673.959 -14330704 -14657930 -14939549 -15151364 -15278057 -15312924 
2674.321 -15256752 -15117412 -14910160 -14658475 -14390104 -14133403 
2674.683 -13913679 -13745434 -13632967 -13570155 -13545394 -13544366 
2675.045 -13553327 -13561805 -13559043 -13534827 -13478618 -13379769 
2675.407 -13231952 -13035469 -12799778 -12542007 -12286368 -12060357 
2675.769 -11888814 -11794085 -11791860 -11890619 -12090488 -12382890 
2676.130 -12751807 -13173389 -13620476 -14065691 -14481706 -14845676 
2676.492 -15137061 -15336976 -15430169 -15406378 -15264846 -15019928 
2676.854 -14703929 -14365999 -14061072 -13844039 -13752367 -13798463 
2677.216 -13969125 -14231920 -14546532 -14875357 -15194527 -15492776 
2677.578 -15765611 -16008032 -16206017 -16336041 -16372768 -16296789 
2677.939 -16107116 -15823506 -15485967 -15140165 -14824381 -14560855 
2678.301 -14349586 -14174551 -14013561 -13851325 -13684500 -13522591 
2678.663 -13381279 -13276141 -13216299 -13204503 -13242139 -13334851 
2679.025 -13494165 -13734294 -14062067 -14467028 -14914834 -15354472 
2679.387 -15728449 -15992161 -16132114 -16169563 -16153952 -16140288 
2679.749 -16172307 -16261045 -16382787 -16486539 -16517831 -16438175 
2680.110 -16239053 -15942754 -15593767 -15242197 -14925784 -14667637 
2680.472 -14476226 -14354202 -14305665 -14337853 -14455009 -14646718 
2680.834 -14880672 -15101925 -15239606 -15232120 -15044157 -14684197 
2681.196 -14203541 -13690216 -13244454 -12947840 -12852633 -12965914 
2681.558 -13256055 -13661576 -14112459 -14544930 -14907311 -15168962 
2681.919 -15315131 -15343918 -15261711 -15082083 -14826431 -14523397 
2682.281 -14211911 -13936942 -13740586 -13657145 -13699526 -13855433 
2682.643 -14085483 -14335416 -14550057 -14689066 -14744607 -14744159 
2683.005 -14743999 -14805968 -14979244 -15277354 -15672235 -16098591 
2683.367 -16477352 -16743893 -16863494 -16844658 -16730057 -16581781 
2683.729 -16453585 -16377619 -16358027 -16377619 -16410930 -16438782 
2684.090 -16457733 -16476011 -16506379 -16553108 -16604615 -16634051 
2684.452 -16606783 -16490111 -16266884 -15939910 -15532325 -15077635 
2684.814 -14614713 -14179008 -13796793 -13488704 -13269553 -13151306 
2685.176 -13142594 -13246157 -13453916 -13742192 -14072363 -14393053 
2685.538 -14644444 -14775897 -14752902 -14570371 -14256258 -13871479 
2685.899 -13497794 -13215045 -13090064 -13154424 -13398853 -13775544 
2686.261 -14214829 -14643515 -14999155 -15246996 -15378906 -15407049 
2686.623 -15352169 -15236470 -15077635 -14888773 -14684646 -14483500 
2686.985 -14305569 -14169932 -14086477 -14051705 -14050390 -14063735 
2687.347 -14079710 -14101168 -14146938 -14244875 -14417349 -14666291 
2687.708 -14964744 -15259951 -15491658 -15606873 -15584338 -15441809 
2688.070 -15234102 -15031227 -14896777 -14868890 -14946304 -15092580 
2688.432 -15249171 -15361796 -15393489 -15339984 -15225657 -15098180 
2688.794 -15009750 -15002100 -15100580 -15307902 -15607065 -15963960 
2689.156 -16335530 -16671965 -16920670 -17038566 -16995106 -16783808 
2689.518 -16424138 -15962906 -15463009 -14985391 -14580048 -14270398 
2689.879 -14053822 -13908962 -13812104 -13749350 -13725113 -13757439 
2690.241 -13868013 -14065531 -14335961 -14639638 -14920693 -15127173 
2690.603 -15219322 -15182720 -15024058 -14763375 -14421452 -14015165 
2690.965 -13561163 -13082284 -12619708 -12235602 -11997994 -11968888 
2691.327 -12177292 -12604838 -13182582 -13808894 -14380488 -14811316 
2691.688 -15061184 -15137125 -15083170 -14956389 -14809394 -14676093 
2692.050 -14565630 -14471194 -14378693 -14276714 -14159990 -14030404 
2692.412 -13893943 -13760650 -13642536 -13553647 -13508330 -13515910 
2692.774 -13576224 -13676057 -13793391 -13902447 -13986643 -14046252 
2693.136 -14100623 -14180548 -14312559 -14507279 -14750051 -15005108 
2693.498 -15225049 -15371902 -15428155 -15401996 -15318938 -15210205 
2693.859 -15097668 -14985550 -14863607 -14715524 -14531408 -14313713 
2694.221 -14078555 -13847345 -13641508 -13473832 -13349792 -13270582 
2694.583 -13238187 -13255863 -13325918 -13443380 -13590516 -13737857 
2694.945 -13854020 -13914096 -13913582 -13870067 -13820224 -13802924 
2695.307 -13844328 -13945671 -14081987 -14209474 -14279150 -14257412 
2695.668 -14133659 -13925070 -13669442 -13418965 -13226070 -13129607 
2696.030 -13151209 -13287229 -13509229 -13765497 -13996013 -14144981 
2696.392 -14176475 -14089108 -13918299 -13729479 -13593020 -13566847 
2696.754 -13672942 -13890734 -14161851 -14412446 -14579087 -14623428 
2697.116 -14544674 -14371961 -14151652 -13925070 -13719367 -13542407 
2697.478 -13387351 -13242236 -13099773 -12961893 -12839187 -12746917 
2697.839 -12697557 -12698201 -12747271 -12834941 -12942920 -13048266 
2698.201 -13124366 -13145776 -13095947 -12972795 -12796110 -12604871 
2698.563 -12456402 -12412677 -12522209 -12810588 -13266950 -13846350 
2698.925 -14469815 -15047070 -15491977 -15738387 -15759667 -15571742 
2699.287 -15230872 -14813301 -14403086 -14067584 -13839610 -13717857 
2699.648 -13672107 -13663053 -13658301 -13649728 -13654031 -13705145 
2700.010 -13832967 -14047182 -14326247 -14622883 -14873148 -15017976 
2700.372 -15021465 -14874205 -14592639 -14206267 -13750763 -13260266 
2700.734 -12767992 -12314873 -11947034 -11714074 -11658370 -11797728 
2701.096 -12117201 -12567501 -13082348 -13590772 -14041279 -14412093 
2701.458 -14707581 -14946400 -15145476 -15310429 -15435061 -15509594 
2701.819 -15533349 -15521008 -15500226 -15499299 -15530375 -15579095 
2702.181 -15605818 -15563399 -15413572 -15149380 -14800845 -14430459 
2702.543 -14109604 -13895997 -13818716 -13869265 -14009840 -14186224 
2702.905 -14351029 -14471130 -14535125 -14549801 -14534676 -14513142 
2703.267 -14505291 -14526409 -14582130 -14667572 -14767026 -14857234 
2703.628 -14913266 -14914578 -14854193 -14739995 -14592895 -14436516 
2703.990 -14290373 -14160600 -14039515 -13910919 -13760297 -13583899 
2704.352 -13392364 -13208264 -13056304 -12956619 -12915420 -12926163 
2704.714 -12972442 -13036369 -13101283 -13155131 -13189621 -13198203 
2705.076 -13176860 -13127131 -13061031 -13002349 -12982668 -13035566 
2705.438 -13181039 -13417230 -13715738 -14030789 -14309256 -14509201 
2705.799 -14613817 -14634993 -14606961 -14572775 -14572871 -14632334 
2706.161 -14757578 -14939549 -15160067 -15397742 -15629567 -15834687 
2706.523 -15991874 -16081287 -16089460 -16012505 -15860150 -15654337 
2706.885 -15426460 -15207773 -15020057 -14873660 -14765136 -14683205 
2707.247 -14614586 -14550538 -14487795 -14427830 -14372666 -14322946 
2707.608 -14277644 -14237083 -14205850 -14195171 -14219639 -14291687 
2707.970 -14414208 -14575178 -14747009 -14894472 -14984494 -14995794 
2708.332 -14927768 -14799563 -14645405 -14499972 -14394913 -14348432 
2708.694 -14365999 -14444049 -14575114 -14751108 -14963655 -15201982 
2709.056 -15450091 -15685052 -15882064 -16018093 -16079083 -16064841 
2709.417 -15988329 -15870595 -15732795 -15591433 -15454663 -15323767 
2709.779 -15199774 -15087523 -14998162 -14947489 -14947841 -15002004 
2710.141 -15097572 -15210268 -15309181 -15368896 -15380601 -15355911 
2710.503 -15325334 -15325175 -15387797 -15525484 -15725316 -15949843 
2710.865 -16150663 -16279746 -16303683 -16214859 -16030323 -15787210 
2711.227 -15527721 -15290885 -15099780 -14958597 -14854449 -14765521 
2711.588 -14669751 -14551050 -14404529 -14236762 -14063125 -13903410 
2711.950 -13780006 -13715482 -13728548 -13832998 -14031206 -14310026 
2712.312 -14634385 -14952227 -15203614 -15332339 -15308830 -15141380 
2712.674 -14881857 -14608979 -14409849 -14351221 -14452445 -14680002 
2713.036 -14954436 -15183873 -15285639 -15221754 -15008150 -14709375 
2713.397 -14411740 -14193664 -14105017 -14151524 -14302460 -14506349 
2713.759 -14716581 -14903372 -15060608 -15199263 -15334418 -15472474 
2714.121 -15604667 -15708316 -15756857 -15730206 -15622088 -15442672 
2714.483 -15214363 -14964904 -14716838 -14483949 -14269180 -14066942 
2714.845 -13867115 -13660099 -13440778 -13208650 -12968840 -12729284 
2715.207 -12500606 -12294034 -12122228 -12001217 -11948452 -11982878 
2715.568 -12121068 -12369848 -12721529 -13149280 -13612448 -14059468 
2715.930 -14443151 -14733941 -14925719 -15036380 -15099172 -15149636 
2716.292 -15207965 -15272588 -15318746 -15311421 -15216475 -15016727 
2716.654 -14720201 -14361095 -13991392 -13665365 -13432940 -13324601 
2717.016 -13346803 -13480160 -13682991 -13897281 -14057704 -14112202 
2717.377 -14033291 -13833063 -13561580 -13302010 -13146130 -13160884 
2717.739 -13372958 -13752624 -14224802 -14685511 -15041052 -15232055 
2718.101 -15245812 -15113733 -14894312 -14651908 -14434241 -14269467 
2718.463 -14168714 -14134461 -14169292 -14277099 -14459624 -14708766 
2718.825 -15003252 -15311196 -15594470 -15821429 -15970508 -16030388 
2719.187 -15997143 -15868550 -15642608 -15320697 -14914034 -14448535 
2719.548 -13960302 -13493876 -13086495 -12761557 -12529484 -12394869 
2719.910 -12367432 -12471825 -12740096 -13199200 -13845644 -14630284 
2720.272 -15448939 -16161421 -16634433 -16765954 -16526667 -15963800 
2720.634 -15192159 -14353882 -13583739 -12987621 -12618195 -12485121 
2720.996 -12564057 -12813837 -13179882 -13598961 -14004867 -14325799 
2721.357 -14500581 -14495774 -14315764 -14008075 -13651944 -13343687 
2721.719 -13161238 -13148476 -13302653 -13580271 -13909186 -14210275 
2722.081 -14421997 -14505676 -14453471 -14283864 -14036210 -13758788 
2722.443 -13500043 -13304517 -13202189 -13207203 -13316760 -13513951 
2722.805 -13770152 -14050134 -14319067 -14541918 -14689611 -14743518 
2723.167 -14699413 -14571910 -14392893 -14209217 -14066429 -13995114 
2723.528 -13999766 -14055715 -14115955 -14129234 -14064119 -13920417 
2723.890 -13733460 -13556634 -13444665 -13427767 -13501006 -13626802 
2724.252 -13753074 -13834764 -13848340 -13798719 -13711725 -13619865 
2724.614 -13546004 -13499754 -13477718 -13473543 -13485299 -13518704 
2724.976 -13583194 -13684597 -13818267 -13968323 -14112298 -14231151 
2725.337 -14315829 -14368820 -14399720 -14418311 -14428760 -14429433 
2725.699 -14416900 -14392861 -14366319 -14351798 -14361255 -14395778 
2726.061 -14442574 -14480135 -14488852 -14461323 -14408471 -14355196 
2726.423 -14328652 -14341315 -14384398 -14428856 -14441676 -14401067 
2726.785 -14312013 -14205145 -14128624 -14123525 -14206107 -14359941 
2727.146 -14543393 -14707228 -14815607 -14862998 -14873853 -14889221 
2727.508 -14942175 -15041021 -15158660 -15243253 -15233016 -15086307 
2727.870 -14801101 -14423857 -14036275 -13735547 -13606989 -13690473 
2728.232 -13969735 -14368724 -14779900 -15083107 -15188768 -15066433 
2728.594 -14753575 -14346316 -13965725 -13732754 -13721999 -13947820 
2728.956 -14361704 -14874589 -15378715 -15773632 -15993757 -16005542 
2729.317 -15810886 -15437620 -14937596 -14380745 -13847537 -13429438 
2729.679 -13203925 -13217360 -13468436 -13902768 -14422414 -14909008 
2730.041 -15268045 -15447149 -15452744 -15336433 -15173538 -15029115 
2730.403 -14933691 -14880672 -14836742 -14763279 -14634352 -14448054 
2730.765 -14222397 -13985071 -13759526 -13560006 -13392942 -13261648 
2731.126 -13171685 -13129156 -13134525 -13176121 -13229188 -13265312 
2731.488 -13265312 -13235969 -13215045 -13264508 -13443058 -13782606 
2731.850 -14263376 -14814710 -15323831 -15669487 -15764588 -15574331 
2732.212 -15131365 -14519968 -13859894 -13266307 -12824904 -12581406 
2732.574 -12533476 -12640595 -12836421 -13052093 -13226423 -13321388 
2732.936 -13329774 -13272992 -13193446 -13137836 -13145584 -13235133 
2733.297 -13401905 -13623751 -13873276 -14130100 -14385136 -14639894 
2733.659 -14898122 -15155268 -15394704 -15587981 -15705472 -15729247 
2734.021 -15659386 -15516148 -15329173 -15129060 -14933275 -14741756 
2734.383 -14540284 -14310218 -14037526 -13721325 -13375464 -13027269 
2734.745 -12712101 -12465450 -12321894 -12307916 -12437245 -12706567 
2735.106 -13092024 -13550982 -14023026 -14447605 -14772695 -14966344 
2735.468 -15023065 -14961447 -14817176 -14630156 -14442125 -14289924 
2735.830 -14202803 -14205594 -14313777 -14529165 -14836581 -15203966 
2736.192 -15587885 -15941603 -16231775 -16441526 -16573265 -16639886 
2736.554 -16654363 -16619796 -16528007 -16363962 -16118195 -15795549 
2736.916 -15419520 -15026010 -14652677 -14330383 -14073904 -13885054 
2737.277 -13758467 -13689863 -13677822 -13722416 -13818877 -13950195 
2737.639 -14087536 -14197192 -14247248 -14221370 -14121568 -13966976 
2738.001 -13784950 -13602911 -13443572 -13321226 -13245932 -13224688 
2738.363 -13260780 -13350853 -13481734 -13632613 -13780199 -13909635 
2738.725 -14024084 -14146714 -14310122 -14541918 -14847725 -15203677 
2739.086 -15560170 -15859446 -16062861 -16162092 -16185492 -16180256 
2739.448 -16194940 -16255140 -16355187 -16465643 -16553586 -16601905 
2739.810 -16618839 -16632009 -16670370 -16743161 -16828082 -16873438 
2740.172 -16817820 -16619541 -16273299 -15819129 -15327829 -14885475 
2740.534 -14562298 -14397252 -14396355 -14536278 -14776890 -15068481 
2740.896 -15363523 -15615055 -15781779 -15835550 -15766857 -15590411 
2741.257 -15341166 -15068930 -14820026 -14622082 -14480648 -14381899 
2741.619 -14304736 -14235960 -14178143 -14147066 -14158997 -14216112 
2741.981 -14297843 -14363467 -14370615 -14291976 -14132730 -13931199 
2742.343 -13750088 -13650531 -13672814 -13823691 -14077560 -14388213 
2742.705 -14703705 -14985006 -15207261 -15360516 -15445166 -15466303 
2743.066 -15433399 -15360548 -15268365 -15180034 -15115269 -15084835 
2743.428 -15087523 -15113125 -15151428 -15201054 -15272396 -15382808 
2743.790 -15543067 -15744874 -15952783 -16113661 -16168380 -16080264 
2744.152 -15851364 -15529320 -15192384 -14926840 -14803310 -14851951 
2744.514 -15060128 -15378746 -15743978 -16088853 -16358729 -16518597 
2744.875 -16548293 -16442323 -16208123 -15867306 -15454535 -15013559 
2745.237 -14592799 -14230958 -13950837 -13756573 -13637944 -13578473 
2745.599 -13565177 -13593020 -13662411 -13771885 -13912876 -14066429 
2745.961 -14209922 -14326793 -14414593 -14486416 -14566014 -14674652 
2746.323 -14817464 -14977964 -15120964 -15209117 -15214523 -15133061 
2746.685 -14985038 -14809011 -14645116 -14521667 -14449561 -14421356 
2747.046 -14419368 -14423408 -14417894 -14391162 -14333749 -14237179 
2747.408 -14094593 -13907004 -13688803 -13472901 -13305770 -13234876 
2747.770 -13298476 -13509486 -13850715 -14276554 -14727632 -15141477 
2748.132 -15463584 -15658908 -15708668 -15610900 -15375356 -15024922 
2748.494 -14593856 -14124518 -13668287 -13273281 -12975015 -12790577 
2748.855 -12713357 -12717154 -12764259 -12819821 -12858005 -12868138 
2749.217 -12853598 -12826866 -12803027 -12794084 -12807950 -12847808 
2749.579 -12912751 -12999036 -13099452 -13204021 -13299150 -13372187 
2749.941 -13412603 -13416009 -13385842 -13332987 -13273345 -13224463 
2750.303 -13204343 -13228609 -13308983 -13452310 -13657755 -13913775 
2750.665 -14196486 -14473437 -14706460 -14860084 -14911409 -14853905 
2751.026 -14700823 -14479751 -14230445 -13996013 -13815538 -13724567 
2751.388 -13748258 -13898243 -14167720 -14526409 -14920533 -15274859 
2751.750 -15514550 -15578647 -15442896 -15129508 -14707965 -14276394 
2752.112 -13927829 -13732561 -13712047 -13839225 -14049845 -14271936 
2752.474 -14449112 -14556690 -14607473 -14638613 -14695249 -14808370 
2752.835 -14988015 -15221626 -15485423 -15753213 -16007969 -16244097 
2753.197 -16463060 -16666384 -16850044 -17000970 -17100686 -17129098 
2753.559 -17068224 -16906806 -16639439 -16268065 -15803730 -15270956 
2753.921 -14710784 -14177437 -13738403 -13456132 -13372508 -13497345 
2754.283 -13800645 -14217394 -14657321 -15035580 -15281992 -15358246 
2754.645 -15261647 -15017656 -14669847 -14264658 -13849239 -13463296 
2755.006 -13139251 -12903810 -12773622 -12753127 -12829986 -12976558 
2755.368 -13152848 -13315122 -13429888 -13479806 -13468211 -13415174 
2755.730 -13350017 -13300083 -13282826 -13305256 -13366114 -13461947 
2756.092 -13592377 -13761324 -13973746 -14229707 -14518815 -14816920 
2756.454 -15087715 -15294596 -15404395 -15401036 -15288933 -15094563 
2756.815 -14859988 -14634096 -14466835 -14395425 -14441645 -14608082 
2757.177 -14879296 -15223705 -15597954 -15957221 -16256511 -16459677 
2757.539 -16545454 -16507719 -16357038 -16117780 -15826317 -15522638 
2757.901 -15246100 -15031419 -14901516 -14866648 -14923895 -15059168 
2758.263 -15249363 -15467198 -15687063 -15885545 -16045906 -16159602 
2758.625 -16225679 -16250351 -16244415 -16219104 -16179938 -16121740 
2758.986 -16025279 -15861044 -15596229 -15209053 -14704025 -14122113 
2759.348 -13540929 -13054890 -12762554 -12729735 -12970641 -13438657 
2759.710 -14040221 -14655912 -15170466 -15510745 -15652867 -15623334 
2760.072 -15475831 -15271148 -15052703 -14836613 -14619776 -14393150 
2760.434 -14158388 -13937104 -13767070 -13689606 -13735611 -13909186 
2760.795 -14185166 -14513207 -14834980 -15092259 -15241269 -15259344 
2761.157 -15143972 -14912177 -14596356 -14243977 -13908320 -13640448 
2761.519 -13481284 -13447491 -13527954 -13685592 -13873019 -14045577 
2761.881 -14179938 -14280401 -14374141 -14494011 -14659019 -14861205 
2762.243 -15063968 -15215611 -15266318 -15192255 -15004756 -14750211 
2762.604 -14490646 -14289635 -14193472 -14220825 -14365165 -14600521 
2762.966 -14891110 -15193216 -15462049 -15655935 -15739249 -15695661 
2763.328 -15535043 -15297602 -15042205 -14830274 -14701784 -14655720 
2763.690 -14647455 -14603373 -14456099 -14169676 -13764951 -13313997 
2764.052 -12922657 -12686198 -12656976 -12827059 -13134911 -13489893 
2764.414 -13804080 -14028897 -14158291 -14224385 -14270334 -14331506 
2764.775 -14417767 -14516347 -14603052 -14660269 -14686921 -14698708 
2765.137 -14718823 -14764176 -14837766 -14927384 -15011958 -15072226 
2765.499 -15099012 -15092259 -15056607 -14993745 -14898218 -14760461 
2765.861 -14575114 -14350387 -14112843 -13903763 -13772014 -13754615 
2766.223 -13869714 -14109027 -14443247 -14827712 -15212668 -15554863 
2766.584 -15815934 -15968112 -15995514 -15896821 -15689300 -15407784 
2766.946 -15104677 -14831970 -14631501 -14519840 -14483596 -14483340 
2767.308 -14469079 -14402381 -14268089 -14081987 -13881491 -13712817 
2767.670 -13609847 -13581877 -13613700 -13675864 -13741582 -13801768 
2768.032 -13872217 -13989660 -14195620 -14514681 -14940830 -15429210 
2768.394 -15908672 -16292512 -16509250 -16523222 -16342327 -16016208 
2768.755 -15618955 -15230712 -14908975 -14680450 -14538041 -14452510 
2769.117 -14386483 -14311821 -14219383 -14118296 -14027998 -13965981 
2769.479 -13940505 -13946569 -13970634 -13997328 -14018405 -14036275 
2769.841 -14061682 -14108353 -14187763 -14305954 -14462124 -14652164 
2770.203 -14868697 -15100677 -15328277 -15522606 -15648264 -15670095 
2770.564 -15569504 -15356199 -15073858 -14788034 -14570308 -14471995 
2770.926 -14501286 -14619327 -14752422 -14825278 -14784288 -14625799 
2771.288 -14394560 -14170318 -14030051 -14018855 -14132697 -14321888 
2771.650 -14511156 -14630700 -14647423 -14572678 -14456451 -14359588 
2772.012 -14332916 -14392156 -14515034 -14651780 -14749154 -14774391 
2772.374 -14728400 -14646910 -14589211 -14619038 -14778587 -15078306 
2772.735 -15489579 -15956743 -16406016 -16768951 -17002370 -17093264 
2773.097 -17063892 -16961394 -16847112 -16774593 -16778706 -16867956 
2773.459 -17025916 -17217226 -17399254 -17535382 -17598322 -17573758 
2773.821 -17458458 -17256172 -16975158 -16626269 -16223924 -15784623 
2774.183 -15326838 -14869914 -14432222 -14031687 -13689060 -13426257 
2774.544 -13268300 -13236579 -13339125 -13560713 -13857518 -14164416 
2774.906 -14401932 -14505900 -14447060 -14245933 -13967970 -13709414 
2775.268 -13568485 -13607792 -13840477 -14223903 -14681507 -15122981 
2775.630 -15478420 -15717519 -15849415 -15911004 -15943009 -15973032 
2775.992 -16002093 -16008290 -15960224 -15837179 -15639827 -15394929 
2776.354 -15142628 -14924278 -14762670 -14654182 -14569570 -14468341 
2776.715 -14316918 -14102227 -13838711 -13562736 -13319717 -13142915 
2777.077 -13041675 -12997139 -12971896 -12923365 -12823649 -12672070 
2777.439 -12497097 -12346467 -12266784 -12290749 -12420984 -12630136 
2777.801 -12868363 -13084084 -13237190 -13311843 -13320134 -13296130 
2778.163 -13283822 -13320424 -13429212 -13611388 -13849463 -14110791 
2778.524 -14358947 -14563419 -14703481 -14774840 -14787330 -14762190 
2778.886 -14722027 -14687241 -14668342 -14664818 -14667637 -14663792 
2779.248 -14643547 -14602924 -14545635 -14478789 -14410074 -14342726 
2779.610 -14275785 -14206491 -14136001 -14072652 -14033003 -14035505 
2779.972 -14093406 -14204567 -14347823 -14482442 -14558548 -14532370 
2780.333 -14377379 -14096614 -13722962 -13316921 -12947164 -12679664 
2780.695 -12563799 -12619966 -12838866 -13184543 -13606764 -14047407 
2781.057 -14454625 -14793287 -15044478 -15207261 -15293284 -15321432 
2781.419 -15312092 -15284359 -15257456 -15248947 -15275595 -15348619 
2781.781 -15468093 -15614959 -15748484 -15813474 -15746567 -15497669 
2782.143 -15048382 -14422350 -13686459 -12937066 -12286980 -11829038 
2782.504 -11623790 -11685658 -11984135 -12452120 -13003667 -13558818 
2782.866 -14049332 -14435683 -14707228 -14878303 -14977612 -15036251 
2783.228 -15078466 -15112516 -15131077 -15116933 -15054624 -14939997 
2783.590 -14786977 -14624582 -14490359 -14414754 -14409240 -14461963 
2783.952 -14541790 -14612183 -14641848 -14620288 -14558003 -14480840 
2784.313 -14414145 -14372057 -14348977 -14323138 -14264658 -14151844 
2784.675 -13981927 -13777374 -13581138 -13444087 -13414917 -13522429 
2785.037 -13767616 -14120573 -14527499 -14918773 -15222361 -15387029 
2785.399 -15389940 -15248147 -15012663 -14762190 -14578190 -14520513 
2785.761 -14615131 -14843882 -15153732 -15468284 -15716784 -15847370 
2786.123 -15836285 -15689557 -15434518 -15110660 -14757162 -14412958 
2786.484 -14111144 -13875620 -13720201 -13643114 -13627090 -13640031 
2786.846 -13647577 -13622338 -13554643 -13456132 -13354837 -13284883 
2787.208 -13271128 -13324536 -13440168 -13605223 -13806487 -14035826 
2787.570 -14288673 -14554415 -14810868 -15022425 -15145317 -15147428 
2787.932 -15021113 -14792711 -14513046 -14244746 -14038457 -13914578 
2788.293 -13864515 -13860728 -13879951 -13919198 -14002590 -14169227 
2788.655 -14454048 -14863062 -15363012 -15885003 -16351549 -16695943 
2789.017 -16884848 -16924684 -16850746 -16707547 -16529409 -16334478 
2789.379 -16126016 -15902987 -15672524 -15452393 -15266798 -15136517 
2789.741 -15067425 -15048062 -15053055 -15055231 -15031227 -14967432 
2790.103 -14857203 -14695249 -14476546 -14199404 -13875683 -13538874 
2790.464 -13244357 -13063700 -13056948 -13254706 -13639806 -14152230 
2790.826 -14700309 -15191007 -15562887 -15793696 -15903912 -15937259 
2791.188 -15941253 -15945436 -15957637 -15968848 -15967570 -15950451 
2791.550 -15924547 -15900526 -15881009 -15852258 -15786603 -15651301 
2791.912 -15427323 -15122917 -14778427 -14454816 -14213162 -14099020 
2792.273 -14125128 -14270494 -14489172 -14730162 -14948353 -15115173 
2792.635 -15220602 -15266445 -15260655 -15213020 -15136325 -15048222 
2792.997 -14972042 -14936796 -14967753 -15079235 -15267150 -15507995 
2793.359 -15762096 -15981143 -16122313 -16152803 -16056763 -15836701 
2793.721 -15513942 -15126565 -14723628 -14365775 -14110726 -14002685 
2794.083 -14060976 -14269629 -14576075 -14896682 -15144324 -15243860 
2794.444 -15157187 -14895112 -14514937 -14103574 -13746332 -13511991 
2794.806 -13428410 -13483918 -13636017 -13833513 -14036114 -14227111 
2795.168 -14416709 -14633199 -14906510 -15248947 -15644621 -16046610 
2795.530 -16390668 -16605604 -16639024 -16473843 -16135339 -15688311 
2795.892 -15220922 -14829569 -14586296 -14524967 -14630091 -14843882 
2796.253 -15077410 -15236374 -15253394 -15099428 -14795688 -14402477 
2796.615 -14005701 -13685496 -13494326 -13446624 -13516039 -13647705 
2796.977 -13774741 -13842370 -13817368 -13695320 -13496831 -13261070 
2797.339 -13034054 -12856107 -12759755 -12762168 -12864053 -13050324 
2797.701 -13294073 -13561966 -13819326 -14041824 -14217490 -14348689 
2798.062 -14446804 -14525256 -14590461 -14638293 -14655560 -14627849 
2798.424 -14550634 -14437029 -14318842 -14239777 -14245035 -14362569 
2798.786 -14593760 -14907759 -15251346 -15557005 -15762608 -15829895 
2799.148 -15750529 -15550100 -15277610 -14998066 -14771093 -14637652 
2799.510 -14613272 -14685350 -14819129 -14968841 -15095236 -15171362 
2799.872 -15189024 -15153284 -15074434 -14958981 -14805904 -14612183 
2800.233 -14382251 -14138150 -13924814 -13799105 -13812297 -13989980 
2800.595 -14313905 -14720554 -15113477 -15401293 -15517906 -15449963 
2800.957 -15236311 -14956196 -14696979 -14522917 -14464464 -14511829 
2801.319 -14630636 -14778972 -14927480 -15061632 -15177986 -15273707 
2801.681 -15337361 -15347883 -15284455 -15136325 -14914066 -14648576 
2802.042 -14385456 -14166630 -14017250 -13939157 -13914032 -13913839 
2802.404 -13913743 -13903666 -13889355 -13887461 -13915284 -13983019 
2802.766 -14088081 -14216913 -14347117 -14455201 -14521090 -14528620 
2803.128 -14468470 -14337949 -14142063 -13893622 -13614567 -13334434 
2803.490 -13085306 -12899532 -12804733 -12817698 -12942501 -13167025 
2803.852 -13463296 -13786650 -14085387 -14311052 -14430908 -14442895 
2804.213 -14381930 -14317463 -14329550 -14491159 -14838182 -15353257 
2804.575 -15964024 -16560445 -17032670 -17290626 -17298872 -17078928 
2804.937 -16704040 -16268352 -15864590 -15563207 -15394129 -15351210 
2805.299 -15397135 -15480914 -15545656 -15542587 -15442512 -15236759 
2805.661 -14941438 -14592191 -14240033 -13934247 -13712528 -13591928 
2806.022 -13564824 -13604356 -13674644 -13745081 -13796633 -13826194 
2806.384 -13842819 -13862140 -13899110 -13963318 -14058762 -14183819 
2806.746 -14330287 -14483212 -14621025 -14716838 -14743870 -14688042 
2807.108 -14555953 -14381642 -14218324 -14132857 -14182247 -14396964 
2807.470 -14774231 -15278601 -15856251 -16447013 -17004060 -17498114 
2807.832 -17914448 -18247024 -18489558 -18631184 -18659212 -18563472 
2808.193 -18344200 -18012906 -17593198 -17114700 -16606944 -16100476 
2808.555 -15622599 -15200414 -14860340 -14621986 -14494268 -14468341 
2808.917 -14519296 -14608819 -14696466 -14754183 -14769140 -14746496 
2809.279 -14701079 -14646910 -14587609 -14513495 -14405265 -14244393 
2809.641 -14021518 -13742063 -13424008 -13091864 -12769600 -12473209 
2810.002 -12213342 -11997737 -11835906 -11742133 -11731199 -11811723 
2810.364 -11978204 -12207736 -12462037 -12694242 -12865950 -12956877 
2810.726 -12973118 -12945009 -12920888 -12950541 -13067397 -13279451 
2811.088 -13562479 -13866440 -14125160 -14279503 -14295021 -14173973 
2811.450 -13955746 -13708772 -13509614 -13412957 -13438850 -13563507 
2811.812 -13732401 -13878090 -13950195 -13935788 -13863841 -13792492 
2812.173 -13784597 -13884669 -14096903 -14384591 -14680899 -14918676 
2812.535 -15047006 -15050014 -14945280 -14773335 -14577581 -14386707 
2812.897 -14208768 -14033356 -13843333 -13627348 -13390307 -13155709 
2813.259 -12962054 -12848870 -12848966 -12977974 -13230087 -13579018 
2813.621 -13982184 -14392156 -14761069 -15053119 -15251250 -15359813 
2813.982 -15402731 -15416322 -15441457 -15507548 -15626147 -15785262 
2814.344 -15954027 -16087161 -16138053 -16073335 -15878422 -15564262 
2814.706 -15164483 -14732949 -14329357 -14008043 -13809280 -13746685 
2815.068 -13806744 -13949681 -14125128 -14279664 -14372891 -14386899 
2815.430 -14325382 -14209249 -14064023 -13912587 -13766813 -13628953 
2815.792 -13498886 -13381376 -13292113 -13258466 -13310205 -13470845 
2816.153 -13747552 -14126315 -14572518 -15038813 -15478580 -15848458 
2816.515 -16117653 -16267171 -16288811 -16184533 -15969837 -15678531 
2816.877 -15360677 -15081827 -14910672 -14895624 -15051454 -15344781 
2817.239 -15702084 -16019594 -16198548 -16177639 -15949333 -15566436 
2817.601 -15123077 -14730354 -14472924 -14390457 -14469271 -14657738 
2817.962 -14888196 -15107173 -15295555 -15466782 -15653346 -15879923 
2818.324 -16144214 -16407387 -16606783 -16674994 -16574157 -16312363 
2818.686 -15948534 -15568546 -15261264 -15085411 -15048574 -15108677 
2819.048 -15193183 -15234455 -15193311 -15079714 -14946848 -14874141 
2819.410 -14930425 -15148164 -15508347 -15946107 -16366707 -16673846 
2819.771 -16804018 -16736530 -16500128 -16157847 -15793346 -15485231 
2820.133 -15288710 -15232599 -15314235 -15507100 -15763789 -16029334 
2820.495 -16243489 -16347306 -16296247 -16064202 -15655456 -15107364 
2820.857 -14492954 -13909218 -13452149 -13207396 -13219803 -13485299 
2821.219 -13947467 -14514649 -15078083 -15532229 -15804943 -15862035 
2821.581 -15711576 -15394257 -14974283 -14525897 -14117206 -13811398 
2821.942 -13655090 -13672397 -13861788 -14190810 -14597862 -14993841 
2822.304 -15286790 -15394193 -15265006 -14896969 -14340064 -13689701 
2822.666 -13059680 -12569110 -12308463 -12320799 -12597983 -13082829 
2823.028 -13685143 -14295951 -14819578 -15187680 -15371902 -15387509 
2823.390 -15284935 -15132869 -14991664 -14901516 -14868634 -14868986 
2823.751 -14858900 -14796585 -14660013 -14456259 -14221434 -14009936 
2824.113 -13880690 -13875491 -14012855 -14282357 -14651812 -15072769 
2824.475 -15490186 -15853472 -16115576 -16241893 -16214443 -16035721 
2824.837 -15731899 -15349770 -14953699 -14606608 -14361992 -14251801 
2825.199 -14281106 -14433023 -14676093 -14977964 -15309725 -15651269 
2825.561 -15990278 -16315937 -16616607 -16878282 -17084438 -17220444 
2825.922 -17274896 -17239358 -17108936 -16882998 -16566664 -16173903 
2826.284 -15733114 -15286054 -14880320 -14564347 -14370968 -14307718 
2826.646 -14353753 -14464720 -14585175 -14661326 -14658635 -14565726 
2827.008 -14394624 -14171119 -13927028 -13688963 -13472740 -13284593 
2827.370 -13122277 -12979388 -12847969 -12720532 -12592253 -12462037 
2827.731 -12334937 -12223554 -12147457 -12127415 -12181190 -12314904 
2828.093 -12519375 -12768603 -13025952 -13255317 -13427703 -13532419 
2828.455 -13577509 -13587946 -13595621 -13631104 -13716381 -13859123 
2828.817 -14054271 -14286525 -14538586 -14793799 -15040669 -15274251 
2829.179 -15493128 -15697036 -15883470 -16045555 -16173011 -16253799 
2829.541 -16276555 -16234392 -16125761 -15954634 -15728353 -15457253 
2829.902 -15153188 -14828576 -14499811 -14185808 -13907967 -13688546 
2830.264 -13545458 -13487644 -13512634 -13606411 -13744182 -13894778 
2830.626 -14027998 -14116821 -14141678 -14094400 -13979168 -13812939 
2830.988 -13624201 -13450639 -13329677 -13289060 -13338514 -13463617 
2831.350 -13627090 -13776186 -13863199 -13856428 -13754550 -13585955 
2831.711 -13402773 -13261584 -13202125 -13236291 -13340956 -13467858 
2832.073 -13555446 -13554804 -13443283 -13235069 -12975626 -12732051 
2832.435 -12574196 -12549410 -12673776 -12922335 -13239633 -13548477 
2832.797 -13776539 -13877737 -13841729 -13698723 -13506017 -13331766 
2833.159 -13225974 -13208039 -13259238 -13334080 -13375657 -13339574 
2833.521 -13213214 -13019938 -12813097 -12655786 -12608185 -12705891 
2833.882 -12953854 -13326947 -13779685 -14255104 -14693808 -15050175 
2834.244 -15294627 -15422335 -15453640 -15432056 -15412070 -15440114 
2834.606 -15541469 -15704226 -15881425 -15999252 -15987722 -15804401 
2834.968 -15454951 -14993969 -14512534 -14111592 -13862429 -13795703 
2835.330 -13891633 -14098474 -14352183 -14605903 -14843178 -15075970 
2835.691 -15329269 -15621800 -15948886 -16279140 -16560700 -16737390 
2836.053 -16771756 -16654618 -16410610 -16087672 -15747717 -15447916 
2836.415 -15224922 -15091971 -15035420 -15022905 -15010806 -14960390 
2836.777 -14846924 -14667829 -14443344 -14212777 -14023796 -13916406 
2837.139 -13916759 -14029153 -14239520 -14521090 -14844779 -15184833 
2837.500 -15518386 -15825422 -16083201 -16265161 -16347401 -16315140 
2837.862 -16173745 -15950995 -15697291 -15473337 -15331283 -15305631 
2838.224 -15401420 -15596068 -15844719 -16095845 -16301289 -16421776 
2838.586 -16434539 -16330903 -16118132 -15816221 -15460643 -15097380 
2838.948 -14772822 -14528973 -14388406 -14348593 -14381642 -14443727 
2839.310 -14490903 -14490775 -14436292 -14344232 -14248755 -14183017 
2839.671 -14168361 -14203092 -14264434 -14314611 -14316021 -14245420 
2840.033 -14100013 -13899912 -13680327 -13484593 -13347382 -13288449 
2840.395 -13306477 -13381472 -13479421 -13561709 -13598447 -13573206 
2840.757 -13488961 -13364829 -13232659 -13126231 -13072188 -13086688 
2841.119 -13171042 -13314061 -13494519 -13688450 -13871223 -14021582 
2841.480 -14125577 -14175994 -14172595 -14119675 -14020683 -13874368 
2841.842 -13671241 -13394998 -13030485 -12577286 -12062098 -11543555 
2842.204 -11110118 -10865849 -10894544 -11240449 -11883914 -12745759 
2842.566 -13694870 -14583796 -15291236 -15737396 -15905958 -15833186 
2842.928 -15593031 -15265966 -14920982 -14609075 -14357344 -14178496 
2843.290 -14076501 -14050390 -14093214 -14190778 -14322882 -14465777 
2843.651 -14600617 -14720233 -14831042 -14949186 -15091076 -15262767 
2844.013 -15453065 -15633531 -15765259 -15814528 -15761713 -15609814 
2844.375 -15381561 -15114373 -14847244 -14609075 -14415683 -14267287 
2844.737 -14151524 -14049845 -13943810 -13819518 -13669378 -13495225 
2845.099 -13306060 -13117841 -12948065 -12814545 -12729317 -12696495 
2845.460 -12710847 -12758597 -12822170 -12881294 -12919473 -12927288 
2845.822 -12905160 -12865050 -12830791 -12835906 -12913716 -13091639 
2846.184 -13378805 -13759719 -14192670 -14618622 -14980397 -15234807 
2846.546 -15371518 -15414532 -15415523 -15431608 -15506844 -15655456 
2846.908 -15857657 -16066214 -16225263 -16292512 -16248310 -16102327 
2847.270 -15882958 -15627841 -15367521 -15121669 -14900715 -14711777 
2847.631 -14566206 -14482411 -14478789 -14566206 -14736216 -14959205 
2847.993 -15185025 -15357606 -15433910 -15394129 -15252402 -15050175 
2848.355 -14847340 -14699156 -14640920 -14678304 -14787682 -14924567 
2848.717 -15039613 -15099236 -15091684 -15032251 -14952355 -14888517 
2849.079 -14863798 -14879520 -14914386 -14934875 -14912689 -14838118 
2849.440 -14729490 -14629034 -14590205 -14652132 -14826367 -15085219 
2849.802 -15372414 -15614352 -15747717 -15741134 -15601055 -15370463 
2850.164 -15111141 -14889957 -14754503 -14727151 -14803054 -14959942 
2850.526 -15166082 -15392179 -15619179 -15836254 -16039105 -16224690 
2850.888 -16385531 -16507784 -16572308 -16557509 -16447108 -16237361 
2851.250 -15942497 -15594758 -15243061 -14943039 -14740796 -14666388 
2851.611 -14722891 -14888773 -15121669 -15371998 -15594726 -15754364 
2851.973 -15830087 -15814625 -15709691 -15524748 -15277194 -14993489 
2852.335 -14705723 -14450106 -14257220 -14141357 -14096101 -14093920 
2852.697 -14097448 -14069605 -13990398 -13862750 -13711372 -13569738 
2853.059 -13468115 -13422691 -13431622 -13480225 -13551335 -13634829 
2853.420 -13730249 -13843975 -13981029 -14138053 -14301530 -14452510 
2853.782 -14574377 -14661678 -14721642 -14769972 -14819514 -14871547 
2854.144 -14911569 -14914674 -14854737 -14718535 -14514232 -14273027 
2854.506 -14040509 -13863039 -13779492 -13809280 -13952602 -14190072 
2854.868 -14489461 -14806257 -15085731 -15272907 -15314523 -15173058 
2855.229 -14840135 -14344714 -13752913 -13150888 -12634899 -12279765 
2855.591 -12123775 -12164501 -12364438 -12666278 -13009423 -13349599 
2855.953 -13661448 -13938323 -14184268 -14405074 -14602154 -14771381 
2856.315 -14905774 -15000115 -15054303 -15074530 -15071234 -15056480 
2856.677 -15041725 -15035324 -15042557 -15067009 -15110437 -15174177 
2857.039 -15258896 -15364067 -15485934 -15615535 -15737651 -15827851 
2857.400 -15856603 -15793761 -15615695 -15316474 -14914482 -14456964 
2857.762 -14009134 -13647416 -13439718 -13424940 -13605480 -13941628 
2858.124 -14363210 -14777883 -15098084 -15261168 -15239318 -15048734 
2858.486 -14742461 -14398759 -14092957 -13884509 -13798912 -13823466 
2858.848 -13913133 -14007883 -14057768 -14035826 -13951157 -13840733 
2859.209 -13755674 -13734551 -13786169 -13882037 -13968548 -13984365 
2859.571 -13888809 -13681643 -13407496 -13144555 -12972860 -12952310 
2859.933 -13095947 -13365375 -13678015 -13936911 -14060077 -13999381 
2860.295 -13758467 -13387673 -12972056 -12601620 -12359188 -12299896 
2860.657 -12440336 -12760592 -13209067 -13717697 -14208511 -14614330 
2861.019 -14889509 -15013815 -14997170 -14873949 -14697298 -14521218 
2861.380 -14393566 -14344938 -14382828 -14493563 -14649505 -14820667 
2861.742 -14982638 -15124581 -15250770 -15374013 -15506205 -15648711 
2862.104 -15785772 -15888453 -15921896 -15858807 -15693648 -15445902 
2862.466 -15156964 -14873244 -14634545 -14457958 -14335673 -14242726 
2862.828 -14153481 -14056774 -13964088 -13905399 -13915637 -14016353 
2863.189 -14200944 -14431132 -14645501 -14783583 -14798699 -14674844 
2863.551 -14427317 -14094593 -13721325 -13345197 -12991834 -12673325 
2863.913 -12394322 -12159668 -11976206 -11852995 -11797631 -11811884 
2864.275 -11892489 -12032642 -12225938 -12467961 -12755412 -13081930 
2864.637 -13433100 -13786073 -14112010 -14380841 -14571172 -14672506 
2864.999 -14685768 -14619776 -14486672 -14299350 -14072107 -13826034 
2865.360 -13591157 -13404476 -13306767 -13328810 -13482569 -13753876 
2865.722 -14106397 -14488660 -14844234 -15128965 -15313339 -15387029 
2866.084 -15356711 -15244596 -15085859 -14923574 -14808626 -14786401 
2866.446 -14883618 -15096772 -15384951 -15674919 -15874460 -15907874 
2866.808 -15734360 -15368416 -14873756 -14350195 -13899399 -13589713 
2867.169 -13443572 -13428474 -13475503 -13494133 -13405568 -13157478 
2867.531 -12731537 -12145330 -11448363 -10717594 -10042710 -9526351 -9267959 
2867.953 -9339763 -9776719 -10555157 -11594885 -12759240 -13891986 -14847148 
2868.375 -15513399 -15844943 -15861554 -15640305 -15284999 -14906863 
2868.737 -14598759 -14415234 -14375263 -14462381 -14637845 -14846540 
2869.099 -15031867 -15145861 -15152484 -15038460 -14814870 -14518591 
2869.461 -14203605 -13935499 -13777727 -13772624 -13934087 -14238815 
2869.823 -14631437 -15028859 -15344270 -15508155 -15482130 -15274187 
2870.185 -14935100 -14550282 -14209506 -13988697 -13929017 -14026394 
2870.546 -14237019 -14493851 -14733685 -14910609 -15011766 -15054463 
2870.908 -15074274 -15106341 -15169858 -15263119 -15366593 -15455303 
2871.270 -15511896 -15536929 -15548565 -15574044 -15632572 -15725605 
2871.632 -15829289 -15903465 -15901677 -15793154 -15574939 -15276139 
2871.994 -14948001 -14647199 -14420266 -14285820 -14234005 -14232369 
2872.355 -14242534 -14230542 -14177694 -14082083 -13952698 -13802764 
2872.717 -13643948 -13487195 -13345325 -13236933 -13187500 -13222053 
2873.079 -13357793 -13594433 -13912139 -14274854 -14642266 -14985487 
2873.441 -15291780 -15565253 -15815582 -16043257 -16228711 -16333902 
2873.803 -16311755 -16132211 -15800502 -15369248 -14924470 -14569763 
2874.165 -14391611 -14428824 -14663889 -15026714 -15423678 -15758103 
2874.526 -15964663 -16021095 -15945436 -15781811 -15581876 -15391506 
2874.888 -15237974 -15133765 -15079683 -15070369 -15096388 -15143428 
2875.250 -15192255 -15216763 -15190111 -15094660 -14929689 -14718439 
2875.612 -14506638 -14356093 -14323202 -14443888 -14717350 -15102884 
2875.974 -15523181 -15883470 -16102359 -16127165 -15955593 -15633786 
2876.335 -15247955 -14893511 -14648512 -14555344 -14608082 -14760461 
2876.697 -14942495 -15089476 -15156483 -15129860 -15025274 -14876190 
2877.059 -14719784 -14582290 -14477603 -14406388 -14360966 -14330255 
2877.421 -14303486 -14271584 -14228040 -14172370 -14112330 -14066333 
2877.783 -14057416 -14108193 -14227752 -14403215 -14596292 -14752678 
2878.145 -14821179 -14767922 -14594338 -14336763 -14058282 -13823338 
2878.506 -13681547 -13654031 -13732304 -13887879 -14086895 -14304544 
2878.868 -14525960 -14745119 -14957733 -15156420 -15330420 -15472249 
2879.230 -15581748 -15669679 -15751775 -15840789 -15936652 -16024640 
2879.592 -16080774 -16086299 -16038114 -15955338 -15870627 -15818361 
2879.954 -15813090 -15841078 -15860852 -15821621 -15684860 -15442672 
2880.315 -15123333 -14783551 -14486160 -14272642 -14151588 -14094560 
2880.677 -14054014 -13980227 -13847184 -13662668 -13468725 -13326143 
2881.039 -13294620 -13416683 -13700842 -14118553 -14607473 -15090659 
2881.401 -15485262 -15723815 -15770404 -15623526 -15317529 -14909072 
2881.763 -14469495 -14062676 -13735097 -13513405 -13402902 -13395094 
2882.125 -13472322 -13613411 -13791818 -13976826 -14138470 -14251608 
2882.486 -14307205 -14317784 -14318233 -14352984 -14458054 -14644444 
2882.848 -14890149 -15145188 -15348075 -15456198 -15459555 -15385590 
2883.210 -15281481 -15193055 -15137925 -15098020 -15027674 -14882273 
2883.572 -14647359 -14355453 -14080768 -13913229 -13928215 -14149696 
2883.934 -14542623 -15020857 -15485519 -15849479 -16067108 -16140575 
2884.295 -16107595 -16018603 -15913144 -15813027 -15719181 -15620202 
2884.657 -15501121 -15349866 -15156387 -14913137 -14617694 -14279568 
2885.019 -13930044 -13620989 -13423237 -13404380 -13599860 -13995242 
2885.381 -14516443 -15048062 -15454408 -15632220 -15538528 -15206525 
2885.743 -14730834 -14243047 -13871511 -13697632 -13745081 -13974387 
2886.104 -14305216 -14634512 -14870651 -14953636 -14860885 -14610325 
2886.466 -14250197 -13850651 -13480513 -13199264 -13043347 -13019681 
2886.828 -13107392 -13265086 -13446592 -13608947 -13725466 -13790118 
2887.190 -13813933 -13818010 -13823562 -13845933 -13888167 -13942108 
2887.552 -13991392 -14019080 -14012310 -13968131 -13895035 -13812939 
2887.914 -13749094 -13729575 -13776026 -13897602 -14089300 -14331537 
2888.275 -14596067 -14850254 -15061121 -15202206 -15253746 -15205054 
2888.637 -15056768 -14822268 -14528780 -14212873 -13919711 -13691403 
2888.999 -13558401 -13535887 -13619769 -13792525 -14028030 -14300408 
2889.361 -14584886 -14855506 -15083075 -15229624 -15251570 -15112421 
2889.723 -14792294 -14302813 -13687294 -13020292 -12384887 -11853703 
2890.084 -11477762 -11273800 -11230214 -11314317 -11486345 -11703431 
2890.446 -11924275 -12114012 -12244203 -12301281 -12293099 -12253159 
2890.808 -12233057 -12284950 -12443781 -12705956 -13025598 -13324344 
2891.170 -13525642 -13581491 -13497088 -13329774 -13173742 -13122309 
2891.532 -13228609 -13492205 -13857840 -14242695 -14560407 -14757162 
2891.894 -14820378 -14774328 -14660333 -14520193 -14383533 -14265331 
2892.255 -14173171 -14115313 -14100976 -14136802 -14217843 -14324484 
2892.617 -14422863 -14478789 -14472572 -14407830 -14310410 -14217586 
2892.979 -14161466 -14152294 -14175449 -14197641 -14184909 -14114897 
2893.341 -13986323 -13813998 -13620058 -13419928 -13217200 -13007365 
2893.703 -12788357 -12570430 -12381216 -12256573 -12229707 -12315259 
2894.064 -12502538 -12757149 -13034698 -13299600 -13532515 -13735611 
2894.426 -13923273 -14111561 -14305313 -14495518 -14662832 -14788386 
2894.788 -14862006 -14885667 -14871195 -14834116 -14786690 -14734358 
2895.150 -14677759 -14616092 -14548487 -14473277 -14382604 -14259015 
2895.512 -14073743 -13797436 -13411993 -12926516 -12383953 -11860700 
2895.874 -11452138 -11239965 -11276190 -11558880 -12033512 -12597725 
2896.235 -13132661 -13533575 -13726686 -13690408 -13451153 -13073538 
2896.597 -12634255 -12208413 -11853123 -11597886 -11450266 -11402922 
2896.959 -11443231 -11560204 -11745551 -11989743 -12273129 -12562737 
2897.321 -12813805 -12975561 -13010741 -12907283 -12688803 -12408587 
2897.683 -12140401 -11956156 -11901806 -11990227 -12198652 -12484606 
2898.044 -12801258 -13118805 -13432650 -13758082 -14116757 -14518815 
2898.406 -14949186 -15367905 -15716081 -15934322 -15985327 -15862353 
2898.768 -15594822 -15235511 -14852304 -14507086 -14242695 -14081826 
2899.130 -14023378 -14048850 -14125833 -14218228 -14287455 -14298484 
2899.492 -14227848 -14065787 -13821733 -13522591 -13210321 -12930344 
2899.854 -12718216 -12592414 -12546352 -12552532 -12569979 -12561964 
2900.215 -12507207 -12408941 -12292198 -12196686 -12160731 -12204579 
2900.577 -12325888 -12497903 -12684491 -12850028 -12977266 -13073023 
2900.939 -13165771 -13291824 -13480963 -13743572 -14064536 -14407542 
2901.301 -14727696 -14990864 -15181921 -15312540 -15413732 -15526698 
2901.663 -15683964 -15896693 -16148333 -16397210 -16586469 -16654968 
2902.024 -16558051 -16275406 -15819129 -15229465 -14571365 -13920000 
2902.386 -13341470 -12888628 -12588681 -12444071 -12438146 -12545547 
2902.748 -12740836 -13002188 -13313418 -13659071 -14018662 -14367313 
2903.110 -14675645 -14917940 -15080835 -15167522 -15196031 -15189984 
2903.472 -15169762 -15141413 -15096324 -15016856 -14891719 -14728593 
2903.833 -14562714 -14448856 -14450490 -14617116 -14962151 -15455847 
2904.195 -16028024 -16591795 -17057616 -17365190 -17495282 -17469788 
2904.557 -17340008 -17168052 -17010368 -16897086 -16829166 -16778260 
2904.919 -16699450 -16541211 -16261874 -15843889 -15298754 -14668085 
2905.281 -14014267 -13412314 -12928447 -12606834 -12462841 -12479745 
2905.643 -12617391 -12822394 -13046209 -13250399 -13411512 -13519507 
2906.004 -13571408 -13566783 -13508169 -13404861 -13277299 -13157895 
2906.366 -13091285 -13119866 -13272735 -13553390 -13936141 -14368916 
2906.728 -14786401 -15132165 -15365697 -15472026 -15457445 -15339280 
2907.090 -15133029 -14846700 -14480936 -14037269 -13529464 -12994149 
2907.452 -12487922 -12084172 -11857734 -11861345 -12114656 -12592350 
2907.813 -13229284 -13923466 -14559253 -15033212 -15264846 -15221817 
2908.175 -14924278 -14446644 -13896190 -13396444 -13062092 -12964305 
2908.537 -13122823 -13499175 -14014203 -14562521 -15043677 -15388789 
2908.899 -15563463 -15574492 -15456262 -15258800 -15029530 -14806064 
2909.261 -14614874 -14470233 -14379591 -14344040 -14358114 -14407830 
2909.623 -14469815 -14516507 -14519007 -14457765 -14327947 -14143057 
2909.984 -13931905 -13732561 -13587272 -13530812 -13587368 -13768065 
2910.346 -14070054 -14477091 -14961799 -15489323 -16015697 -16494162 
2910.708 -16881056 -17135596 -17229996 -17152988 -16912000 -16533844 
2911.070 -16064012 -15562312 -15088484 -14696819 -14422061 -14270141 
2911.432 -14217875 -14218485 -14219094 -14172274 -14055073 -13873822 
2911.793 -13663021 -13470170 -13343140 -13317307 -13406532 -13604805 
2912.155 -13891184 -14238782 -14616540 -14992305 -15335665 -15615247 
2912.517 -15806893 -15900623 -15905829 -15851332 -15776986 -15721802 
2912.879 -15704226 -15716625 -15725221 -15688661 -15575003 -15381688 
2913.241 -15141732 -14917492 -14778331 -14773943 -14920533 -15192768 
2913.603 -15535395 -15876569 -16154557 -16326563 -16373631 -16297586 
2913.964 -16114045 -15847627 -15527530 -15190624 -14876350 -14619295 
2914.326 -14442446 -14346668 -14310058 -14293418 -14259464 -14188308 
2914.688 -14089300 -13998065 -13965019 -14032810 -14215470 -14490006 
2915.050 -14801293 -15083779 -15276842 -15347820 -15296930 -15151780 
2915.412 -14952451 -14737304 -14534581 -14357344 -14208159 -14084168 
2915.773 -13981478 -13896543 -13826001 -13766492 -13715032 -13670758 
2916.135 -13635536 -13613154 -13604869 -13607182 -13609333 -13597034 
2916.497 -13559108 -13492462 -13405471 -13314768 -13236644 -13177182 
2916.859 -13127935 -13068779 -12979099 -12849513 -12692022 -12537725 
2917.221 -12428937 -12398025 -12453537 -12571074 -12702223 -12786137 
2917.583 -12770598 -12631037 -12373970 -12035929 -11667757 -11327164 
2917.944 -11061572 -10900943 -10855800 -10913933 -11042870 -11191919 
2918.306 -11306504 -11337462 -11256850 -11069194 -10813949 -10555027 
2918.668 -10356197 -10264854 -10291388 -10410126 -10570646 -10723639 
2919.030 -10843099 -10935807 -11038411 -11199732 -11460174 -11829973 
2919.392 -12286883 -12780700 -13255510 -13660067 -13962933 -14154891 
2919.753 -14240867 -14233300 -14145270 -13990141 -13782671 -13541861 
2920.115 -13292274 -13058073 -12861994 -12721529 -12647483 -12647226 
2920.477 -12724039 -12875311 -13085402 -13321291 -13533960 -13663181 
2920.839 -13660067 -13505761 -13225845 -12886762 -12582050 -12402726 
2921.201 -12400665 -12574454 -12865822 -13186214 -13439910 -13563379 
2921.562 -13543691 -13417487 -13251556 -13115044 -13057719 -13091221 
2921.924 -13193382 -13319330 -13424715 -13477655 -13469913 -13416426 
2922.286 -13349342 -13307024 -13321580 -13414499 -13588813 -13828442 
2922.648 -14099629 -14359010 -14561304 -14667893 -14657962 -14531856 
2923.010 -14310859 -14029602 -13733107 -13467022 -13269971 -13173100 
2923.372 -13192932 -13328103 -13554354 -13827286 -14088755 -14276041 
2923.733 -14345739 -14284248 -14117751 -13901164 -13705626 -13591286 
2924.095 -13584092 -13670887 -13804626 -13928215 -13992868 -13980131 
2924.457 -13904309 -13804626 -13724022 -13696026 -13736124 -13842980 
2924.819 -14008556 -14225860 -14491480 -14798762 -15127589 -15440850 
2925.181 -15684860 -15808778 -15786029 -15629247 -15393105 -15158979 
2925.542 -15010262 -14995698 -15115525 -15318681 -15530087 -15672971 
2925.904 -15702244 -15617548 -15457190 -15277802 -15127237 -15032763 
2926.266 -14993489 -14991856 -15008502 -15035772 -15079714 -15152260 
2926.628 -15257488 -15382712 -15497348 -15567491 -15568002 -15499459 
2926.990 -15387509 -15275083 -15197375 -15161667 -15134821 -15049983 
2927.352 -14826238 -14394400 -13729286 -12859517 -11868567 -10866173 
2927.713 -9974422 -9292608 -8876753 -8741001 -8859872 -9185146 -9655280 
2928.135 -10212298 -10802442 -11373679 -11880303 -12276962 -12523850 
2928.497 -12595826 -12486538 -12217015 -11833552 -11409893 -11032016 
2928.859 -10780885 -10723057 -10888179 -11264567 -11797728 -12407428 
2929.221 -13001545 -13496991 -13844745 -14032361 -14087087 -14058570 
2929.583 -14007786 -13984879 -14016609 -14106974 -14241027 -14395329 
2929.945 -14547686 -14686151 -14810259 -14928921 -15056255 -15208509 
2930.306 -15400141 -15640531 -15931319 -16261650 -16607996 -16929464 
2930.668 -17177352 -17305240 -17278876 -17090428 -16762638 -16346412 
2931.030 -15903721 -15496677 -15171266 -14947553 -14823421 -14782078 
2931.392 -14805071 -14878143 -14995698 -15156131 -15354504 -15577081 
2931.754 -15799448 -15987659 -16108520 -16135147 -16052293 -15861044 
2932.115 -15578839 -15238262 -14880705 -14556946 -14315925 -14193824 
2932.477 -14207358 -14343207 -14560054 -14792101 -14971690 -15044701 
2932.839 -14987759 -14816952 -14583892 -14362409 -14222525 -14219094 
2933.201 -14374269 -14674203 -15071330 -15493959 -15859414 -16078731 
2933.563 -16079722 -15818361 -15294052 -14556690 -13707359 -12884060 
2933.925 -12219721 -11824105 -11746615 -11965665 -12393549 -12906383 
2934.286 -13385231 -13737408 -13924557 -13956548 -13874142 -13722127 
2934.648 -13534120 -13325403 -13099966 -12866208 -12647836 -12483608 
2935.010 -12420115 -12491399 -12703381 -13027623 -13409680 -13788063 
2935.372 -14111754 -14361191 -14549192 -14712642 -14890053 -15104612 
2935.734 -15348619 -15584146 -15750082 -15782770 -15640210 -15311932 
2936.095 -14830370 -14262767 -13706075 -13258177 -13001995 -12988618 
2936.457 -13223178 -13662957 -14224032 -14806160 -15304224 -15637238 
2936.819 -15767559 -15705185 -15505150 -15244916 -15009558 -14859508 
2937.181 -14816408 -14858900 -14934171 -14974443 -14920469 -14744318 
2937.543 -14453215 -14085323 -13690344 -13312615 -12974147 -12671651 
2937.905 -12384951 -12094516 -11797212 -11514354 -11284455 -11148840 
2938.266 -11132789 -11231570 -11410086 -11614887 -11798019 -11928338 
2938.628 -11999059 -12017397 -11987584 -11895035 -11705398 -11376293 
2938.990 -10886563 -10261747 -9589492 -8998021 -8629699 -8592993 -8916682 
2939.412 -9540387 -10328275 -11125555 -11791730 -12253996 -12517218 
2939.774 -12649220 -12742509 -12876051 -13091285 -13382436 -13711629 
2940.136 -14031591 -14310859 -14541278 -14737017 -14920373 -15110181 
2940.498 -15312124 -15517810 -15710425 -15872383 -15989000 -16047344 
2940.859 -16035752 -15941219 -15751872 -15462497 -15079139 -14622435 
2941.221 -14121857 -13612512 -13125524 -12683012 -12302730 -12001572 
2941.583 -11801146 -11730812 -11817817 -12076567 -12493267 -13022286 
2941.945 -13587722 -14098378 -14479302 -14686055 -14722090 -14632847 
2942.307 -14494780 -14385905 -14359235 -14432766 -14583380 -14759371 
2942.668 -14896168 -14941502 -14866104 -14670071 -14378629 -14033997 
2943.030 -13685528 -13377199 -13149891 -13035566 -13055790 -13221152 
2943.392 -13523490 -13933638 -14396323 -14843082 -15202366 -15417666 
2943.754 -15468189 -15373917 -15191776 -14990160 -14830337 -14739258 
2944.116 -14701784 -14667893 -14578542 -14394207 -14115249 -13786362 
2944.478 -13482216 -13283565 -13241304 -13362869 -13609044 -13916406 
2944.839 -14217586 -14469528 -14664786 -14825886 -14987439 -15173666 
2945.201 -15385303 -15596068 -15763247 -15842419 -15806988 -15655201 
2945.563 -15411366 -15114564 -14811124 -14541694 -14331057 -14187219 
2945.925 -14098249 -14038906 -13972751 -13865991 -13698852 -13474732 
2946.287 -13223017 -12994020 -12844237 -12813194 -12908827 -13099966 
2946.648 -13328360 -13523875 -13632677 -13637494 -13561419 -13459955 
2947.010 -13397793 -13433388 -13596552 -13887364 -14279760 -14734742 
2947.372 -15207261 -15649447 -16016208 -16259799 -16337892 -16224530 
2947.734 -15919948 -15460003 -14910416 -14359908 -13891376 -13562062 
2948.096 -13391367 -13357086 -13403930 -13456422 -13441677 -13290410 
2948.458 -12948419 -12382729 -11585336 -10583969 -9444658 -8277027 -7212076 
2948.880 -6373191 -5852645 -5675786 -5799521 -6122585 -6530412 -6925073 
2949.302 -7259554 -7545717 -7840804 -8213923 -8710994 -9337590 -10052941 
2949.724 -10790128 -11474438 -12053139 -12503729 -12832046 -13059359 
2950.086 -13209453 -13297383 -13326368 -13294234 -13200421 -13053443 
2950.448 -12874796 -12697847 -12561643 -12509331 -12576771 -12786845 
2950.809 -13142273 -13620765 -14174134 -14731347 -15219674 -15575035 
2951.171 -15761744 -15781716 -15671436 -15488908 -15290885 -15122725 
2951.533 -15005205 -14937788 -14907759 -14902060 -14911473 -14930489 
2951.895 -14951202 -14954948 -14910256 -14782590 -14541598 -14179137 
2952.257 -13715257 -13199425 -12697847 -12274997 -11984941 -11856863 
2952.618 -11897518 -12096127 -12433091 -12882710 -13412667 -13984012 
2952.980 -14545186 -15036220 -15402988 -15604411 -15629983 -15503551 
2953.342 -15281385 -15034428 -14827424 -14704281 -14671929 -14701110 
2953.704 -14734614 -14711040 -14579022 -14317079 -13940408 -13499401 
2954.066 -13067300 -12717958 -12515899 -12495391 -12655464 -12959739 
2954.427 -13347029 -13744439 -14078972 -14297426 -14369878 -14294380 
2954.789 -14092444 -13804786 -13480835 -13167185 -12905418 -12721626 
2955.151 -12624633 -12605128 -12638665 -12691121 -12723106 -12702931 
2955.513 -12612370 -12454793 -12256766 -12069187 -11957897 -11984941 
2955.875 -12197524 -12606705 -13179786 -13837524 -14474303 -14985102 
2956.237 -15288454 -15359717 -15233560 -14998066 -14756072 -14599271 
2956.598 -14574281 -14669879 -14827071 -14967880 -15032123 -14996402 
2956.960 -14884707 -14749027 -14646206 -14605006 -14613336 -14621474 
2957.322 -14569154 -14409272 -14132441 -13771724 -13393520 -13073023 
2957.684 -12868010 -12810781 -12904163 -13131664 -13468886 -13892435 
2958.046 -14380392 -14904813 -15430105 -15910270 -16294332 -16538978 
2958.407 -16609240 -16478404 -16122313 -15509211 -14602955 -13378773 
2958.769 -11845417 -10069582 -8181019 -6368032 -4817575 -3673497 -2989576 
2959.191 -2714487 -2714586 -2829455 -2947289 -3038802 -3174275 -3480990 
2959.614 -4094789 -5084197 -6418248 -7962035 -9529690 -10936712 -12050786 
2960.036 -12830823 -13315860 -13598640 -13776989 -13930975 -14100719 
2960.397 -14291431 -14491480 -14687497 -14873756 -15048062 -15204573 
2960.759 -15326774 -15388245 -15365059 -15248019 -15054527 -14826175 
2961.121 -14622531 -14501221 -14498114 -14619679 -14840296 -15112581 
2961.483 -15376507 -15577400 -15675526 -15649702 -15500354 -15248851 
2961.845 -14935387 -14610325 -14331088 -14149888 -14098570 -14182408 
2962.207 -14373468 -14617629 -14841577 -14976043 -14973259 -14817176 
2962.568 -14530030 -14164866 -13796280 -13496220 -13326047 -13323990 
2962.930 -13500043 -13840027 -14311212 -14872540 -15475287 -16069440 
2963.292 -16605508 -17027700 -17283396 -17327432 -17132858 -16705092 
2963.654 -16091758 -15383352 -14690860 -14132408 -13798399 -13724471 
2964.016 -13885471 -14202194 -14571781 -14891719 -15098532 -15177505 
2964.377 -15160035 -15100036 -15050206 -15040029 -15065409 -15096260 
2964.739 -15091171 -15018872 -14866744 -14645501 -14382090 -14111849 
2965.101 -13868206 -13677822 -13561516 -13530492 -13586565 -13716798 
2965.463 -13893879 -14076854 -14219543 -14287968 -14268538 -14176186 
2965.825 -14046540 -13925327 -13847153 -13822279 -13835373 -13855433 
2966.187 -13853860 -13819518 -13766909 -13730025 -13746589 -13837268 
2966.548 -13995018 -14182857 -14349489 -14441997 -14426516 -14297201 
2966.910 -14074192 -13794932 -13501809 -13236869 -13033893 -12920084 
2967.272 -12917060 -13035726 -13272831 -13604869 -13990429 -14371865 
2967.634 -14689643 -14898602 -14973002 -14914514 -14745119 -14502279 
2967.996 -14226341 -13956998 -13732304 -13584285 -13538681 -13608787 
2968.357 -13787774 -14044648 -14326600 -14575242 -14736216 -14779932 
2968.719 -14706972 -14542335 -14318618 -14057479 -13757279 -13391624 
2969.081 -12921886 -12314261 -11559977 -10680255 -9724298 -8750483 -7820758 
2969.503 -6988136 -6298283 -5802528 -5559575 -5632255 -6075571 -6909811 
2969.925 -8102063 -9554714 -11128656 -12657845 -13988441 -15017848 -15696013 
2970.347 -16029781 -16064906 -15870627 -15521231 -15088067 -14645405 
2970.709 -14262382 -14001819 -13911690 -14009005 -14273091 -14645148 
2971.071 -15046430 -15389556 -15604411 -15654145 -15534691 -15271883 
2971.433 -14907727 -14494716 -14084970 -13729896 -13482216 -13386195 
2971.795 -13472387 -13744149 -14170734 -14684486 -15193407 -15608919 
2972.156 -15859766 -15916338 -15793504 -15542460 -15228665 -14909680 
2972.518 -14623941 -14381834 -14175545 -13990109 -13817400 -13660870 
2972.880 -13534120 -13452599 -13425518 -13449387 -13510321 -13587272 
2973.242 -13662411 -13727842 -13786426 -13849656 -13929178 -14029698 
2973.604 -14143282 -14249139 -14318778 -14327305 -14259849 -14119419 
2973.966 -13926514 -13716156 -13528147 -13395930 -13342626 -13374050 
2974.327 -13481123 -13641411 -13826644 -14004835 -14143121 -14214220 
2974.689 -14198539 -14092508 -13913486 -13705626 -13532869 -13463457 
2975.051 -13555607 -13831554 -14265620 -14781438 -15274635 -15637621 
2975.413 -15789255 -15705600 -15421919 -15023673 -14609812 -14271039 
2975.775 -14057672 -13973201 -13983019 -14037109 -14094849 -14137444 
2976.136 -14173140 -14225090 -14314963 -14445747 -14596292 -14724525 
2976.498 -14784352 -14738041 -14570436 -14292616 -13939702 -13557951 
2976.860 -13191389 -12876727 -12633644 -12467220 -12370621 -12332233 
2977.222 -12337707 -12374839 -12434411 -12510361 -12599495 -12700678 
2977.584 -12812390 -12931244 -13049488 -13151756 -13216075 -13217103 
2977.946 -13130314 -12943498 -12664186 -12327530 -11989743 -11724459 
2978.307 -11604112 -11675111 -11948291 -12388429 -12926131 -13470234 
2978.669 -13939927 -14285467 -14495806 -14595459 -14624325 -14615867 
2979.031 -14576524 -14481802 -14285628 -13944226 -13430819 -12747979 
2979.393 -11920794 -10984592 -9965356 -8872500 -7708308 -6486085 -5254815 
2979.815 -4117272 -3211048 -2686926 -2661800 -3171282 -4152948 -5453802 
2980.237 -6884667 -8252125 -9422319 -10344905 -11046390 -11603531 -12102121 
2980.659 -12606544 -13133978 -13658205 -14124840 -14480360 -14688298 
2981.021 -14742749 -14665523 -14498819 -14291815 -14086349 -13915091 
2981.383 -13794579 -13726172 -13698595 -13692077 -13684500 -13656984 
2981.745 -13601145 -13521274 -13432843 -13355318 -13306188 -13294877 
2982.106 -13320873 -13379641 -13469913 -13601112 -13795799 -14082019 
2982.468 -14481385 -14996498 -15602558 -16246362 -16854730 -17358410 
2982.830 -17700606 -17853524 -17821150 -17634944 -17343636 -16999472 
2983.192 -16656213 -16358027 -16137479 -16014995 -15992992 -16053665 
2983.554 -16156984 -16249618 -16269948 -16163433 -15900239 -15479827 
2983.916 -14935195 -14320381 -13702190 -13139058 -12667854 -12301313 
2984.277 -12029419 -11829618 -11678885 -11564882 -11489701 -11468081 
2984.639 -11518032 -11653597 -11875660 -12170397 -12511037 -12864760 
2985.001 -13203025 -13502837 -13752721 -13948526 -14089140 -14172242 
2985.363 -14192991 -14146072 -14030661 -13855722 -13643210 -13423494 
2985.725 -13232755 -13102666 -13051996 -13084630 -13188882 -13343076 
2986.086 -13519828 -13693876 -13843654 -13950548 -14001082 -13984944 
2986.448 -13898949 -13751051 -13563667 -13375143 -13229702 -13173549 
2986.810 -13237769 -13430562 -13732240 -14101778 -14485455 -14828608 
2987.172 -15092132 -15255569 -15318394 -15294083 -15203358 -15066273 
2987.534 -14897577 -14709375 -14512246 -14318136 -14143666 -14006792 
2987.896 -13923466 -13903763 -13947692 -14042819 -14165026 -14284601 
2988.257 -14368852 -14389656 -14330961 -14191676 -13987831 -13747681 
2988.619 -13507655 -13300211 -13145487 -13048170 -12997814 -12977137 
2988.981 -12971606 -12979774 -13017109 -13109418 -13277459 -13519314 
2989.343 -13792075 -14012663 -14056774 -13795446 -13132275 -12036284 
2989.705 -10571907 -8900354 -7270470 -5946719 -5173329 -5113112 -5803672 
2990.127 -7154912 -8966409 -10991861 -12963469 -14664177 -15961470 -16806216 
2990.549 -17232192 -17324536 -17194680 -16940874 -16638545 -16336393 
2990.911 -16059924 -15826765 -15655136 -15563495 -15565701 -15658300 
2991.272 -15812643 -15969645 -16053921 -15994238 -15743276 -15301441 
2991.634 -14723500 -14114960 -13598993 -13296580 -13292113 -13608691 
2991.996 -14204663 -14980589 -15810918 -16556202 -17104092 -17385342 
2992.358 -17377574 -17105114 -16624516 -16011929 -15339056 -14668630 
2992.720 -14049139 -13513276 -13089003 -12802770 -12680759 -12747368 
2993.082 -13013764 -13467858 -14064119 -14726190 -15357414 -15853856 
2993.443 -16137894 -16172117 -15972296 -15599809 -15149188 -14721578 
2993.805 -14394976 -14217619 -14198539 -14317720 -14536791 -14815159 
2994.167 -15117573 -15412613 -15672971 -15870690 -15976289 -15967250 
2994.529 -15835134 -15594854 -15285095 -14967336 -14711425 -14575466 
2994.891 -14597413 -14780733 -15094788 -15478580 -15857594 -16156251 
2995.252 -16308501 -16275151 -16045811 -15642703 -15112581 -14521411 
2995.614 -13939574 -13426867 -13028684 -12768442 -12649124 -12657170 
2995.976 -12767831 -12950283 -13168085 -13386002 -13571889 -13701132 
2996.338 -13764887 -13772174 -13750602 -13736124 -13763988 -13853314 
2996.700 -13997712 -14164929 -14307301 -14379398 -14351574 -14223936 
2997.062 -14025624 -13807642 -13622628 -13513598 -13501745 -13583932 
2997.423 -13735290 -13915733 -14079485 -14174647 -14154090 -13984365 
2997.785 -13654544 -13188175 -12647226 -12131024 -11746937 -11591530 
2998.147 -11721170 -12131637 -12760238 -13503544 -14255039 -14924278 
2998.509 -15461186 -15854815 -16115576 -16255267 -16273107 -16155707 
2998.871 -15892349 -15494311 -15011510 -14524423 -14132601 -13920257 
2999.232 -13923915 -14120317 -14428279 -14738457 -14934267 -14932442 
2999.594 -14698164 -14244746 -13621921 -12897216 -12144590 -11426481 
2999.956 -10798597 -10308408 -9991260 -9871145 -9953050 -10221716 -10638485 
3000.378 -11150487 -11700560 -12232156 -12703349 -13088874 -13380894 
3000.740 -13588010 -13732047 -13843141 -13950227 -14074994 -14222685 
3001.102 -14378693 -14509105 -14572326 -14536182 -14389207 -14151524 
3001.464 -13870067 -13606732 -13412700 -13314350 -13304003 -13347832 
3001.825 -13399753 -13422306 -13402709 -13354226 -13308276 -13296933 
3002.187 -13341470 -13442577 -13583804 -13739913 -13890478 -14024341 
3002.549 -14140363 -14240931 -14324998 -14382604 -14397573 -14351701 
3002.911 -14233620 -14043942 -13796152 -13512891 -13220671 -12946778 
3003.273 -12715545 -12548154 -12462165 -12467768 -12565248 -12741640 
3003.635 -12973149 -13228995 -13481027 -13713331 -13924557 -14126219 
3003.996 -14332660 -14550698 -14770869 -14966856 -15098788 -15129508 
3004.358 -15033755 -14806417 -14464720 -14045739 -13601048 -13184800 
3004.720 -12853502 -12654113 -12614977 -12738197 -12992444 -13316921 
3005.082 -13627540 -13846960 -13925520 -13862332 -13707681 -13553551 
3005.444 -13503190 -13628953 -13952955 -14433119 -14983246 -15496101 
3005.805 -15887015 -16118674 -16204517 -16194908 -16148429 -16109703 
3006.167 -16090641 -16074326 -16027896 -15923142 -15744938 -15495910 
3006.529 -15188384 -14836838 -14451195 -14041664 -13626480 -13240500 
3006.891 -12934203 -12767927 -12786845 -13004600 -13387320 -13860600 
3007.253 -14318874 -14655656 -14797738 -14718600 -14449561 -14066044 
3007.615 -13674708 -13380315 -13261648 -13358628 -13659810 -14105979 
3007.976 -14599015 -15032507 -15308734 -15366754 -15201758 -14867897 
3008.338 -14467733 -14117110 -13924910 -13952280 -14198346 -14600617 
3008.700 -15058656 -15465855 -15736533 -15836030 -15780214 -15625443 
3009.062 -15438099 -15276458 -15169507 -15112837 -15076482 -15021977 
3009.424 -14919764 -14757065 -14541374 -14292778 -14035665 -13787325 
3009.785 -13556859 -13345679 -13155066 -12992444 -12875826 -12829729 
3010.147 -12880490 -13044151 -13319363 -13681996 -14090744 -14496479 
3010.509 -14850030 -15116389 -15277258 -15329876 -15281192 -15141221 
3010.871 -14917972 -14617085 -14247889 -13829885 -13394998 -12991480 
3011.233 -12672263 -12480936 -12441914 -12548702 -12765836 -13035115 
3011.594 -13296933 -13500300 -13615145 -13637623 -13585152 -13488287 
3011.956 -13376652 -13272478 -13182454 -13099162 -13005822 -12887631 
3012.318 -12740932 -12580505 -12438082 -12357385 -12381087 -12532864 
3012.680 -12809172 -13173132 -13566173 -13916503 -14160055 -14256450 
3013.042 -14187763 -13957158 -13576064 -13055854 -12404433 -11634984 
3013.404 -10782985 -9912925 -9124153 -8534288 -8237657 -8281741 -8638697 
3013.826 -9216514 -9876003 -10480577 -10935580 -11200702 -11294236 -11267892 
3014.248 -11177097 -11049459 -10878647 -10632212 -10279869 -9815366 -9272824 
3014.670 -8715768 -8223482 -7858538 -7647791 -7582871 -7630797 -7753064 
3015.092 -7915869 -8096014 -8267632 -8389264 -8402915 -8236292 -7828015 
3015.514 -7155303 -6252528 -5215433 -4175625 -3283498 -2660120 -2373619 
3015.936 -2436621 -2810526 -3423366 -4177462 -4965991 -5662705 -6125624 
3016.358 -6223492 -5848624 -4963535 -3628615 -2025656 -429966 856729 1559998 
3016.841 1541344 838337 -323036 -1600007 -2591419 -2929616 -2389205 -917307 
3017.323 1324496 4005232 6643265 8731325 9866489 9818970 8627314 6579411 
3017.806 4168020 1920514 295921 -420863 -187332 824361 2293120 3886432 
3018.288 5329843 6501475 7433019 8255517 9104207 10034372 10978732 11766205 
3018.771 12183410 12055131 11330626 10107044 8612984 7118387 5880400 5057457 
3019.253 4675741 4637661 4759313 4831978 4653837 4088007 3072261 1618362 
3019.735 -201342 -2268913 -4436704 -6558448 -8493155 -10127593 -11396918 
3020.157 -12283855 -12822877 -13082733 -13154809 -13124238 -13053861 
3020.519 -12981639 -12920052 -12869875 -12835005 -12830727 -12886022 
3020.881 -13034665 -13298990 -13678015 -14138663 -14623236 -15058528 
3021.243 -15382040 -15560841 -15600800 -15543419 -15449899 -15380537 
3021.605 -15367809 -15408136 -15462145 -15475191 -15395376 -15198175 
3021.967 -14896105 -14537176 -14187315 -13905721 -13733042 -13676955 
3022.328 -13718050 -13820160 -13948430 -14077977 -14198026 -14308551 
3022.690 -14411933 -14506798 -14586584 -14642553 -14670040 -14672986 
3023.052 -14666740 -14672025 -14709086 -14791941 -14922774 -15091332 
3023.414 -15276202 -15450091 -15582547 -15643917 -15613649 -15482769 
3023.776 -15261199 -14976395 -14675100 -14409432 -14223327 -14142158 
3024.137 -14161947 -14253115 -14370327 -14473886 -14541278 -14575626 
3024.499 -14599752 -14641240 -14713987 -14805520 -14874205 -14863255 
3024.861 -14723243 -14429176 -13996750 -13479775 -12960447 -12520019 
3025.223 -12223458 -12102475 -12150325 -12327272 -12573230 -12827767 
3025.585 -13039134 -13179978 -13252842 -13289863 -13343076 -13469432 
3025.947 -13716701 -14101778 -14603020 -15158371 -15685307 -16096324 
3026.308 -16326819 -16355634 -16207390 -15942689 -15631517 -15335377 
3026.670 -15084035 -14873789 -14677855 -14467765 -14232113 -13986387 
3027.032 -13768097 -13625036 -13595140 -13690761 -13896800 -14174839 
3027.394 -14480263 -14769844 -15013911 -15197183 -15310141 -15344270 
3027.756 -15287430 -15126725 -14858131 -14496608 -14083590 -13680391 
3028.117 -13360652 -13189621 -13201225 -13389857 -13708419 -14085547 
3028.479 -14439529 -14707869 -14860501 -14902412 -14865143 -14790788 
3028.841 -14716133 -14657130 -14610068 -14555216 -14469688 -14332755 
3029.203 -14128785 -13844296 -13459538 -12948194 -12285305 -11461175 
3029.565 -10501309 -9478926 -8519343 -7765464 -7354333 -7372609 -7826257 
3029.987 -8635806 -9655896 -10725773 -11696044 -12474915 -13040292 -13426867 
3030.409 -13700842 -13927862 -14152294 -14383757 -14604270 -14782847 
3030.771 -14894248 -14927416 -14889445 -14799403 -14683140 -14565501 
3031.133 -14467380 -14406868 -14399080 -14454400 -14576428 -14757962 
3031.494 -14978413 -15203166 -15392882 -15506812 -15513654 -15400301 
3031.856 -15174434 -14864247 -14511989 -14169932 -13888776 -13709285 
3032.218 -13659842 -13749704 -13970152 -14296047 -14694352 -15126437 
3032.580 -15552402 -15934704 -16234808 -16414950 -16446119 -16313799 
3032.942 -16030036 -15634585 -15193664 -14777723 -14439689 -14198923 
3033.303 -14032843 -13886851 -13698242 -13429888 -13089356 -12736460 
3033.665 -12459204 -12349269 -12459654 -12782309 -13245964 -13743283 
3034.027 -14169869 -14453022 -14579727 -14590332 -14559061 -14554864 
3034.389 -14620833 -14758571 -14934587 -15095876 -15192928 -15198271 
3034.751 -15111460 -14959238 -14784736 -14641848 -14579375 -14632910 
3035.113 -14815511 -15109989 -15463776 -15793664 -16010270 -16033867 
3035.474 -15825614 -15401676 -14834244 -14229804 -13696187 -13322576 
3035.836 -13150438 -13172746 -13341277 -13589359 -13848243 -14061329 
3036.198 -14195171 -14237307 -14194273 -14087375 -13951735 -13828730 
3036.560 -13755129 -13755064 -13826644 -13939446 -14038970 -14068258 
3036.922 -13987285 -13791144 -13514400 -13221570 -12985820 -12860032 
3037.283 -12868074 -12998844 -13219995 -13491017 -13779846 -14067681 
3037.645 -14343623 -14597862 -14816920 -14984910 -15094819 -15157539 
3038.007 -15207325 -15291077 -15456198 -15729247 -16104210 -16543508 
3038.369 -16993450 -17406670 -17754838 -18036588 -18265896 -18454534 
3038.731 -18595504 -18656672 -18588076 -18345438 -17907388 -17288970 
3039.093 -16537160 -15719851 -14902476 -14131126 -13433581 -12822137 
3039.454 -12308302 -11914185 -11671531 -11613306 -11759032 -12099124 
3039.816 -12590193 -13160178 -13732079 -14235576 -14630636 -14914162 
3040.178 -15116677 -15288038 -15477173 -15717616 -16011130 -16326308 
3040.540 -16603339 -16775072 -16783010 -16599003 -16237553 -15757846 
3040.902 -15251218 -14810868 -14516411 -14405426 -14466835 -14646462 
3041.263 -14868697 -15059680 -15163331 -15156227 -15043774 -14851439 
3041.625 -14610869 -14353401 -14105723 -13888969 -13722577 -13622274 
3041.987 -13596103 -13641251 -13742192 -13875041 -14015101 -14148124 
3042.349 -14275688 -14414946 -14589500 -14819418 -15109733 -15447212 
3042.711 -15802450 -16139489 -16428765 -16649898 -16796654 -16872610 
3043.073 -16885740 -16843860 -16753202 -16618839 -16445322 -16236851 
3043.434 -15995897 -15721099 -15407529 -15049823 -14647519 -14209922 
3043.796 -13757279 -13316214 -12915581 -12577286 -12313358 -12128157 
3044.158 -12023037 -12002185 -12074183 -12247553 -12523110 -12884414 
3044.520 -13298797 -13716541 -14085900 -14367473 -14538618 -14597798 
3044.882 -14556401 -14428760 -14222878 -13939863 -13579628 -13150759 
3045.243 -12679149 -12211571 -11803952 -11515516 -11390721 -11448266 
3045.605 -11678950 -12047112 -12497742 -12960029 -13362290 -13640801 
3045.967 -13750506 -13682381 -13470620 -13195182 -12959932 -12876919 
3046.329 -13027559 -13434545 -14051384 -14771542 -15464831 -16002573 
3046.691 -16305022 -16352985 -16184023 -15866954 -15476981 -15075074 
3047.052 -14696466 -14362505 -14091834 -13907229 -13835630 -13893622 
3047.414 -14071786 -14325927 -14586584 -14781886 -14862006 -14826238 
3047.776 -14725838 -14650979 -14690412 -14904429 -15296099 -15813027 
3048.138 -16359432 -16832226 -17157254 -17300050 -17271458 -17107788 
3048.500 -16849884 -16517831 -16103668 -15573245 -14884898 -14006888 
3048.862 -12936969 -11711010 -10408574 -9144398 -8044008 -7236516 -6819633 
3049.284 -6838779 -7277247 -8056271 -9052735 -10116911 -11118094 -11960895 
3049.706 -12601105 -13046497 -13340827 -13541155 -13692720 -13823980 
3050.068 -13943777 -14054047 -14161017 -14280370 -14432029 -14629483 
3050.429 -14867513 -15118469 -15337968 -15485934 -15539838 -15508698 
3050.791 -15426172 -15338768 -15281960 -15263886 -15265102 -15251570 
3051.153 -15197919 -15107268 -15016152 -14983566 -15067169 -15291780 
3051.515 -15635224 -16027449 -16380107 -16607901 -16662207 -16541595 
3051.877 -16285427 -15952144 -15594822 -15252690 -14946977 -14695057 
3052.239 -14524967 -14476994 -14597061 -14915762 -15424957 -16065609 
3052.600 -16730886 -17299922 -17656990 -17730538 -17507534 -17029834 
3052.962 -16375927 -15634488 -14894408 -14225603 -13684276 -13317659 
3053.324 -13159792 -13228448 -13513501 -13971756 -14522852 -15064385 
3053.686 -15501569 -15760466 -15814018 -15682174 -15423774 -15111685 
3054.048 -14813301 -14576780 -14419593 -14334743 -14297074 -14276554 
3054.409 -14245195 -14186257 -14099372 -14003134 -13932002 -13926835 
3054.771 -14028094 -14258566 -14614361 -15060768 -15540766 -15985167 
3055.133 -16327713 -16523827 -16552439 -16419448 -16150918 -15790470 
3055.495 -15393042 -15018072 -14730995 -14588730 -14627401 -14851951 
3055.857 -15226808 -15680226 -16115896 -16446916 -16610835 -16589785 
3056.219 -16407866 -16119886 -15788553 -15460579 -15161635 -14893607 
3056.580 -14644604 -14399560 -14148573 -13888231 -13619127 -13344747 
3056.942 -13072477 -12819210 -12612821 -12491625 -12494136 -12641851 
3057.304 -12927224 -13308084 -13720297 -14091899 -14372026 -14541182 
3057.666 -14608082 -14594209 -14517501 -14383277 -14189559 -13940698 
3058.028 -13658654 -13377166 -13121762 -12871837 -12538658 -11954222 
3058.389 -10922043 -9289009 -7018947 -4252574 -1312508 1333370 3227956 
3058.812 4014261 3559825 1987946 -359156 -3036400 -5649296 -7904189 -9676279 
3059.294 -10980974 -11919537 -12612691 -13158795 -13618967 -14016609 
3059.656 -14358338 -14647647 -14888165 -15079362 -15208221 -15250418 
3060.018 -15175170 -14962503 -14615291 -14167784 -13678561 -13218999 
3060.379 -12861801 -12663059 -12659455 -12864954 -13268782 -13831651 
3060.741 -14483212 -15132133 -15667729 -15988871 -16032463 -15790215 
3061.103 -15318425 -14721546 -14132248 -13664208 -13388958 -13322094 
3061.465 -13428763 -13641797 -13885760 -14103285 -14257059 -14332499 
3061.827 -14329294 -14253115 -14110406 -13909122 -13662218 -13387769 
3062.188 -13108260 -12846103 -12616393 -12423399 -12260857 -12116266 
3062.550 -11975529 -11829167 -11675305 -11520678 -11378811 -11268312 
3062.912 -11211841 -11231796 -11346533 -11566785 -11889362 -12294871 
3063.274 -12748236 -13207461 -13629595 -13980933 -14245324 -14423599 
3063.636 -14528973 -14577741 -14582290 -14544578 -14457829 -14312526 
3063.998 -14107038 -13853828 -13584285 -13339863 -13164164 -13087813 
3064.359 -13115976 -13223981 -13361841 -13470973 -13496124 -13406371 
3064.721 -13204246 -12926934 -12635221 -12399152 -12286883 -12346403 
3065.083 -12604420 -13063700 -13705272 -14486192 -15339728 -16182331 
3065.445 -16912830 -17436114 -17687880 -17649862 -17361752 -16909452 
3065.807 -16407929 -15959106 -15633818 -15454183 -15396495 -15406217 
3066.168 -15423038 -15406569 -15343661 -15248915 -15149060 -15069922 
3066.530 -15021657 -14998195 -14981645 -14953636 -14903020 -14829312 
3066.892 -14741019 -14653318 -14583700 -14548903 -14564220 -14639447 
3067.254 -14773848 -14952643 -15148580 -15329588 -15466494 -15544377 
3067.616 -15558156 -15494280 -15307934 -14896168 -14091995 -12711297 
3067.978 -10600299 -7732883 -4268520 -597492 2727993 5144020 6183147 5658187 
3068.460 3699354 728897 -2702666 -6043582 -8864871 -10963722 -12332812 
3068.882 -13115976 -13505664 -13684757 -13765337 -13783312 -13728323 
3069.244 -13581074 -13344233 -13056561 -12783081 -12597499 -12565666 
3069.606 -12726228 -13087813 -13625003 -14284569 -14983406 -15622535 
3069.968 -16111203 -16379405 -16406527 -16226541 -15921991 -15591433 
3070.329 -15317146 -15139525 -15043422 -14972459 -14856595 -14650530 
3070.691 -14351381 -14003776 -13676570 -13442223 -13345325 -13390564 
3071.053 -13546068 -13760072 -13979778 -14161466 -14281459 -14331506 
3071.415 -14318073 -14257861 -14179938 -14123909 -14130645 -14235351 
3071.777 -14450811 -14759371 -15111364 -15440498 -15686521 -15810119 
3072.138 -15810119 -15717264 -15582738 -15452489 -15356326 -15301089 
3072.500 -15275754 -15264142 -15255313 -15248371 -15248147 -15258256 
3072.862 -15274507 -15284839 -15275914 -15241173 -15186112 -15127173 
3073.224 -15085219 -15076066 -15103460 -15158660 -15225977 -15291044 
3073.586 -15344461 -15382744 -15403851 -15401132 -15362499 -15273483 
3073.948 -15124165 -14917139 -14670583 -14416452 -14189431 -14021774 
3074.309 -13937104 -13947339 -14057960 -14267736 -14568385 -14937020 
3074.671 -15334258 -15704801 -15982229 -16112607 -16069409 -15867177 
3075.033 -15557069 -15215451 -14919573 -14719880 -14634352 -14645821 
3075.395 -14720393 -14819321 -14916435 -15000371 -15067681 -15115621 
3075.757 -15136869 -15122021 -15066913 -14981005 -14887268 -14812212 
3076.118 -14773687 -14767442 -14767314 -14734806 -14641848 -14489877 
3076.480 -14317463 -14188212 -14164320 -14281170 -14526473 -14841769 
3076.842 -15139813 -15340655 -15386485 -15250003 -14921013 -14378821 
3077.204 -13573463 -12431256 -10875318 -8879350 -6508673 -3957830 -1518195 
3077.626 467972 1679394 1928102 1194101 -361573 -2468086 -4797521 -7058068 
3078.108 -9057538 -10692475 -11945873 -12847004 -13442320 -13773683 
3078.470 -13877449 -13797789 -13591510 -13333373 -13107939 -12982797 
3078.832 -12997590 -13148926 -13397182 -13677726 -13926963 -14104311 
3079.194 -14199404 -14231664 -14236922 -14252891 -14302844 -14391707 
3079.556 -14508336 -14633807 -14750372 -14847885 -14925688 -14990160 
3079.917 -15049214 -15107333 -15163523 -15211772 -15245172 -15259696 
3080.279 -15258544 -15251570 -15253905 -15279113 -15332723 -15406729 
3080.641 -15479028 -15515605 -15480243 -15347660 -15109764 -14780989 
3081.003 -14392893 -13989178 -13611645 -13294234 -13061931 -12929346 
3081.365 -12905514 -12995725 -13198653 -13500589 -13868719 -14255007 
3081.727 -14597605 -14841577 -14957509 -14952803 -14872508 -14781726 
3082.088 -14745504 -14797546 -14929337 -15091459 -15219770 -15259407 
3082.450 -15192928 -15047166 -14883266 -14766674 -14736439 -14790596 
3082.812 -14886468 -14962951 -14961638 -14854449 -14647263 -14372635 
3083.174 -14067937 -13760682 -13460534 -13165063 -12875472 -12609602 
3083.536 -12402565 -12299349 -12331652 -12500060 -12767605 -13072638 
3083.897 -13352555 -13566718 -13715450 -13835277 -13983082 -14204856 
3084.259 -14518495 -14901675 -15302944 -15654594 -15899792 -16008863 
3084.621 -15983187 -15850725 -15653698 -15439507 -15247155 -15105189 
3084.983 -15029371 -15021048 -15068674 -15147940 -15228569 -15277354 
3085.345 -15266414 -15179425 -15012566 -14774328 -14482987 -14167079 
3085.707 -13861177 -13605576 -13442223 -13401712 -13493522 -13693104 
3086.068 -13944836 -14166084 -14268923 -14185775 -13870709 -13297351 
3086.430 -12435731 -11220721 -9545379 -7277932 -4308284 -625385 3614349 
3086.852 8038600 12130458 15274099 16924562 16783234 14857859 11481010 
3087.274 7179220 2580709 -1778203 -5535072 -8503975 -10674598 -12144010 
3087.697 -13061031 -13566880 -13785206 -13815410 -13732079 -13602622 
3088.058 -13482666 -13411255 -13412090 -13492398 -13650274 -13882359 
3088.420 -14186866 -14561208 -14990096 -15439346 -15850501 -16146865 
3088.782 -16255906 -16121516 -15724646 -15089988 -14286557 -13416105 
3089.144 -12590837 -11927273 -11515838 -11406859 -11600047 -12040796 
3089.506 -12626048 -13222856 -13710891 -14002140 -14070503 -13952056 
3089.867 -13731309 -13504797 -13343140 -13274245 -13277009 -13301400 
3090.229 -13293270 -13224527 -13102377 -12965013 -12857459 -12813226 
3090.591 -12836356 -12901944 -12965367 -12982057 -12925069 -12790577 
3090.953 -12599398 -12387205 -12199200 -12076664 -12052849 -12146877 
3091.315 -12357224 -12658747 -13001448 -13325757 -13570508 -13694614 
3091.677 -13690473 -13583482 -13421342 -13250399 -13098905 -12964370 
3092.038 -12819628 -12630973 -12384050 -12097803 -11828909 -11648338 
3092.400 -11622500 -11783217 -12114720 -12555301 -13015951 -13409744 
3092.762 -13665172 -13748258 -13662957 -13449451 -13170882 -12906576 
3093.124 -12741962 -12746563 -12964724 -13396187 -13992611 -14656137 
3093.486 -15263311 -15702084 -15890945 -15809385 -15496581 -15039132 
3093.847 -14535381 -14070439 -13699750 -13440873 -13287036 -13220606 
3094.209 -13227227 -13297447 -13422594 -13586950 -13760040 -13899206 
3094.571 -13960815 -13910694 -13740362 -13473351 -13165674 -12890654 
3094.933 -12726871 -12739999 -12961797 -13382693 -13946120 -14564347 
3095.295 -15127460 -15536545 -15730143 -15692113 -15451146 -15054207 
3095.656 -14533523 -13871960 -12992091 -11766738 -10076704 -7859742 -5174115 
3096.079 -2208754 708917 3184162 4864848 5492289 4990820 3465762 1176226 
3096.561 -1555537 -4410925 -7113941 -9487095 -11433388 -12929282 -14004739 
3096.983 -14727407 -15183777 -15454696 -15610549 -15693201 -15715314 
3097.345 -15670095 -15546008 -15344461 -15092963 -14842889 -14660525 
3097.707 -14607665 -14715876 -14977003 -15338160 -15721673 -16036423 
3098.069 -16206017 -16186768 -15970986 -15587086 -15088419 -14546436 
3098.430 -14031206 -13605255 -13314415 -13178307 -13189333 -13314703 
3098.792 -13510193 -13728837 -13938707 -14131446 -14319772 -14527370 
3099.154 -14770741 -15044701 -15314843 -15522542 -15598658 -15492169 
3099.516 -15187521 -14718952 -14162011 -13625099 -13220092 -13028427 
3099.878 -13091574 -13394870 -13878090 -14446708 -15003092 -15469692 
3100.240 -15800439 -15991811 -16071452 -16085565 -16075378 -16067205 
3100.601 -16063405 -16047791 -15994908 -15885066 -15714930 -15501921 
3100.963 -15279305 -15086019 -14958341 -14916883 -14962438 -15073474 
3101.325 -15212124 -15328533 -15371518 -15304384 -15113733 -14819578 
3101.687 -14473020 -14154282 -13949585 -13928279 -14129394 -14545283 
3102.049 -15124677 -15780278 -16417343 -16948138 -17310110 -17477840 
3102.410 -17456166 -17273144 -16965760 -16575243 -16138883 -15687224 
3102.772 -15245524 -14829760 -14447638 -14101617 -13794130 -13534827 
3103.134 -13345197 -13253485 -13287389 -13456872 -13743732 -14095651 
3103.496 -14437029 -14694096 -14813013 -14783680 -14640504 -14454721 
3103.858 -14303389 -14248242 -14318618 -14504683 -14765841 -15043677 
3104.219 -15283559 -15437204 -15471674 -15370399 -15132069 -14773431 
3104.581 -14328396 -13845804 -13372798 -12936519 -12524816 -12078919 
3104.943 -11498381 -10665966 -9494130 -7952470 -6097559 -4063442 -2055172 
3105.365 -299196 1007215 1710662 1738206 1095200 -140333 -1838719 -3830286 
3105.848 -5920342 -7929339 -9698118 -11115672 -12137533 -12779864 -13109257 
3106.270 -13214082 -13187918 -13102313 -13000484 -12906833 -12833557 
3106.632 -12794535 -12808111 -12891104 -13050774 -13276462 -13540126 
3106.993 -13801672 -14022641 -14178784 -14263376 -14286076 -14265877 
3107.355 -14223807 -14178143 -14144628 -14139368 -14177341 -14268282 
3107.717 -14408471 -14575690 -14726383 -14805648 -14768083 -14592191 
3108.079 -14296625 -13935852 -13592089 -13344780 -13247185 -13311233 
3108.441 -13504058 -13758114 -13991488 -14138406 -14160696 -14059725 
3108.802 -13869104 -13647834 -13458831 -13350467 -13347350 -13440906 
3109.164 -13593437 -13745948 -13841729 -13840894 -13735065 -13549762 
3109.526 -13337454 -13159631 -13061770 -13062799 -13146066 -13271482 
3109.888 -13386837 -13451860 -13451956 -13402259 -13341920 -13320391 
3110.250 -13385392 -13564984 -13864515 -14262959 -14720554 -15181473 
3110.612 -15586383 -15885066 -16041309 -16042490 -15899569 -15642768 
3110.973 -15310269 -14935772 -14544354 -14147964 -13754166 -13376813 
3111.335 -13041996 -12790159 -12666985 -12704154 -12906865 -13242654 
3111.697 -13650113 -14045835 -14352150 -14515738 -14515097 -14364300 
3112.059 -14105146 -13797949 -13504411 -13283919 -13184864 -13232820 
3112.421 -13429020 -13743893 -14124487 -14499940 -14805904 -15003860 
3112.782 -15090788 -15099076 -15079458 -15079010 -15115012 -15168163 
3113.144 -15188416 -15121508 -14930777 -14619295 -14229611 -13834796 
3113.506 -13509422 -13304902 -13238830 -13288835 -13401070 -13492269 
3113.868 -13465705 -13211928 -12618421 -11600208 -10120569 -8229367 -6069134 
3114.290 -3886673 -1981856 -626046 -16732 -203792 -1090594 -2462749 -4072830 
3114.772 -5702341 -7199855 -8504592 -9611822 -10538243 -11291073 -11860249 
3115.195 -12233412 -12421370 -12478875 -12500060 -12588230 -12823938 
3115.556 -13222503 -13726172 -14218132 -14577132 -14717190 -14625543 
3115.918 -14363498 -14047438 -13803663 -13720907 -13834571 -14117302 
3116.280 -14500774 -14895753 -15225817 -15444111 -15535938 -15518035 
3116.642 -15427163 -15311421 -15214267 -15169762 -15193311 -15278601 
3117.004 -15399694 -15522446 -15619338 -15679361 -15713526 -15746087 
3117.365 -15800981 -15883820 -15972808 -16019849 -15970413 -15781619 
3117.727 -15445902 -14996946 -14507791 -14069092 -13758916 -13631426 
3118.089 -13699783 -13941275 -14303742 -14720937 -15121860 -15434550 
3118.451 -15602398 -15590283 -15400684 -15078883 -14715781 -14428215 
3118.813 -14319323 -14453471 -14820474 -15337585 -15860310 -16236659 
3119.175 -16356273 -16182395 -15765293 -15218426 -14676894 -14237980 
3119.536 -13940601 -13758981 -13632164 -13497537 -13327300 -13140761 
3119.898 -12994599 -12951989 -13050646 -13284336 -13603778 -13936815 
3120.260 -14213963 -14397317 -14482155 -14490326 -14449817 -14382187 
3120.622 -14296239 -14194369 -14085676 -13994921 -13959949 -14023026 
3120.984 -14208768 -14511701 -14890278 -15283048 -15623398 -15863631 
3121.345 -15989671 -16020998 -16000433 -15973158 -15976097 -16026173 
3121.707 -16120333 -16240841 -16362367 -16457189 -16495407 -16451512 
3122.069 -16306076 -16053794 -15708379 -15302752 -14882818 -14489749 
3122.431 -14151171 -13869714 -13628664 -13402805 -13176957 -12954368 
3122.793 -12753256 -12588842 -12451380 -12289234 -12018589 -11543458 
3123.155 -10795687 -9773253 -8558752 -7309374 -6206115 -5420000 -5048794 
3123.577 -5097067 -5486914 -6103277 -6840768 -7633597 -8466608 -9349556 
3123.999 -10284108 -11239287 -12144460 -12908280 -13456775 -13754872 
3124.361 -13824525 -13731630 -13567297 -13411800 -13315957 -13300050 
3124.722 -13359431 -13482537 -13660901 -13891568 -14169932 -14477603 
3125.084 -14782046 -15037468 -15201054 -15250066 -15188256 -15046430 
3125.446 -14867000 -14692206 -14546853 -14435844 -14349874 -14277644 
3125.808 -14214572 -14167463 -14151171 -14180996 -14264818 -14399881 
3126.170 -14574441 -14772630 -14980045 -15183521 -15370495 -15526474 
3126.531 -15631933 -15667185 -15617101 -15478228 -15263150 -15002323 
3126.893 -14739546 -14520641 -14390169 -14378244 -14494171 -14722923 
3127.255 -15025914 -15346860 -15618700 -15784973 -15810821 -15694639 
3127.617 -15466973 -15183168 -14904173 -14673531 -14508689 -14398214 
3127.979 -14316438 -14241444 -14173781 -14139657 -14182953 -14341956 
3128.341 -14631853 -15033468 -15501857 -15980121 -16420947 -16801594 
3128.702 -17120020 -17380788 -17575730 -17671848 -17616554 -17361052 
3129.064 -16884464 -16217539 -15441553 -14674428 -14023892 -13561580 
3129.426 -13299793 -13198172 -13184060 -13188914 -13178018 -13156031 
3129.788 -13158474 -13225941 -13383078 -13623944 -13917850 -14223903 
3130.150 -14513495 -14781341 -15044253 -15326870 -15644876 -15990501 
3130.511 -16333584 -16628373 -16833342 -16927936 -16918374 -16834616 
3130.873 -16716093 -16599864 -16503667 -16424935 -16342711 -16230213 
3131.235 -16064649 -15835997 -15550964 -15231255 -14908015 -14611126 
3131.597 -14363050 -14169388 -14014716 -13858995 -13645971 -13311490 
3131.959 -12795500 -12063967 -11121292 -10022118 -8862436 -7775000 -6901365 
3132.381 -6351804 -6190599 -6410804 -6941671 -7661627 -8440449 -9174213 
3132.803 -9806004 -10340052 -10827425 -11340399 -11934753 -12630168 
3133.165 -13400364 -14187828 -14922069 -15549652 -16050089 -16434284 
3133.527 -16733149 -16976466 -17182226 -17350004 -17470680 -17538690 
3133.888 -17561474 -17559948 -17556796 -17560614 -17553964 -17493944 
3134.250 -17331508 -17029834 -16589308 -16049547 -15484176 -14972394 
3134.612 -14577645 -14336603 -14252987 -14308359 -14471643 -14711169 
3134.974 -14991760 -15271244 -15501025 -15624581 -15596004 -15400237 
3135.336 -15068769 -14679842 -14340417 -14161851 -14214957 -14512855 
3135.698 -15002100 -15587630 -16154494 -16602447 -16871558 -16938770 
3136.059 -16812432 -16515534 -16079433 -15540733 -14945984 -14360998 
3136.421 -13858867 -13507077 -13346643 -13371930 -13528083 -13724053 
3136.783 -13870581 -13903057 -13810628 -13632774 -13444087 -13318720 
3137.145 -13298829 -13382243 -13525192 -13666617 -13753523 -13768868 
3137.507 -13737312 -13716894 -13770023 -13942461 -14240322 -14626632 
3137.868 -15026618 -15351210 -15523181 -15490411 -15244245 -14818521 
3138.230 -14287262 -13744246 -13289510 -13012735 -12968390 -13169724 
3138.592 -13580528 -14127181 -14704858 -15206269 -15550004 -15691059 
3138.954 -15634265 -15425724 -15139813 -14849422 -14609684 -14446452 
3139.316 -14354299 -14308712 -14280657 -14252762 -14223134 -14202996 
3139.677 -14204150 -14229163 -14264722 -14285852 -14265941 -14191740 
3140.039 -14071914 -13936462 -13823017 -13761934 -13761677 -13805139 
3140.401 -13855465 -13871511 -13825681 -13707424 -13521627 -13276045 
3140.763 -12970931 -12595279 -12138145 -11608822 -11051882 -10554219 
3141.125 -10231457 -10182069 -10455316 -11013990 -11741584 -12458044 
3141.487 -12980836 -13187661 -13042897 -12611822 -12026357 -11448750 
3141.848 -11007336 -10770218 -10739770 -10870762 -11099040 -11369806 
3142.210 -11656048 -11952869 -12267009 -12602521 -12953565 -13306317 
3142.572 -13646677 -13965885 -14262414 -14536567 -14781790 -14980589 
3142.934 -15106437 -15131941 -15042621 -14844427 -14564412 -14240289 
3143.296 -13911593 -13606636 -13337261 -13105174 -12908698 -12752709 
3143.657 -12651763 -12627111 -12698811 -12878077 -13162299 -13533607 
3144.019 -13965468 -14429978 -14899370 -15349515 -15759349 -16106829 
3144.381 -16370695 -16533045 -16580282 -16507911 -16319735 -16027385 
3144.743 -15647370 -15201470 -14717126 -14225058 -13761292 -13360749 
3145.105 -13047976 -12833333 -12707918 -12648126 -12622798 -12607735 
3145.467 -12594506 -12593380 -12626950 -12720629 -12889947 -13133015 
3145.828 -13429919 -13748644 -14057576 -14329197 -14546405 -14701431 
3146.190 -14791685 -14818009 -14787298 -14714980 -14626279 -14553903 
3146.552 -14530768 -14574922 -14682436 -14822460 -14949186 -15013623 
3146.914 -14985999 -14868313 -14695762 -14523718 -14405779 -14377219 
3147.276 -14439978 -14566558 -14712289 -14839143 -14928889 -14990000 
3147.637 -15047806 -15128581 -15238774 -15355207 -15425532 -15386742 
3147.999 -15192159 -14830017 -14337853 -13793424 -13299761 -12945363 
3148.361 -12783081 -12812647 -12985981 -13223274 -13443027 -13594497 
3148.723 -13668447 -13698948 -13740811 -13847955 -14043589 -14309865 
3149.085 -14589531 -14811316 -14912977 -14863062 -14671929 -14383084 
3149.447 -14053662 -13726589 -13418579 -13114529 -12784014 -12400215 
3149.808 -11963990 -11512709 -11118321 -10861584 -10806644 -10978131 
3150.170 -11349825 -11852091 -12390651 -12881648 -13265793 -13522526 
3150.532 -13664818 -13727135 -13745498 -13744599 -13736894 -13727681 
3150.894 -13725209 -13750345 -13833608 -14005797 -14280112 -14637492 
3151.256 -15017912 -15328821 -15475287 -15380153 -15017560 -14423952 
3151.617 -13696219 -12962312 -12345050 -11939878 -11785281 -11866472 
3151.979 -12126900 -12497452 -12912557 -13327557 -13724182 -14100879 
3152.341 -14462830 -14810099 -15132837 -15412070 -15625924 -15755353 
3152.703 -15790310 -15732348 -15593415 -15393585 -15159171 -14920885 
3153.065 -14707837 -14546981 -14458214 -14449946 -14519552 -14653509 
3153.427 -14833763 -15038908 -15250610 -15454855 -15640371 -15799161 
3153.788 -15924994 -16014069 -16067142 -16090257 -16094280 -16089747 
3154.150 -16083809 -16074739 -16051590 -15996344 -15891200 -15726116 
3154.512 -15504318 -15243093 -14971082 -14722346 -14526024 -14401259 
3154.874 -14352888 -14370134 -14428311 -14494204 -14536086 -14528716 
3155.236 -14464560 -14357696 -14243593 -14168072 -14173044 -14282101 
3155.597 -14488467 -14753575 -15017016 -15220314 -15321976 -15314971 
3155.959 -15226360 -15108612 -15018008 -14993361 -15049119 -15171874 
3156.321 -15331187 -15489356 -15615983 -15689813 -15697451 -15632732 
3156.683 -15495654 -15298338 -15067617 -14852432 -14714436 -14711072 
3157.045 -14880705 -15222106 -15692497 -16212657 -16697472 -17078324 
3157.406 -17322498 -17439996 -17471570 -17466702 -17456294 -17442924 
3157.768 -17397502 -17276296 -17035378 -16653024 -16137190 -15528233 
3158.130 -14886851 -14283415 -13788576 -13456325 -13317917 -13373504 
3158.492 -13589552 -13899046 -14212969 -14448214 -14540829 -14474783 
3158.854 -14284922 -14052411 -13873372 -13826130 -13945285 -14205112 
3159.216 -14526024 -14796713 -14918163 -14828128 -14525352 -14066237 
3159.577 -13553230 -13101155 -12801162 -12706020 -12810267 -13059520 
3159.939 -13360363 -13615467 -13747456 -13720714 -13553327 -13312197 
3160.301 -13095143 -12993505 -13074181 -13354837 -13802507 -14342437 
3160.663 -14884642 -15352680 -15694702 -15896726 -15974851 -15962012 
3161.025 -15891839 -15790470 -15674440 -15550676 -15422271 -15288710 
3161.386 -15146628 -14987951 -14802958 -14586136 -14343078 -14095651 
3161.748 -13878989 -13734840 -13693233 -13759622 -13909218 -14093951 
3162.110 -14255553 -14346765 -14349489 -14277483 -14171536 -14080576 
3162.472 -14049748 -14103029 -14241540 -14444049 -14677183 -14900811 
3162.834 -15073506 -15161059 -15139813 -15004853 -14775833 -14501831 
3163.196 -14255648 -14113998 -14145879 -14385040 -14819930 -15392146 
3163.557 -16012952 -16586117 -17025118 -17278462 -17331062 -17203086 
3163.919 -16938738 -16599003 -16250001 -15948886 -15742093 -15652291 
3164.281 -15674440 -15773823 -15895927 -15982421 -15986765 -15894042 
3164.643 -15725413 -15531142 -15366306 -15273163 -15260368 -15299938 
3165.005 -15334833 -15300801 -15151524 -14871291 -14483565 -14042723 
3165.366 -13625902 -13310077 -13160435 -13221667 -13505921 -13990045 
3165.728 -14612279 -15287238 -15909726 -16382564 -16645052 -16682774 
3166.090 -16535278 -16278343 -16002573 -15774686 -15620394 -15519889 
3166.452 -15425820 -15289030 -15085859 -14832483 -14580881 -14398118 
3166.814 -14335160 -14411131 -14604654 -14867608 -15141284 -15382040 
3167.176 -15570943 -15710041 -15810182 -15875770 -15893243 -15834337 
3167.537 -15663574 -15354856 -14905166 -14338077 -13701195 -13051031 
3167.899 -12448160 -11942489 -11569560 -11353957 -11306343 -11424772 
3168.261 -11691432 -12072475 -12515415 -12953596 -13322352 -13565017 
3168.623 -13650177 -13577509 -13378709 -13107360 -12822234 -12576771 
3168.985 -12401567 -12299896 -12251290 -12222394 -12180224 -12104603 
3169.346 -11996673 -11877530 -11779670 -11731361 -11748227 -11824169 
3169.708 -11935687 -12049465 -12139080 -12197235 -12241240 -12307368 
3170.070 -12440046 -12675031 -13022639 -13462236 -13942526 -14400009 
3170.432 -14770869 -15012918 -15118629 -15116517 -15062560 -15020472 
3170.794 -15046974 -15167715 -15371614 -15610836 -15820056 -15931925 
3171.156 -15899921 -15714388 -15403723 -15025049 -14641144 -14307749 
3171.517 -14054592 -13883449 -13774388 -13698627 -13630206 -13551014 
3171.879 -13452213 -13328425 -13173903 -12982314 -12752258 -12494844 
3172.241 -12236698 -12020910 -11894197 -11891587 -12027195 -12289557 
3172.603 -12650476 -13078554 -13556314 -14086670 -14687401 -15373469 
3172.965 -16136680 -16929720 -17672482 -18259796 -18595728 -18625536 
3173.326 -18350648 -17834316 -17182098 -16523030 -15966419 -15582899 
3173.688 -15391731 -15362820 -15429721 -15510617 -15536482 -15462657 
3174.050 -15282344 -15024410 -14747169 -14518110 -14394207 -14410779 
3174.412 -14569763 -14844298 -15186881 -15548822 -15888261 -16175788 
3174.774 -16393509 -16526220 -16556107 -16465994 -16245341 -15903370 
3175.135 -15476023 -15026778 -14628105 -14339424 -14188565 -14157906 
3175.497 -14191259 -14212809 -14162300 -14014556 -13793327 -13558658 
3175.859 -13391335 -13360588 -13500139 -13801704 -14217683 -14678400 
3176.221 -15105412 -15434262 -15621289 -15647817 -15523694 -15285351 
3176.583 -14994609 -14723051 -14545956 -14520193 -14666867 -14963783 
3176.945 -15348267 -15736980 -16042713 -16206080 -16208475 -16072951 
3177.306 -15850630 -15603612 -15386902 -15230903 -15143588 -15112389 
3177.668 -15114564 -15123812 -15116517 -15075810 -14991504 -14863511 
3178.030 -14702776 -14530768 -14374718 -14260362 -14204087 -14205561 
3178.392 -14247504 -14301337 -14339808 -14343463 -14309096 -14248177 
3178.754 -14181638 -14130453 -14111144 -14134943 -14209698 -14343687 
3179.115 -14545347 -14817657 -15150276 -15511161 -15850853 -16107276 
3179.477 -16225679 -16177606 -15969390 -15644558 -15268845 -14921141 
3179.839 -14665875 -14542239 -14558868 -14697427 -14922069 -15192032 
3180.201 -15474040 -15743786 -15985422 -16188875 -16342103 -16430359 
3180.563 -16437538 -16348900 -16158931 -15877528 -15533476 -15171266 
3180.925 -14844138 -14604718 -14486897 -14499235 -14618270 -14796745 
3181.286 -14969737 -15074434 -15067105 -14929081 -14670936 -14324453 
3181.648 -13935339 -13547931 -13198622 -12912462 -12699101 -12555784 
3182.010 -12466962 -12409005 -12351234 -12263434 -12126514 -11938975 
3182.372 -11724233 -11526809 -11409570 -11432936 -11640274 -12046790 
3182.734 -12632550 -13345133 -14107743 -14839335 -15460898 -15909376 
3183.095 -16149066 -16173042 -16007075 -15703587 -15339632 -14997970 
3183.457 -14750116 -14645405 -14696018 -14878367 -15142436 -15433079 
3183.819 -15702980 -15925026 -16094185 -16215689 -16293151 -16318778 
3184.181 -16272694 -16133616 -15893595 -15570112 -15206557 -14862102 
3184.543 -14595459 -14441132 -14401868 -14450362 -14546853 -14655656 
3184.905 -14764368 -14885764 -15052479 -15297474 -15637174 -16061554 
3185.266 -16536331 -17013968 -17445502 -17796026 -18046568 -18191136 
3185.628 -18231234 -18171720 -18020312 -17791064 -17508330 -17204742 
3185.990 -16911394 -16648782 -16414247 -16182045 -15910206 -15563367 
3186.352 -15131365 -14644059 -14165315 -13779396 -13561452 -13546968 
3186.714 -13722673 -14029185 -14387348 -14718696 -14974347 -15143428 
3187.075 -15243701 -15303136 -15337361 -15336721 -15270349 -15098436 
3187.437 -14797290 -14377443 -13890317 -13419478 -13051385 -12859517 
3187.799 -12876469 -13089807 -13445628 -13869521 -14287102 -14636659 
3188.161 -14885603 -15028922 -15084675 -15084227 -15065281 -15063264 
3188.523 -15101572 -15190559 -15322072 -15472793 -15607416 -15690548 
3188.885 -15696364 -15614033 -15450763 -15224601 -14956356 -14657225 
3189.246 -14325927 -13950997 -13521370 -13037977 -12524012 -12023037 
3189.608 -11596498 -11304115 -11188301 -11264309 -11514612 -11893843 
3189.970 -12335389 -12770211 -13133432 -13374468 -13467055 -13410836 
3190.332 -13234909 -12991351 -12753063 -12596535 -12583369 -12751712 
3190.694 -13103085 -13605223 -14199757 -14823933 -15421376 -15952175 
3191.055 -16396668 -16744435 -16986470 -17109030 -17092116 -16917800 
3191.417 -16580984 -16097730 -15507899 -14868761 -14250807 -13719206 
3191.779 -13328425 -13117487 -13103534 -13283115 -13629595 -14096999 
3192.141 -14618686 -15119525 -15534978 -15820056 -15966900 -16004041 
3192.503 -15988521 -15980633 -16021159 -16115481 -16230052 -16303683 
3192.865 -16272247 -16099773 -15793217 -15408680 -15029659 -14749123 
3193.226 -14631789 -14693775 -14896265 -15159363 -15385846 -15484720 
3193.588 -15403851 -15137669 -14728497 -14246382 -13772270 -13371737 
3193.950 -13076592 -12884672 -12765546 -12680759 -12598498 -12510941 
3194.312 -12435763 -12409199 -12466255 -12624954 -12873156 -13171428 
3194.674 -13463039 -13694260 -13836882 -13895580 -13906234 -13918299 
3195.035 -13978816 -14112010 -14313424 -14554960 -14801068 -15023417 
3195.397 -15210972 -15371039 -15522159 -15682111 -15857497 -16042139 
3195.759 -16220381 -16377810 -16506379 -16608475 -16691733 -16761683 
3196.121 -16813038 -16827382 -16775135 -16626874 -16362559 -15980121 
3196.483 -15497221 -14949186 -14381194 -13835566 -13350370 -12953050 
3196.844 -12660452 -12481548 -12417796 -12462391 -12597339 -12794438 
3197.206 -13015307 -13214628 -13352619 -13398757 -13340410 -13183900 
3197.568 -12952343 -12678442 -12394547 -12130090 -11906835 -11739617 
3197.930 -11642920 -11631629 -11721137 -11923598 -12239855 -12651796 
3198.292 -13118709 -13585345 -13989692 -14281652 -14440491 -14479110 
3198.654 -14441901 -14387155 -14372731 -14432671 -14569154 -14751012 
3199.015 -14928184 -15045982 -15061632 -14956549 -14734710 -14416805 
3199.377 -14030243 -13604323 -13167667 -12747174 -12373036 -12075084 
3199.739 -11879141 -11802791 -11848513 -12001572 -12231318 -12499545 
3200.101 -12765643 -12994824 -13167474 -13278905 -13342209 -13383240 
3200.463 -13435895 -13530909 -13684404 -13890221 -14117816 -14319291 
3200.824 -14442253 -14454048 -14355004 -14185358 -14009455 -13897890 
3201.186 -13895997 -14003423 -14171344 -14320445 -14375520 -14291431 
3201.548 -14078908 -13798912 -13544398 -13396990 -13400299 -13543113 
3201.910 -13771018 -14009198 -14197641 -14317880 -14394976 -14482891 
3202.272 -14633295 -14871291 -15177569 -15495175 -15743436 -15852163 
3202.634 -15780725 -15529288 -15134885 -14661486 -14181061 -13753652 
3202.995 -13424137 -13214435 -13124977 -13137836 -13221313 -13337261 
3203.357 -13444922 -13512987 -13523618 -13475792 -13382693 -13264347 
3203.719 -13139990 -13021546 -12913973 -12820111 -12747882 -12715513 
3204.081 -12750006 -12878174 -13116940 -13459795 -13873822 -14299029 
3204.443 -14665619 -14907278 -14976108 -14857843 -14574889 -14184909 
3204.804 -13765016 -13406435 -13191229 -13172907 -13368267 -13746782 
3205.166 -14236922 -14734486 -15136421 -15361604 -15372094 -15182465 
3205.528 -14852240 -14464816 -14093791 -13789475 -13565723 -13408042 
3205.890 -13291310 -13200615 -13143879 -13152238 -13265055 -13511091 
3206.252 -13891537 -14373564 -14895529 -15381305 -15767496 -16012505 
3206.614 -16107213 -16069409 -15935566 -15746439 -15536673 -15335025 
3206.975 -15162371 -15035068 -14967305 -14968553 -15040573 -15173730 
3207.337 -15348203 -15535043 -15702533 -15826669 -15892541 -15897397 
3207.699 -15847435 -15752222 -15618987 -15450154 -15245396 -15005172 
3208.061 -14737593 -14461803 -14205016 -13998707 -13868719 -13824268 
3208.423 -13852930 -13920610 -13983243 -13995948 -13932129 -13793327 
3208.784 -13611292 -13437565 -13326914 -13321548 -13433100 -13640288 
3209.146 -13894296 -14140523 -14331955 -14448599 -14501382 -14527050 
3209.508 -14572486 -14673627 -14844234 -15067425 -15301249 -15486638 
3209.870 -15570144 -15514006 -15306942 -14965191 -14528364 -14050134 
3210.232 -13583097 -13176829 -12869039 -12683719 -12635800 -12731891 
3210.594 -12973342 -13356572 -13871254 -14495870 -15190624 -15900431 
3210.955 -16553460 -17070264 -17384386 -17449132 -17253306 -16822696 
3211.317 -16220158 -15532389 -14852304 -14270975 -13854534 -13636724 
3211.679 -13618871 -13773714 -14055202 -14408471 -14785601 -15145861 
3212.041 -15461282 -15716529 -15905382 -16029973 -16098240 -16123431 
3212.403 -16121069 -16105425 -16086714 -16067237 -16040606 -15993662 
3212.764 -15912760 -15787978 -15618508 -15412613 -15185664 -14953827 
3213.126 -14728753 -14516507 -14318938 -14137893 -13980580 -13859573 
3213.488 -13789764 -13780488 -13827382 -13908673 -13986579 -14020972 
3213.850 -13979072 -13848693 -13642086 -13391431 -13134461 -12899821 
3214.212 -12700678 -12533573 -12389427 -12267815 -12186958 -12185700 
3214.573 -12312425 -12602327 -13059873 -13645554 -14286076 -14885411 
3214.935 -15359557 -15663734 -15802035 -15827820 -15821652 -15868550 
3215.297 -16020136 -16281374 -16607102 -16926022 -17163786 -17272348 
3215.659 -17246938 -17124130 -16967768 -16842362 -16795856 -16837900 
3216.021 -16938738 -17036302 -17061406 -16958112 -16700724 -16301991 
3216.383 -15805902 -15271852 -14750276 -14273540 -13848243 -13462943 
3216.744 -13101123 -12756280 -12438984 -12176679 -12001411 -11937751 
3217.106 -11993450 -12156704 -12402276 -12700131 -13026980 -13365665 
3217.468 -13701838 -14017412 -14281972 -14456227 -14503369 -14401227 
3217.830 -14158804 -13819261 -13458092 -13158634 -12995660 -13017687 
3218.192 -13234459 -13621022 -14125994 -14690797 -15253809 -15761904 
3218.553 -16174510 -16459422 -16596420 -16578879 -16415365 -16128507 
3218.915 -15752127 -15325623 -14883522 -14453246 -14054207 -13699430 
3219.277 -13402452 -13179239 -13045598 -13013893 -13085851 -13248471 
3219.639 -13474539 -13730089 -13982537 -14205658 -14385649 -14517693 
3220.001 -14603404 -14647775 -14659083 -14651460 -14645020 -14666867 
3220.363 -14742973 -14888100 -15097316 -15341358 -15574140 -15743179 
3220.724 -15812228 -15770851 -15638964 -15455559 -15266766 -15109733 
3221.086 -15001396 -14940126 -14910609 -14895112 -14879839 -14859348 
3221.448 -14834180 -14807057 -14779484 -14751077 -14722154 -14696306 
3221.810 -14680194 -14679489 -14692974 -14707228 -14697171 -14634512 
3222.172 -14496223 -14277901 -13999221 -13703860 -13444986 -13271385 
3222.533 -13214531 -13276752 -13434095 -13642407 -13856268 -14037013 
3222.895 -14163647 -14234100 -14259015 -14253404 -14225796 -14174551 
3223.257 -14087536 -13950644 -13757729 -13522783 -13285397 -13109996 
3223.619 -13065436 -13209646 -13564277 -14102259 -14744222 -15376987 
3223.981 -15890146 -16195387 -16259033 -16102582 -15790470 -15397327 
3224.343 -14982189 -14573576 -14168939 -13754454 -13330031 -12922850 
3224.704 -12590451 -12398830 -12389975 -12559357 -12844656 -13145680 
3225.066 -13349856 -13382147 -13231309 -12957424 -12664668 -12467253 
3225.428 -12445970 -12615427 -12922335 -13264540 -13536080 -13654127 
3225.790 -13593727 -13389151 -13122759 -12890171 -12769504 -12801162 
3226.152 -12975818 -13242558 -13524196 -13747585 -13857262 -13831298 
3226.513 -13682638 -13453017 -13198268 -12970577 -12813194 -12750553 
3226.875 -12790577 -12929122 -13155066 -13452149 -13797436 -14162268 
3227.237 -14509137 -14795496 -14985198 -15053535 -14997106 -14833284 
3227.599 -14596003 -14322337 -14040413 -13766139 -13502163 -13247218 
3227.961 -13004857 -12788744 -12620866 -12523464 -12507593 -12570173 
3228.323 -12696302 -12871098 -13090932 -13369680 -13730602 -14189463 
3228.684 -14730834 -15295747 -15779126 -16065896 -16062414 -15735190 
3229.046 -15131237 -14374269 -13634026 -13064664 -12775134 -12786459 
3229.408 -13035855 -13395351 -13722416 -13907710 -13897890 -13711629 
3229.770 -13422306 -13133883 -12937870 -12895961 -13023154 -13291214 
3230.132 -13639550 -13994954 -14295181 -14496063 -14583892 -14572935 
3230.493 -14499524 -14408696 -14340417 -14321728 -14357408 -14431260 
3230.855 -14508689 -14548455 -14506477 -14346893 -14049492 -13614503 
3231.217 -13066594 -12454986 -11854735 -11352956 -11032468 -10959005 
3231.579 -11155331 -11594305 -12195204 -12849320 -13435734 -13854983 
3231.941 -14056453 -14042690 -13867403 -13612094 -13371351 -13224784 
3232.302 -13222856 -13386195 -13703346 -14136964 -14625222 -15094884 
3232.664 -15462849 -15649416 -15600320 -15295491 -14764111 -14077207 
3233.026 -13342723 -12675771 -12171202 -11891264 -11849770 -12018300 
3233.388 -12336452 -12735302 -13147577 -13518061 -13811687 -14007979 
3233.750 -14100623 -14093502 -13998418 -13831907 -13610778 -13351399 
3234.112 -13067815 -12773365 -12488244 -12241014 -12071765 -12026453 
3234.473 -12140690 -12426168 -12856654 -13371351 -13880401 -14294027 
3234.835 -14554704 -14652421 -14634448 -14585238 -14603373 -14756361 
3235.197 -15058015 -15458149 -15864238 -16168317 -16287118 -16194014 
3235.559 -15924899 -15566755 -15219258 -14971786 -14868089 -14899755 
3235.921 -15014807 -15143717 -15225561 -15225209 -15142917 -15005716 
3236.282 -14853104 -14717126 -14615034 -14546629 -14502889 -14476482 
3236.644 -14471674 -14505773 -14604365 -14788483 -15062881 -15408776 
3237.006 -15785838 -16139425 -16412461 -16564144 -16575433 -16455626 
3237.368 -16235191 -15961917 -15687767 -15456934 -15303488 -15243220 
3237.730 -15273611 -15375004 -15515349 -15656607 -15760114 -15798617 
3238.092 -15758710 -15645005 -15477397 -15287782 -15112677 -14984142 
3238.453 -14926840 -14952483 -15058815 -15230104 -15441809 -15665427 
3238.815 -15872544 -16043639 -16171861 -16264012 -16335722 -16405122 
3239.177 -16480669 -16553460 -16594123 -16560540 -16415045 -16138852 
3239.539 -15748421 -15295140 -14859380 -14521411 -14339617 -14332852 
3239.901 -14474398 -14701719 -14938397 -15125060 -15230008 -15257104 
3240.262 -15232599 -15188321 -15141380 -15086083 -14997810 -14848749 
3240.624 -14625574 -14341571 -14035248 -13762640 -13579725 -13521466 
3240.986 -13596905 -13786426 -14053918 -14354683 -14649409 -14909808 
3241.348 -15117029 -15262415 -15344781 -15371806 -15358917 -15328533 
3241.710 -15305823 -15307390 -15333171 -15360197 -15349578 -15254449 
3242.072 -15042173 -14711392 -14301690 -13886563 -13553134 -13381472 
3242.433 -13412154 -13636017 -13991841 -14390393 -14733140 -14941727 
3242.795 -14981613 -14863446 -14638806 -14376289 -14147932 -14004129 
3243.157 -13963383 -14012214 -14112747 -14215630 -14272803 -14254815 
3243.519 -14155084 -13992162 -13800357 -13622274 -13495032 -13439461 
3243.881 -13460630 -13549376 -13691050 -13873212 -14090134 -14342116 
3244.242 -14627945 -14937885 -15248051 -15520688 -15715729 -15800055 
3244.604 -15759956 -15605658 -15368192 -15087780 -14797610 -14518495 
3244.966 -14253500 -13995145 -13736157 -13480482 -13245611 -13061546 
3245.328 -12956942 -12951763 -13048170 -13232659 -13480610 -13765786 
3245.690 -14069027 -14376321 -14676253 -14954084 -15186273 -15344908 
3246.052 -15406217 -15361764 -15225273 -15032603 -14829377 -14650979 
3246.413 -14511541 -14398406 -14281652 -14127919 -13920867 -13670534 
3246.775 -13416426 -13212828 -13111282 -13147416 -13328906 -13638233 
3247.137 -14041632 -14504042 -14992849 -15480914 -15943104 -16345615 
3247.499 -16645307 -16796144 -16756294 -16506029 -16057977 -15461506 
3247.861 -14789252 -14124230 -13543242 -13094597 -12797944 -12643106 
3248.222 -12600654 -12630618 -12693535 -12759787 -12811135 -12845363 
3248.584 -12876180 -12932820 -13052735 -13271932 -13613990 -14076212 
3248.946 -14622851 -15184608 -15678659 -16019307 -16145524 -16039455 
3249.308 -15729567 -15285511 -14796809 -14361095 -14056453 -13931585 
3249.670 -14003936 -14259400 -14659212 -15143236 -15642416 -16077518 
3250.031 -16369388 -16456233 -16299278 -15899695 -15299073 -14579439 
3250.393 -13841279 -13181296 -12679246 -12376256 -12276704 -12354196 
3250.755 -12568208 -12873638 -13227644 -13593117 -13929145 -14189656 
3251.117 -14330383 -14314706 -14133884 -13818010 -13442577 -13109161 
3251.479 -12921209 -12956426 -13234459 -13711982 -14290116 -14853392 
3251.841 -15292932 -15542460 -15592232 -15482929 -15285255 -15070786 
3252.202 -14898218 -14797738 -14776121 -14827424 -14942847 -15116325 
3252.564 -15340655 -15603165 -15878933 -16131796 -16325606 -16431890 
3252.926 -16442707 -16372768 -16255012 -16126623 -16015857 -15935311 
3253.288 -15879860 -15834432 -15782515 -15715729 -15635161 -15548469 
3253.650 -15463137 -15382584 -15304384 -15223865 -15138917 -15053119 
3254.011 -14974283 -14910160 -14861237 -14817272 -14757033 -14656329 
3254.373 -14494620 -14263055 -13967200 -13625453 -13264444 -12911400 
3254.735 -12594570 -12340381 -12173683 -12120102 -12200553 -12426554 
3255.097 -12794889 -13283919 -13854117 -14451356 -15022201 -15517906 
3255.459 -15904073 -16163528 -16292864 -16299469 -16199090 -16017422 
3255.821 -15788617 -15551379 -15344877 -15194559 -15105412 -15059328 
3256.182 -15025401 -14973450 -14892166 -14798603 -14735350 -14751909 
3256.544 -14877919 -15103364 -15371391 -15594726 -15676966 -15556046 
3256.906 -15227512 -14752357 -14234871 -13795157 -13530748 -13483180 
3257.268 -13634508 -13916759 -14245997 -14543040 -14762030 -14893928 
3257.630 -14957541 -14981518 -14987855 -14984942 -14967049 -14923735 
3257.991 -14849294 -14749699 -14642169 -14551435 -14500260 -14505740 
3258.353 -14574633 -14705018 -14887813 -15109381 -15353672 -15599425 
3258.715 -15822707 -15996441 -16093196 -16091855 -15980920 -15763311 
3259.077 -15454951 -15085379 -14692173 -14311757 -13978463 -13715995 
3259.439 -13532996 -13422691 -13363447 -13322930 -13262451 -13149794 
3259.801 -12964113 -12704797 -12392809 -12071282 -11799018 -11635242 
3260.162 -11633984 -11826523 -12212118 -12751743 -13371030 -13972559 
3260.524 -14445138 -14699765 -14686760 -14416195 -13957864 -13434899 
3260.886 -12993763 -12756827 -12802642 -13134621 -13687261 -14339808 
3261.248 -14960581 -15446541 -15745064 -15869925 -15886249 -15886120 
3261.610 -15945500 -16103158 -16344305 -16610993 -16818520 -16886888 
3261.971 -16769269 -16461018 -16003339 -15467037 -14940030 -14498274 
3262.333 -14191612 -14036371 -14014107 -14079966 -14175288 -14249460 
3262.695 -14268121 -14225796 -14144083 -14067039 -14044937 -14116661 
3263.057 -14299382 -14577997 -14908111 -15221050 -15446094 -15524141 
3263.419 -15423678 -15150788 -14750116 -14297683 -13878539 -13576770 
3263.781 -13449355 -13511541 -13732657 -14042466 -14353305 -14576940 
3264.142 -14658026 -14585591 -14395554 -14153352 -13934183 -13795606 
3264.504 -13757086 -13798463 -13872025 -13927926 -13933638 -13892018 
3264.866 -13838519 -13829853 -13916181 -14120959 -14428407 -14788900 
3265.228 -15131781 -15388789 -15520656 -15524844 -15439219 -15324662 
3265.590 -15251954 -15276106 -15420672 -15673066 -15988201 -16303012 
3265.951 -16549090 -16676491 -16662048 -16514545 -16267013 -15966453 
3266.313 -15656287 -15360773 -15082723 -14808370 -14520898 -14215888 
3266.675 -13911625 -13648380 -13481059 -13457417 -13603778 -13914256 
3267.037 -14353241 -14862998 -15376955 -15838778 -16200749 -16427776 
3267.399 -16496172 -16389169 -16101785 -15647305 -15064256 -14413407 
3267.760 -13769221 -13208039 -12783371 -12520374 -12413642 -12438597 
3268.122 -12565183 -12771113 -13045598 -13381472 -13763700 -14160568 
3268.484 -14520065 -14784448 -14908912 -14878367 -14716773 -14482411 
3268.846 -14251608 -14088241 -14029987 -14076727 -14197128 -14340610 
3269.208 -14456868 -14512085 -14491800 -14402124 -14264434 -14110695 
3269.570 -13976954 -13901067 -13920064 -14061136 -14339264 -14750403 
3269.931 -15273036 -15868774 -16489793 -17088166 -17613912 -18019740 
3270.293 -18262718 -18304208 -18122496 -17724240 -17157160 -16506666 
3270.655 -15887238 -15418369 -15183873 -15214971 -15476566 -15885800 
3271.017 -16330998 -16711883 -16968022 -17081254 -17071314 -16972642 
3271.379 -16816034 -16613927 -16363770 -16059030 -15701445 -15308222 
3271.740 -14909264 -14533684 -14204567 -13933028 -13724214 -13587561 
3272.102 -13542953 -13617875 -13836401 -14199628 -14673787 -15186273 
3272.464 -15649416 -15980376 -16131796 -16108552 -15964823 -15782833 
3272.826 -15637910 -15579702 -15613265 -15707133 -15808521 -15869286 
3273.188 -15863247 -15790949 -15674537 -15545177 -15430680 -15344429 
3273.550 -15287111 -15249651 -15220474 -15191520 -15162115 -15141061 
3273.911 -15145413 -15197023 -15315195 -15510362 -15774781 -16078413 
3274.273 -16367855 -16582578 -16665203 -16582292 -16337477 -15974948 
3274.635 -15569600 -15203870 -14956389 -14877663 -14982990 -15252466 
3274.997 -15637621 -16071739 -16475756 -16776729 -16910344 -16833756 
3275.359 -16536331 -16044598 -15423774 -14760108 -14152133 -13677565 
3275.720 -13373536 -13229252 -13192097 -13188303 -13144716 -13018684 
3276.082 -12805409 -12539141 -12277059 -12086170 -12023392 -12120552 
3276.444 -12380990 -12776647 -13255798 -13745531 -14170670 -14468438 
3276.806 -14600617 -14567712 -14409048 -14194787 -13999413 -13885407 
3277.168 -13881139 -13975414 -14124935 -14273443 -14376674 -14413087 
3277.530 -14391643 -14341284 -14298741 -14289827 -14322273 -14386610 
3277.891 -14465361 -14541470 -14604879 -14653029 -14686440 -14704410 
3278.253 -14702360 -14673275 -14610581 -14512181 -14380424 -14220345 
3278.615 -14038231 -13840733 -13636531 -13439557 -13272124 -13159631 
3278.977 -13128385 -13195311 -13362194 -13614792 -13927092 -14271680 
3279.339 -14623877 -14966760 -15288358 -15572798 -15797243 -15929913 
3279.700 -15936205 -15793314 -15499651 -15082914 -14592799 -14095972 
3280.062 -13657402 -13325115 -13127388 -13067365 -13128996 -13281059 
3280.424 -13485845 -13705016 -13903410 -14059757 -14169292 -14247344 
3280.786 -14322177 -14426901 -14581842 -14782847 -14995794 -15166178 
3281.148 -15238998 -15177217 -14980365 -14684293 -14351221 -14041440 
3281.510 -13795991 -13625806 -13516006 -13441066 -13384235 -13347896 
3281.871 -13352524 -13423108 -13572403 -13788962 -14036403 -14265780 
3282.233 -14427382 -14489974 -14444496 -14301497 -14081569 -13808894 
3282.595 -13508426 -13206336 -12937291 -12742766 -12661450 -12721079 
3282.957 -12924201 -13245322 -13636274 -14045642 -14433536 -14779932 
3283.319 -15083939 -15348555 -15565061 -15706846 -15732763 -15607768 
3283.680 -15326678 -14929465 -14498114 -14130997 -13920097 -13912074 
3284.042 -14096517 -14408824 -14759531 -15061184 -15255217 -15327670 
3284.404 -15301089 -15218266 -15118917 -15030554 -14963047 -14914226 
3284.766 -14879200 -14856339 -14848782 -14863062 -14905325 -14980045 
3285.128 -15089411 -15232312 -15402636 -15584177 -15752478 -15873535 
3285.490 -15916338 -15867496 -15741486 -15584081 -15458053 -15426108 
3285.851 -15519409 -15722314 -15968943 -16168125 -16229222 -16096037 
3286.213 -15768135 -15297954 -14770037 -14264531 -13839963 -13516649 
3286.575 -13287196 -13136036 -13060420 -13078521 -13222760 -13517773 
3286.937 -13959307 -14498434 -15052575 -15517299 -15799161 -15846061 
3287.299 -15654689 -15270636 -14766674 -14225058 -13709285 -13252714 
3287.660 -12859678 -12513935 -12194109 -11888943 -11607370 -11381684 
3288.022 -11261597 -11297013 -11527228 -11962797 -12580183 -13320745 
3288.384 -14106236 -14861109 -15524493 -16069695 -16500287 -16839524 
3288.746 -17109094 -17314792 -17439392 -17453524 -17331126 -17071156 
3289.108 -16705826 -16299725 -15929019 -15655264 -15510649 -15487917 
3289.469 -15549781 -15645260 -15733594 -15792547 -15817979 -15813122 
3289.831 -15776251 -15695086 -15554704 -15351658 -15110085 -14883170 
3290.193 -14748001 -14774328 -14995794 -15389588 -15875770 -16335052 
3290.555 -16639024 -16698811 -16483253 -16030420 -15426236 -14783455 
3290.917 -14203734 -13750153 -13445371 -13273088 -13197047 -13175447 
3291.279 -13178114 -13190682 -13212281 -13248439 -13303714 -13374468 
3291.640 -13448712 -13507719 -13535180 -13526091 -13495771 -13481766 
3292.002 -13535984 -13715290 -14057158 -14562458 -15181985 -15825359 
3292.364 -16374078 -16709493 -16755944 -16498532 -15997496 -15364802 
3292.726 -14743870 -14260009 -13985970 -13933991 -14057607 -14276650 
3293.088 -14499524 -14656425 -14711873 -14669078 -14561304 -14441036 
3293.449 -14363210 -14368564 -14479782 -14694768 -14990096 -15323895 
3293.811 -15646122 -15909471 -16074229 -16119536 -16043894 -15864940 
3294.173 -15612051 -15321016 -15027002 -14756873 -14528877 -14352087 
3294.535 -14227496 -14150530 -14115089 -14117751 -14161049 -14255200 
3294.897 -14415683 -14657930 -14985743 -15382648 -15803793 -16185364 
3295.259 -16451096 -16535342 -16406940 -16080806 -15620394 -15116933 
3295.620 -14674428 -14372827 -14249139 -14295118 -14464816 -14693615 
3295.982 -14916724 -15090884 -15194912 -15229656 -15207709 -15144836 
3296.344 -15052831 -14937596 -14800396 -14640247 -14455970 -14246638 
3296.706 -14013497 -13761805 -13505021 -13264411 -13068908 -12948579 
3297.068 -12922915 -12994116 -13141598 -13329356 -13514658 -13666071 
3297.429 -13775576 -13859990 -13951543 -14080672 -14259079 -14469624 
3297.791 -14669303 -14803503 -14832483 -14746625 -14578735 -14392957 
3298.153 -14274245 -14299895 -14517116 -14936092 -15526954 -16231712 
3298.515 -16971336 -17666406 -18243750 -18641342 -18821758 -18772320 
3298.877 -18510894 -18080640 -17546710 -16980798 -16441589 -15969198 
3299.239 -15575451 -15248595 -14966152 -14709887 -14477187 -14283575 
3299.600 -14153737 -14109251 -14154603 -14271584 -14422061 -14561720 
3299.962 -14658731 -14702520 -14708766 -14709823 -14742717 -14831074 
3300.324 -14977196 -15162915 -15360612 -15545273 -15705600 -15848266 
3300.686 -15993215 -16162347 -16367886 -16605796 -16856004 -17090428 
3301.048 -17280404 -17408866 -17473544 -17487134 -17471062 -17449354 
3301.409 -17443466 -17467528 -17527806 -17622566 -17743992 -17877182 
3301.771 -18002702 -18100440 -18150908 -18141088 -18066274 -17929900 
3302.133 -17738998 -17499864 -17213628 -16875732 -16480254 -16029142 
3302.495 -15538624 -15046461 -14607762 -14280145 -14115313 -14139016 
3302.857 -14343816 -14688906 -15111173 -15541820 -15915763 -16189577 
3303.219 -16341211 -16368397 -16282842 -16105359 -15864430 -15592872 
3303.580 -15331028 -15120612 -14994994 -14971082 -15037308 -15153636 
3303.942 -15254609 -15272907 -15158371 -14897673 -14521956 -14103029 
3304.304 -13733684 -13493715 -13434095 -13557084 -13821059 -14151588 
3304.666 -14470072 -14720073 -14877919 -14957445 -14996242 -15037372 
3305.028 -15105412 -15197471 -15281385 -15311868 -15245268 -15060960 
3305.389 -14770580 -14418311 -14067648 -13780135 -13605159 -13563989 
3305.751 -13652072 -13845002 -14111754 -14421420 -14745215 -15057568 
3306.113 -15328821 -15523949 -15608311 -15552977 -15347212 -15004500 
3306.475 -14563771 -14078458 -13601305 -13176153 -12825836 -12556234 
3306.837 -12365081 -12251902 -12223844 -12293422 -12467704 -12735463 
3307.198 -13058234 -13376524 -13616655 -13718660 -13656054 -13446175 
3307.560 -13146966 -12838672 -12603262 -12494425 -12530128 -12691925 
3307.922 -12941311 -13234812 -13540993 -13847698 -14155244 -14465329 
3308.284 -14768788 -15037917 -15231960 -15309277 -15241173 -15027066 
3308.646 -14696562 -14304992 -13911272 -13565948 -13293430 -13089260 
3309.008 -12926388 -12771660 -12605128 -12429388 -12270810 -12166434 
3309.369 -12145749 -12209767 -12323827 -12419663 -12424108 -12280989 
3309.731 -11979461 -11562559 -11123359 -10776230 -10614881 -10690666 
3310.093 -10990117 -11446685 -11959606 -12435924 -12815510 -13082798 
3310.455 -13263254 -13404925 -13557052 -13748741 -13984847 -14245580 
3310.817 -14497889 -14700278 -14813365 -14805808 -14654279 -14352247 
3311.178 -13915380 -13389505 -12845813 -12375837 -12075311 -12013755 
3311.540 -12220494 -12668755 -13284015 -13954045 -14561304 -15017560 
3311.902 -15273995 -15334482 -15242165 -15063168 -14858996 -14671001 
3312.264 -14512054 -14366512 -14200077 -13974612 -13667324 -13280576 
3312.626 -12848934 -12430387 -12099672 -11924502 -11947228 -12175939 
3312.988 -12580151 -13099901 -13655957 -14175096 -14597445 -14886212 
3313.349 -15030619 -15042461 -14952707 -14804111 -14652357 -14555312 
3313.711 -14559509 -14690604 -14936700 -15244660 -15522255 -15666546 
3314.073 -15587086 -15233623 -14617085 -13809537 -12930955 -12109629 
3314.435 -11467920 -11088543 -11004783 -11205835 -11645435 -12257379 
3314.797 -12959000 -13666777 -14300953 -14792806 -15105189 -15239670 
3315.158 -15242517 -15188480 -15166178 -15243572 -15443248 -15735447 
3315.520 -16045682 -16283927 -16366195 -16248276 -15932182 -15463009 
3315.882 -14906574 -14333365 -13802957 -13353680 -13009488 -12784175 
3316.244 -12684749 -12713904 -12866208 -13126392 -13466926 -13852801 
3316.606 -14247280 -14613112 -14919316 -15139365 -15251858 -15245108 
3316.968 -15120389 -14899626 -14622595 -14347535 -14134847 -14029602 
3317.329 -14051353 -14187154 -14397957 -14632110 -14846284 -15017560 
3317.691 -15147109 -15253809 -15361317 -15486510 -15631421 -15785007 
3318.053 -15929976 -16052771 -16147375 -16217157 -16270874 -16318746 
3318.415 -16368749 -16426276 -16495120 -16577443 -16672410 -16773127 
3318.777 -16865566 -16928922 -16941384 -16888928 -16769588 -16595941 
3319.138 -16387638 -16164742 -15935024 -15690804 -15410534 -15070978 
3319.500 -14658763 -14182311 -13674065 -13188722 -12793376 -12548090 
3319.862 -12500768 -12672971 -13056658 -13612994 -14279312 -14981005 
3320.224 -15638068 -16187981 -16594473 -16853232 -16987714 -17037258 
3320.586 -17039202 -17011960 -16951834 -16838090 -16651142 -16389042 
3320.948 -16079338 -15774526 -15541916 -15435701 -15478868 -15654849 
3321.309 -15914613 -16189259 -16410707 -16530782 -16523030 -16382245 
3321.671 -16118737 -15753916 -15319321 -14855377 -14413439 -14043043 
3322.033 -13779653 -13632067 -13576257 -13562383 -13532707 -13451507 
3322.395 -13320584 -13187050 -13123080 -13204439 -13474699 -13924653 
3322.757 -14489172 -15066817 -15552626 -15859319 -15947800 -15827404 
3323.118 -15550868 -15191424 -14830017 -14538618 -14364172 -14327690 
3323.480 -14419368 -14604622 -14830722 -15045982 -15218331 -15346508 
3323.842 -15463200 -15619691 -15862161 -16199186 -16585352 -16919394 
3324.204 -17080648 -16958654 -16500702 -15734391 -14766769 -13753010 
3324.566 -12846746 -12177968 -11816559 -11774898 -12019557 -12492107 
3324.927 -13121602 -13830655 -14546981 -15198527 -15723815 -16087096 
3325.289 -16282236 -16336871 -16296981 -16211666 -16108552 -15986476 
3325.651 -15820662 -15585041 -15273836 -14916563 -14568417 -14291462 
3326.013 -14122434 -14051513 -14022577 -13956612 -13792974 -13514208 
3326.375 -13161945 -12816540 -12570268 -12480131 -12546996 -12714547 
3326.737 -12899371 -13023861 -13048813 -12986978 -12891554 -12828860 
3327.098 -12845138 -12953757 -13132821 -13344940 -13554194 -13745787 
3327.460 -13926418 -14115217 -14326856 -14560407 -14795688 -15001044 
3327.822 -15142821 -15196063 -15150724 -15010006 -14789412 -14512181 
3328.184 -14212777 -13932996 -13717601 -13609526 -13633930 -13789764 
3328.546 -14046540 -14354138 -14656008 -14907278 -15089028 -15205981 
3328.907 -15276458 -15314043 -15317274 -15266798 -15138373 -14918836 
3329.269 -14622339 -14293225 -13998771 -13802058 -13744728 -13831844 
3329.631 -14034158 -14299606 -14574729 -14823357 -15029563 -15195071 
3329.993 -15326582 -15426268 -15487885 -15501857 -15466590 -15396399 
3330.355 -15323672 -15292996 -15343182 -15496165 -15746631 -16065065 
3330.717 -16403176 -16710959 -16950688 -17100432 -17158466 -17136394 
3331.078 -17053348 -16926914 -16771151 -16595049 -16402697 -16197493 
3331.440 -15983665 -15768263 -15562664 -15380633 -15233719 -15127141 
3331.802 -15053663 -14992561 -14909872 -14769684 -14544225 -14224578 
3332.164 -13824943 -13380765 -12939253 -12541008 -12214663 -11971500 
3332.526 -11811465 -11734069 -11747067 -11866697 -12109468 -12474497 
3332.887 -12929604 -13401873 -13795349 -14012791 -13987382 -13714327 
3333.249 -13259976 -12751550 -12331556 -12130573 -12219978 -12595987 
3333.611 -13186246 -13879727 -14567680 -15167267 -15648361 -16026396 
3333.973 -16344465 -16643170 -16941318 -17225442 -17458490 -17593740 
3334.335 -17597972 -17465490 -17220856 -16909740 -16581589 -16278151 
3334.697 -16019657 -15805231 -15619658 -15443567 -15262415 -15070978 
3335.058 -14873693 -14679233 -14496671 -14330159 -14179008 -14037782 
3335.420 -13898436 -13751116 -13585666 -13392781 -13166414 -12906961 
3335.782 -12625887 -12348980 -12112304 -11959928 -11934978 -12066642 
3336.144 -12366177 -12820465 -13394130 -14027228 -14646013 -15171939 
3336.506 -15527178 -15656415 -15538463 -15197407 -14701079 -14155052 
3336.867 -13683441 -13390757 -13347543 -13567747 -14010706 -14594401 
3337.229 -15225625 -15828840 -16357420 -16800128 -17167512 -17473002 
3337.591 -17717464 -17883000 -17939630 -17863572 -17651106 -17330870 
3337.953 -16956964 -16601108 -16326658 -16168062 -16124262 -16159602 
3338.315 -16219487 -16242500 -16178597 -15994653 -15677828 -15238358 
3338.677 -14710976 -14154378 -13637526 -13233912 -12997236 -12942566 
3339.038 -13038428 -13212828 -13378484 -13456872 -13415528 -13277556 
3339.400 -13117391 -13026305 -13082187 -13315764 -13698338 -14150177 
3339.762 -14570916 -14882145 -15045534 -15077186 -15031450 -14980557 
3340.124 -14979661 -15053279 -15190720 -15359461 -15520144 -15641009 
3340.486 -15705984 -15709084 -15647274 -15515189 -15303488 -15007573 
3340.847 -14636147 -14220890 -13814639 -13481380 -13285493 -13268975 
3341.209 -13441131 -13771082 -14196230 -14629739 -14978636 -15171330 
3341.571 -15164834 -14960486 -14599400 -14157489 -13722930 -13374918 
3341.933 -13173100 -13140858 -13267368 -13514239 -13831490 -14166213 
3342.295 -14469784 -14703705 -14832931 -14827359 -14666676 -14346893 
3342.656 -13890831 -13348957 -12799554 -12325565 -11994384 -11841838 
3343.018 -11861184 -12009823 -12226389 -12459783 -12680212 -12888370 
3343.380 -13105335 -13355576 -13649631 -13975863 -14304511 -14602795 
3343.742 -14852240 -15056063 -15237270 -15424925 -15636886 -15866347 
3344.104 -16080424 -16231362 -16279044 -16205985 -16029526 -15793825 
3344.466 -15559147 -15377659 -15277098 -15256817 -15291588 -15345613 
3344.827 -15384790 -15390803 -15361700 -15309085 -15248307 -15192416 
3345.189 -15147716 -15113764 -15087780 -15068674 -15059232 -15065281 
3345.551 -15091524 -15136740 -15189280 -15227577 -15221626 -15138277 
3345.913 -14952003 -14649922 -14238718 -13744182 -13211156 -12696045 
3346.275 -12255509 -11946712 -11816463 -11897518 -12208864 -12749941 
3346.636 -13497634 -14401516 -15390036 -16369801 -17237066 -17902334 
3346.998 -18294678 -18381044 -18168766 -17702704 -17051500 -16290598 
3347.360 -15496901 -14732436 -14046572 -13477623 -13050131 -12775681 
3347.722 -12645455 -12630168 -12677959 -12725520 -12720532 -12634899 
3348.084 -12483318 -12320251 -12232317 -12304888 -12593380 -13102891 
3348.446 -13781354 -14531312 -15236023 -15803505 -16184215 -16387638 
3348.807 -16467845 -16503191 -16559295 -16661696 -16788940 -16881278 
3349.169 -16870250 -16704997 -16382564 -15953198 -15511864 -15159523 
3349.531 -14976395 -14988911 -15160675 -15401036 -15596804 -15654689 
3349.893 -15522446 -15208061 -14767987 -14287422 -13843429 -13483115 
3350.255 -13216042 -13021128 -12865501 -12727161 -12608862 -12539592 
3350.616 -12563188 -12716317 -13015565 -13444087 -13956645 -14485006 
3350.978 -14959429 -15323128 -15540318 -15603676 -15531430 -15362147 
3351.340 -15141861 -14918612 -14731603 -14601867 -14533139 -14512886 
3351.702 -14521218 -14537625 -14549737 -14552653 -14543328 -14512054 
3352.064 -14436228 -14281203 -14015615 -13627187 -13143365 -12632839 
3352.426 -12202357 -11966375 -12005762 -12345565 -12936680 -13672492 
3352.787 -14411131 -15027450 -15441361 -15630718 -15625890 -15486862 
3353.149 -15278953 -15048767 -14827520 -14638453 -14506990 -14471418 
3353.511 -14572422 -14835268 -15248819 -15754428 -16253065 -16620943 
3353.873 -16756615 -16605699 -16182523 -15562440 -14863511 -14209474 
3354.235 -13689060 -13346001 -13169886 -13114722 -13116394 -13119705 
3354.596 -13093279 -13030742 -12947583 -12870229 -12827124 -12838061 
3354.958 -12913716 -13054536 -13252231 -13490857 -13747585 -13996526 
3355.320 -14207261 -14352183 -14412734 -14384142 -14281363 -14137957 
3355.682 -14003969 -13930429 -13959564 -14112202 -14379431 -14723532 
3356.044 -15086467 -15410279 -15647657 -15779765 -15818873 -15803985 
3356.406 -15783025 -15795358 -15858041 -15957860 -16056508 -16101688 
3356.767 -16049931 -15879476 -15603005 -15263855 -14930842 -14675901 
3357.129 -14552557 -14585751 -14763887 -15046078 -15372606 -15687352 
3357.491 -15949843 -16143480 -16275534 -16366897 -16436899 -16488930 
3357.853 -16504370 -16445896 -16273843 -15959362 -15503296 -14939549 
3358.215 -14333749 -13762383 -13294524 -12978295 -12828732 -12834651 
3358.576 -12967168 -13194797 -13488159 -13822921 -14177854 -14526121 
3358.938 -14835141 -15069730 -15194719 -15186368 -15036828 -14757129 
3359.300 -14374718 -13931649 -13482473 -13085434 -12803446 -12694693 
3359.662 -12799070 -13130346 -13663759 -14338174 -15055807 -15708124 
3360.024 -16198803 -16459869 -16472980 -16268576 -15919149 -15512791 
3360.385 -15140325 -14875454 -14758378 -14797001 -14964583 -15211068 
3360.747 -15467229 -15664628 -15750561 -15697546 -15513111 -15235350 
3361.109 -14926392 -14650403 -14463086 -14401387 -14478501 -14689547 
3361.471 -15016567 -15434710 -15907459 -16384989 -16804336 -17086924 
3361.833 -17159802 -16975382 -16529601 -15871521 -15097316 -14329550 
3362.195 -13673167 -13198172 -12919826 -12808626 -12811070 -12880522 
3362.556 -12998844 -13177310 -13442930 -13813099 -14272834 -14769140 
3362.918 -15220410 -15540190 -15674537 -15615695 -15406729 -15118725 
3363.280 -14833732 -14617694 -14507086 -14512437 -14624325 -14823165 
3363.642 -15082818 -15373117 -15655935 -15881361 -15998038 -15960416 
3364.004 -15744170 -15358118 -14847244 -14284826 -13748901 -13311683 
3364.365 -13018942 -12884093 -12895769 -13026820 -13247121 -13529688 
3364.727 -13855208 -14207261 -14566271 -14908079 -15200255 -15407177 
3365.089 -15499715 -15461154 -15296835 -15036028 -14734549 -14462156 
3365.451 -14288224 -14268378 -14421260 -14720393 -15092611 -15439474 
3365.813 -15654465 -15651813 -15393042 -14890726 -14207165 -13431269 
3366.175 -12666116 -12000573 -11495510 -11186622 -11083375 -11177710 
3366.536 -11448202 -11864375 -12382793 -12946264 -13494936 -13969800 
3366.898 -14330544 -14569923 -14715685 -14822780 -14948033 -15132133 
3367.260 -15377211 -15646921 -15876761 -16002093 -15980376 -15807275 
3367.622 -15517843 -15175234 -14846988 -14577516 -14379687 -14233203 
3367.984 -14102067 -13952794 -13774388 -13583482 -13421182 -13334048 
3368.345 -13358050 -13506628 -13765561 -14098314 -14455298 -14789412 
3368.707 -15057728 -15227256 -15276010 -15190655 -14969481 -14624645 
3369.069 -14184557 -13691307 -13195085 -12751550 -12408908 -12208606 
3369.431 -12181770 -12346049 -12704250 -13238990 -13910277 -14649825 
3369.793 -15369120 -15977630 -16394082 -16575051 -16524561 -16295161 
3370.155 -15965814 -15619179 -15316091 -15076386 -14884611 -14705915 
3370.516 -14512630 -14300535 -14095523 -13939157 -13871864 -13908833 
3370.878 -14031944 -14192509 -14332467 -14404112 -14385296 -14283351 
3371.240 -14127726 -13955617 -13797307 -13676410 -13612897 -13628664 
3371.602 -13752624 -14012407 -14418439 -14948097 -15538975 -16096644 
3371.964 -16510526 -16694348 -16605731 -16262097 -15731741 -15118789 
3372.325 -14534132 -14062773 -13760393 -13643595 -13699044 -13891087 
3372.687 -14172723 -14492121 -14793094 -15027578 -15160835 -15179234 
3373.049 -15094276 -14938397 -14753318 -14572070 -14410875 -14263825 
3373.411 -14112330 -13939863 -13750345 -13575582 -13476948 -13524517 
3373.773 -13777502 -14263760 -14966344 -15822452 -16733086 -17591862 
3374.135 -18293438 -18758232 -18945862 -18853770 -18516452 -17990304 
3374.496 -17345388 -16642310 -15923684 -15213020 -14517757 -13845355 
3374.858 -13218452 -12679697 -12292262 -12119618 -12196977 -12511971 
3375.220 -12992091 -13522429 -13964185 -14206940 -14200527 -13969928 
3375.582 -13604966 -13231469 -12973696 -12909373 -13058427 -13381826 
3375.944 -13808028 -14254013 -14655080 -14979661 -15224026 -15403595 
3376.305 -15537089 -15636470 -15701700 -15723655 -15690356 -15595781 
3376.667 -15443759 -15251666 -15045822 -14860309 -14728080 -14672602 
3377.029 -14703481 -14811764 -14971594 -15144421 -15290949 -15380761 
3377.391 -15398734 -15348363 -15246804 -15116389 -14974635 -14830370 
3377.753 -14682853 -14526825 -14357632 -14175641 -13985681 -13794450 
3378.115 -13605962 -13420539 -13236772 -13056819 -12892359 -12767895 
3378.476 -12714965 -12767348 -12949641 -13267368 -13703443 -14219767 
3378.838 -14766322 -15286087 -15729215 -16060660 -16262928 -16340604 
3379.200 -16316576 -16229222 -16119599 -16024927 -15970347 -15962301 
3379.562 -15992640 -16045012 -16105551 -16168380 -16239341 -16329851 
3379.924 -16448449 -16591508 -16740609 -16865630 -16938770 -16945016 
3380.285 -16890618 -16800734 -16711565 -16655829 -16650377 -16694730 
3380.647 -16775774 -16879174 -16996698 -17129450 -17280468 -17444008 
3381.009 -17597972 -17703850 -17717114 -17609298 -17382508 -17077240 
3381.371 -16758304 -16499043 -16349986 -16319990 -16373791 -16446151 
3381.733 -16470779 -16401134 -16229957 -15985008 -15713813 -15455910 
3382.094 -15227929 -15017208 -14794407 -14531055 -14221531 -13890734 
3382.456 -13591864 -13385585 -13314896 -13391367 -13587143 -13845740 
3382.818 -14097416 -14288929 -14394464 -14422221 -14404369 -14383341 
3383.180 -14393117 -14446548 -14533362 -14624582 -14685703 -14684838 
3383.542 -14604879 -14446388 -14227944 -13978912 -13734968 -13532322 
3383.904 -13398307 -13350370 -13392074 -13513790 -13694582 -13908288 
3384.265 -14131446 -14346893 -14548680 -14739706 -14926263 -15109125 
3384.627 -15277642 -15407433 -15467805 -15431352 -15287750 -15052959 
3384.989 -14772695 -14514489 -14346284 -14324132 -14470585 -14768243 
3385.351 -15159331 -15561640 -15885992 -16050249 -16005639 -15743468 
3385.713 -15301793 -14752101 -14190618 -13713941 -13392267 -13263801 
3386.074 -13323347 -13530748 -13822439 -14136097 -14430972 -14697267 
3386.436 -14957028 -15248051 -15600863 -16016018 -16452501 -16832768 
3386.798 -17071664 -17097946 -16888736 -16478021 -15953070 -15422462 
3387.160 -14980204 -14685639 -14546180 -14526858 -14566911 -14607313 
3387.522 -14602347 -14526602 -14374718 -14154956 -13884894 -13589327 
3387.884 -13304709 -13076849 -12952439 -12971252 -13147769 -13463264 
3388.245 -13863809 -14279312 -14640055 -14898922 -15046302 -15105925 
3388.607 -15120260 -15125925 -15136389 -15131269 -15067073 -14890502 
3388.969 -14568320 -14104023 -13547706 -12984051 -12515899 -12242947 
3389.331 -12228290 -12490047 -12991190 -13651880 -14357952 -14988367 
3389.693 -15446317 -15671276 -15658014 -15452585 -15143428 -14828480 
3390.054 -14591006 -14479238 -14492025 -14584277 -14682500 -14716069 
3390.416 -14631053 -14409432 -14069252 -13658237 -13236965 -12862251 
3390.778 -12580988 -12421177 -12391681 -12486280 -12686487 -12964628 
3391.140 -13285782 -13615755 -13921444 -14176603 -14364717 -14477379 
3391.502 -14512085 -14468919 -14347887 -14149696 -13877802 -13543113 
3391.864 -13164002 -12766383 -12379959 -12029966 -11735295 -11505900 
3392.225 -11344208 -11249231 -11219203 -11252073 -11342852 -11479989 
3392.587 -11644629 -11811174 -11956156 -12065417 -12140240 -12196461 
3392.949 -12259408 -12352103 -12483802 -12646228 -12817505 -12974275 
3393.311 -13103630 -13213792 -13331926 -13496284 -13736157 -14056261 
3393.673 -14427574 -14793606 -15085475 -15243572 -15243701 -15104420 
3394.034 -14885571 -14663985 -14516892 -14492121 -14596260 -14796137 
3394.396 -15034172 -15249843 -15391379 -15430329 -15357606 -15178530 
3394.758 -14904685 -14551692 -14139657 -13694710 -13255220 -12869264 
3395.120 -12583563 -12436923 -12442847 -12583144 -12807403 -13049359 
3395.482 -13245611 -13354033 -13370998 -13330127 -13291856 -13316374 
3395.844 -13447587 -13694164 -14030500 -14404529 -14758763 -15051231 
3396.205 -15261647 -15396751 -15478868 -15535266 -15585328 -15637014 
3396.567 -15690165 -15742572 -15797468 -15865101 -15957061 -16080583 
3396.929 -16228519 -16379725 -16499139 -16550971 -16508676 -16362367 
3397.291 -16121930 -15812932 -15471131 -15131525 -14826078 -14580688 
3397.653 -14412189 -14330287 -14333397 -14407638 -14524519 -14645757 
3398.014 -14732083 -14749571 -14681859 -14532882 -14325286 -14090840 
3398.376 -13862750 -13668125 -13522686 -13435349 -13411897 -13458028 
3398.738 -13578184 -13769862 -14018534 -14293322 -14554735 -14765264 
3399.100 -14901516 -14966632 -14990448 -15020505 -15099877 -15253842 
3399.462 -15477621 -15742540 -16007682 -16240904 -16432593 -16594442 
3399.823 -16748324 -16906518 -17055164 -17152224 -17139992 -16968118 
3400.185 -16624324 -16148811 -15634425 -15194175 -14938589 -14933819 
3400.547 -15180833 -15613649 -16120078 -16578240 -16880610 -16970634 
3400.909 -16848258 -16564431 -16196696 -15828459 -15526890 -15325014 
3401.271 -15224409 -15199870 -15217274 -15243668 -15261999 -15273836 
3401.633 -15295875 -15349482 -15448300 -15589484 -15751807 -15901485 
3401.994 -16003946 -16040701 -16017422 -15964663 -15924802 -15938409 
3402.356 -16022978 -16163433 -16312394 -16406622 -16389521 -16228361 
3402.718 -15928827 -15532070 -15103333 -14705082 -14382700 -14150177 
3403.080 -13990751 -13866409 -13736349 -13574972 -13379384 -13171299 
3403.442 -12986463 -12863410 -12824904 -12869231 -12966782 -13069873 
3403.803 -13122309 -13076303 -12908988 -12629331 -12280280 -11923824 
3404.165 -11633177 -11468920 -11462821 -11613016 -11883752 -12216629 
3404.527 -12542199 -12804250 -12967071 -13023701 -12992412 -12909888 
3404.889 -12818052 -12750135 -12726163 -12748944 -12809269 -12892809 
3405.251 -12988682 -13094789 -13217649 -13368267 -13555157 -13778144 
3405.613 -14025046 -14274181 -14500260 -14685350 -14823228 -14921334 
3405.974 -14994065 -15055455 -15108708 -15143173 -15137861 -15073026 
3406.336 -14941278 -14756009 -14548038 -14357952 -14220921 -14153705 
3406.698 -14152999 -14202387 -14287455 -14407124 -14578574 -14825918 
3407.060 -15161827 -15565253 -15972488 -16279779 -16379373 -16191907 
3407.422 -15701989 -14972010 -14136001 -13365953 -12811488 -12574003 
3407.783 -12671201 -13043090 -13569738 -14116853 -14574473 -14874365 
3408.145 -15006165 -15004500 -14932890 -14855346 -14825918 -14875550 
3408.507 -15009558 -15211804 -15451689 -15695438 -15912218 -16084703 
3408.869 -16214764 -16321808 -16436452 -16588001 -16794070 -17049460 
3409.231 -17327274 -17585944 -17787184 -17907548 -17948562 -17933428 
3409.593 -17896864 -17866434 -17847164 -17816254 -17729998 -17540090 
3409.954 -17212098 -16743893 -16170010 -15557420 -14981166 -14511188 
3410.316 -14192125 -14035312 -14024726 -14128720 -14315733 -14559253 
3410.678 -14842922 -15153476 -15470427 -15762320 -15985806 -16093994 
3411.040 -16053826 -15858456 -15536386 -15144484 -14759468 -14454208 
3411.402 -14274438 -14232209 -14300888 -14428631 -14549833 -14607825 
3411.763 -14564572 -14404945 -14136258 -13783505 -13386195 -12990355 
3412.125 -12650283 -12420823 -12344696 -12445842 -12715995 -13114690 
3412.487 -13570541 -14005092 -14354555 -14586328 -14710368 -14770773 
3412.849 -14826911 -14923062 -15073858 -15255953 -15422271 -15519537 
3413.211 -15513207 -15400973 -15210172 -14981453 -14746913 -14516700 
3413.573 -14273892 -13987382 -13632229 -13211317 -12765385 -12368753 
3413.934 -12102733 -12037798 -12206899 -12595923 -13147287 -13776443 
3414.296 -14395169 -14918484 -15282888 -15446765 -15389844 -15115333 
3414.658 -14652132 -14057929 -13410034 -12804089 -12334325 -12068994 
3415.020 -12043116 -12246716 -12635510 -13142143 -13701645 -14265075 
3415.382 -14801517 -15294787 -15729152 -16078029 -16307415 -16383586 
3415.743 -16293662 -16060021 -15746918 -15445902 -15243605 -15199263 
3416.105 -15317018 -15546615 -15797019 -15976353 -16022436 -15922343 
3416.467 -15712535 -15458980 -15226521 -15047582 -14915315 -14790501 
3416.829 -14627689 -14397669 -14107294 -13796248 -13525224 -13346289 
3417.191 -13285171 -13333533 -13457417 -13613411 -13767712 -13909892 
3417.552 -14050390 -14210757 -14406868 -14639158 -14887652 -15121060 
3417.914 -15305247 -15416930 -15449291 -15411142 -15319673 -15194559 
3418.276 -15053215 -14907407 -14766161 -14638005 -14531376 -14455714 
3418.638 -14420042 -14429914 -14487057 -14587289 -14719048 -14860309 
3419.000 -14980589 -15042781 -15007157 -14846892 -14555761 -14158997 
3419.362 -13709864 -13286200 -12970931 -12827703 -12890783 -13151049 
3419.723 -13561227 -14042113 -14507791 -14882754 -15114373 -15185633 
3420.085 -15113189 -14944031 -14738938 -14564861 -14476642 -14501382 
3420.447 -14634545 -14838022 -15053920 -15216411 -15277098 -15218651 
3420.809 -15059616 -14844683 -14628298 -14457413 -14355645 -14325189 
3421.171 -14355196 -14437318 -14575723 -14791109 -15111716 -15561448 
3421.532 -16142236 -16826522 -17551324 -18232314 -18779112 -19112168 
3421.894 -19187372 -18997594 -18570804 -17955334 -17213852 -16414694 
3422.256 -15622887 -14903661 -14309256 -13870324 -13592410 -13454430 
3422.618 -13416233 -13428410 -13450061 -13454270 -13433935 -13400621 
3422.980 -13380990 -13410387 -13523136 -13747295 -14093694 -14549192 
3423.342 -15071457 -15594726 -16041500 -16335275 -16428350 -16312810 
3423.703 -16025087 -15627937 -15192735 -14772022 -14384335 -14021069 
3424.065 -13663374 -13305834 -12974018 -12725616 -12631842 -12756119 
3424.427 -13120670 -13692784 -14383244 -15077314 -15657693 -16038019 
3424.789 -16186642 -16123367 -15910430 -15626147 -15353416 -15156708 
3425.151 -15071874 -15104068 -15226456 -15387605 -15518961 -15557261 
3425.512 -15455847 -15197854 -14800012 -14307749 -13780937 -13273602 
3425.874 -12827767 -12466094 -12195334 -12015528 -11926081 -11927499 
3426.236 -12018203 -12190372 -12427360 -12705762 -13005404 -13313450 
3426.598 -13626128 -13943810 -14256995 -14537336 -14738265 -14801645 
3426.960 -14683109 -14373436 -13911978 -13379415 -12877466 -12501766 
3427.322 -12306563 -12298414 -12439756 -12675739 -12954722 -13250174 
3427.683 -13562769 -13907710 -14293578 -14706812 -15103173 -15421472 
3428.045 -15601247 -15600352 -15412166 -15066016 -14621441 -14148766 
3428.407 -13723026 -13411190 -13262740 -13311490 -13567650 -14016320 
3428.769 -14612824 -15288549 -15959937 -16532950 -16926692 -17078324 
3429.131 -16950624 -16538277 -15867401 -14998355 -14015422 -13030839 
3429.492 -12166177 -11527358 -11195147 -11197472 -11505739 -12037089 
3429.854 -12682271 -13331734 -13898596 -14342533 -14662287 -14883202 
3430.216 -15032955 -15126981 -15161219 -15120773 -14992593 -14781245 
3430.578 -14512855 -14233364 -13992996 -13832741 -13776476 -13826323 
3430.940 -13967746 -14175288 -14421067 -14674235 -14902957 -15077635 
3431.302 -15173026 -15177473 -15098468 -14964135 -14815351 -14689996 
3431.663 -14609972 -14567904 -14528332 -14438824 -14255520 -13960270 
3432.025 -13576129 -13161207 -12799264 -12570880 -12525782 -12670622 
3432.387 -12963952 -13334048 -13695866 -13983339 -14162364 -14233973 
3432.749 -14224994 -14174038 -14115538 -14067424 -14032457 -14003840 
3433.111 -13975318 -13950804 -13946120 -13983179 -14079164 -14233716 
3433.472 -14421869 -14594946 -14697651 -14683654 -14535029 -14271392 
3433.834 -13949039 -13646421 -13436859 -13374693 -13476563 -13721004 
3434.196 -14055619 -14417863 -14754022 -15028826 -15234359 -15384535 
3434.558 -15507707 -15633179 -15784431 -15973542 -16197206 -16438240 
3434.920 -16668042 -16854410 -16964580 -16975862 -16881756 -16695622 
3435.281 -16449342 -16187822 -15962811 -15816318 -15774174 -15837627 
3435.643 -15982484 -16160974 -16313033 -16384097 -16335370 -16160782 
3436.005 -15889507 -15583985 -15319641 -15162883 -15153316 -15288454 
3436.367 -15527498 -15805902 -16064044 -16263278 -16397849 -16485900 
3436.729 -16549535 -16590361 -16577890 -16451638 -16150152 -15644206 
3437.091 -14966504 -14215310 -13537685 -13093793 -12996271 -13284240 
3437.452 -13906427 -14746305 -15648425 -16470078 -17121710 -17570128 
3437.814 -17837338 -17973646 -18036428 -18065288 -18078670 -18074918 
3438.176 -18040848 -17957274 -17803086 -17559438 -17212990 -16764328 
3438.538 -16234521 -15673226 -15150180 -14738746 -14499331 -14452510 
3438.900 -14570019 -14776474 -14976843 -15081379 -15035964 -14841929 
3439.261 -14552653 -14256771 -14040060 -13964730 -14041471 -14229611 
3439.623 -14445201 -14591390 -14588154 -14391547 -14010353 -13502644 
3439.985 -12964016 -12494876 -12185669 -12093872 -12231962 -12570430 
3440.347 -13045051 -13577573 -14082211 -14487442 -14745408 -14833571 
3440.709 -14759916 -14558100 -14284666 -14002814 -13773683 -13641861 
3441.071 -13622981 -13704599 -13852127 -14027549 -14201136 -14365710 
3441.432 -14533619 -14724941 -14946625 -15177313 -15360708 -15425469 
3441.794 -15309149 -14989615 -14504074 -13950676 -13463906 -13165063 
3442.156 -13137386 -13392492 -13875940 -14483404 -15104420 -15656734 
3442.518 -16101625 -16450459 -16746603 -17043822 -17381140 -17774176 
3442.880 -18212362 -18667528 -19099136 -19461952 -19714194 -19816202 
3443.241 -19741898 -19486536 -19075640 -18564868 -18034838 -17581266 
3443.603 -17285434 -17200666 -17334308 -17646236 -18054958 -18460820 
3443.965 -18776224 -18932444 -18891778 -18642928 -18193010 -17565070 
3444.327 -16796654 -15946044 -15083107 -14286813 -13632967 -13174257 
3444.689 -12936969 -12915710 -13083023 -13397408 -13816116 -14304062 
3445.051 -14829025 -15361156 -15866091 -16299598 -16615300 -16772011 
3445.412 -16745837 -16541371 -16194716 -15768647 -15332563 -14953027 
3445.774 -14674299 -14510035 -14447798 -14458214 -14510195 -14580593 
3446.136 -14661678 -14755624 -14865143 -14983854 -15090340 -15152420 
3446.498 -15142084 -15049279 -14893224 -14718631 -14585238 -14543424 
3446.860 -14614970 -14785889 -15009846 -15224953 -15370303 -15408936 
3447.221 -15332786 -15159427 -14916531 -14631758 -14322721 -13998964 
3447.583 -13671594 -13363704 -13111315 -12964402 -12969933 -13158570 
3447.945 -13535823 -14079261 -14744095 -15468732 -16191270 -16846410 
3448.307 -17367960 -17694466 -17768770 -17557114 -17064338 -16344210 
3448.669 -15489419 -14606512 -13799458 -13142658 -12677991 -12418408 
3449.031 -12349623 -12438597 -12637120 -12892262 -13147320 -13349696 
3449.392 -13461562 -13460951 -13350563 -13156834 -12929379 -12728320 
3449.754 -12610825 -12623538 -12788550 -13104177 -13545972 -14075796 
3450.116 -14643675 -15193503 -15672874 -16032623 -16237648 -16274864 
3450.478 -16155036 -15912121 -15593863 -15254353 -14937788 -14675133 
3450.840 -14485102 -14376641 -14355645 -14425715 -14584277 -14815255 
3451.201 -15085731 -15351754 -15567906 -15706846 -15771681 -15796540 
3451.563 -15830215 -15910078 -16038051 -16170423 -16225487 -16113980 
3451.925 -15784176 -15246260 -14584181 -13923883 -13405214 -13124174 
3452.287 -13102891 -13285846 -13564374 -13820610 -13961907 -13956356 
3452.649 -13830046 -13651044 -13491595 -13409294 -13428120 -13541347 
3453.010 -13723669 -13946826 -14191227 -14444785 -14700374 -14947137 
3453.372 -15165379 -15328213 -15406985 -15377787 -15230296 -14970793 
3453.734 -14622531 -14219286 -13802025 -13407785 -13059841 -12763874 
3454.096 -12505693 -12259504 -11998639 -11713461 -11421834 -11173996 
3454.458 -11035892 -11073781 -11328585 -11796922 -12427070 -13130088 
3454.820 -13810724 -14382347 -14793799 -15033371 -15119621 -15085315 
3455.181 -14961191 -14770965 -14530671 -14259464 -13990686 -13770954 
3455.543 -13658461 -13707905 -13951093 -14387444 -14977260 -15652005 
3455.905 -16318139 -16881756 -17265376 -17415360 -17316542 -16992398 
3456.267 -16504530 -15934257 -15374589 -14909520 -14592512 -14443407 
3456.629 -14444785 -14553806 -14712482 -14865207 -14968553 -14990000 
3456.990 -14909712 -14716421 -14408439 -13998451 -13521305 -13038105 
3457.352 -12624986 -12365275 -12325373 -12533830 -12973793 -13586565 
3457.714 -14291687 -15002868 -15654657 -16210582 -16657552 -16997240 
3458.076 -17232864 -17362262 -17380788 -17289576 -17104666 -16858266 
3458.438 -16595080 -16356686 -16163817 -16009981 -15861811 -15675463 
3458.800 -15415044 -15075682 -14692046 -14336507 -14092701 -14034895 
3459.161 -14198379 -14563099 -15051679 -15547222 -15932724 -16110661 
3459.523 -16039807 -15741231 -15292484 -14795592 -14346637 -14009294 
3459.885 -13795253 -13669731 -13572660 -13454077 -13296869 -13133079 
3460.247 -13029231 -13065918 -13297190 -13721870 -14271487 -14826911 
3460.609 -15253298 -15435861 -15327989 -14964296 -14457349 -13953885 
3460.970 -13602108 -13503063 -13678561 -14069540 -14552685 -14985550 
3461.332 -15233463 -15217467 -14930585 -14439978 -13863231 -13341181 
3461.694 -13007076 -12945524 -13182197 -13678625 -14350836 -15086371 
3462.056 -15776826 -16347146 -16760249 -17024514 -17179008 -17279482 
3462.418 -17373404 -17485956 -17612574 -17723000 -17772044 -17717432 
3462.780 -17539484 -17248116 -16883160 -16498595 -16151525 -15883118 
3463.141 -15710425 -15630782 -15630078 -15696555 -15829705 -16041595 
3463.503 -16349634 -16762448 -17267222 -17822264 -18359096 -18802370 
3463.865 -19079920 -19144604 -18983226 -18612392 -18066940 -17384290 
3464.227 -16597472 -15732953 -14820154 -13903923 -13044151 -12316322 
3464.589 -11796213 -11536102 -11554105 -11824911 -12290394 -12869328 
3464.950 -13483180 -14073262 -14601322 -15050814 -15416578 -15694447 
3465.312 -15878933 -15963800 -15950643 -15852323 -15696844 -15520081 
3465.674 -15354120 -15219354 -15118469 -15039132 -14964039 -14884098 
3466.036 -14805872 -14751749 -14749154 -14813910 -14936444 -15077475 
3466.398 -15173186 -15155716 -14983309 -14657225 -14233556 -13805909 
3466.760 -13487580 -13365632 -13473704 -13779332 -14197031 -14617629 
3467.121 -14943487 -15130660 -15197567 -15219514 -15290054 -15491466 
3467.483 -15856348 -16357038 -16913850 -17427074 -17812692 -18019550 
3467.845 -18042500 -17908884 -17661762 -17338416 -16965026 -16561337 
3468.207 -16149929 -15769701 -15475223 -15320345 -15340911 -15532293 
3468.569 -15844880 -16188236 -16458178 -16566122 -16457828 -16132817 
3468.930 -15640626 -15067233 -14502889 -14028447 -13696926 -13527987 
3469.292 -13517099 -13642183 -13874817 -14181158 -14525352 -14869113 
3469.654 -15168034 -15379897 -15470299 -15420928 -15238774 -14956933 
3470.016 -14632238 -14327434 -14102323 -13995851 -14016160 -14140106 
3470.378 -14319676 -14497633 -14615835 -14634512 -14537112 -14334551 
3470.740 -14061265 -13772367 -13537268 -13424201 -13497024 -13799811 
3471.101 -14343463 -15098564 -15991554 -16919298 -17754838 -18382472 
3471.463 -18721674 -18739698 -18460376 -17956034 -17332050 -16694283 
3471.825 -16139522 -15738579 -15526379 -15507164 -15653603 -15914805 
3472.187 -16215146 -16468642 -16594825 -16529538 -16248628 -15774526 
3472.549 -15177313 -14551050 -13996814 -13596103 -13388058 -13369295 
3472.910 -13497217 -13709318 -13932129 -14100655 -14167624 -14103831 
3473.272 -13905464 -13593181 -13214628 -12832849 -12517959 -12329205 
3473.634 -12293422 -12398927 -12596792 -12822877 -13016626 -13146740 
3473.996 -13219867 -13271932 -13345390 -13464099 -13618871 -13770119 
3474.358 -13865510 -13866762 -13773073 -13626995 -13502644 -13471487 
3474.719 -13580881 -13828986 -14167912 -14514681 -14782078 -14904557 
3475.081 -14849294 -14623621 -14267191 -13844488 -13426675 -13087459 
3475.443 -12892713 -12885154 -13079260 -13450768 -13942077 -14466771 
3475.805 -14936188 -15284647 -15483377 -15551411 -15543930 -15536065 
3476.167 -15591625 -15748229 -16005734 -16332690 -16676843 -16983286 
3476.529 -17208628 -17321000 -17300272 -17135056 -16819508 -16356463 
3476.890 -15760403 -15061729 -14301946 -13531455 -12804540 -12169334 
3477.252 -11668015 -11333331 -11183362 -11219785 -11423609 -11757806 
3477.614 -12170204 -12608862 -13035855 -13434031 -13808028 -14172018 
3477.976 -14531729 -14869146 -15137381 -15269805 -15209180 -14929241 
3478.338 -14456708 -13865703 -13266854 -12769085 -12447581 -12333875 
3478.699 -12411678 -12635221 -12946811 -13298251 -13652232 -13977949 
3479.061 -14246478 -14423119 -14474751 -14382796 -14154987 -13831394 
3479.423 -13473543 -13152013 -12919698 -12797366 -12772432 -12809752 
3479.785 -12870390 -12928735 -12983408 -13054247 -13170624 -13354933 
3480.147 -13615017 -13939317 -14302748 -14671288 -15011094 -15291301 
3480.509 -15482673 -15561097 -15510010 -15324823 -15018968 -14625543 
3480.870 -14195941 -13786266 -13453916 -13246414 -13194507 -13314672 
3481.232 -13605416 -14048529 -14602507 -15205054 -15777338 -16228775 
3481.594 -16485773 -16506921 -16302789 -15935151 -15509945 -15143428 
3481.956 -14918067 -14861558 -14931994 -15042333 -15087684 -14993361 
3482.318 -14737017 -14352888 -13913197 -13502034 -13189204 -13006883 
3482.679 -12949931 -12986463 -13080579 -13207846 -13367335 -13577863 
3483.041 -13865895 -14247600 -14717029 -15242325 -15775580 -16267171 
3483.403 -16679680 -17004346 -17263402 -17502186 -17763682 -18069356 
3483.765 -18401084 -18708598 -18923562 -18988302 -18874676 -18589854 
3484.127 -18173660 -17684062 -17183818 -16717590 -16305406 -15944861 
3484.489 -15621097 -15321016 -15044157 -14805456 -14629900 -14539996 
3484.850 -14543200 -14626792 -14759371 -14899306 -15004404 -15046109 
3485.212 -15014007 -14917588 -14779324 -14629386 -14495581 -14395169 
3485.574 -14333749 -14305762 -14300792 -14311725 -14342533 -14410394 
3485.936 -14545122 -14775993 -15118660 -15561352 -16061202 -16546441 
3486.298 -16931760 -17147860 -17153720 -16951866 -16581876 -16107468 
3486.659 -15592136 -15079362 -14591550 -14132697 -13705272 -13326721 
3487.021 -13033089 -12874796 -12898630 -13122019 -13521980 -14032040 
3487.383 -14565950 -15032827 -15369568 -15557549 -15623878 -15629727 
3487.745 -15647657 -15743276 -15951281 -16271608 -16672762 -17107502 
3488.107 -17523574 -17874700 -18128122 -18259096 -18248994 -18084326 
3488.469 -17757066 -17272602 -16657010 -15965845 -15277642 -14684358 
3488.830 -14277259 -14118007 -14229644 -14587481 -15129413 -15763503 
3489.192 -16387988 -16915316 -17274640 -17425960 -17360446 -17097628 
3489.554 -16681530 -16176490 -15667185 -15240598 -14976299 -14924470 
3489.916 -15085315 -15402988 -15773792 -16085118 -16240425 -16201228 
3490.278 -15996410 -15712278 -15451466 -15288197 -15238518 -15250962 
3490.639 -15230520 -15078018 -14742365 -14240771 -13659907 -13115751 
3491.001 -12723654 -12555140 -12622798 -12893903 -13315153 -13841568 
3491.363 -14446452 -15120933 -15854718 -16615108 -17343700 -17960834 
3491.725 -18388666 -18584108 -18548996 -18332732 -18006930 -17644708 
3492.087 -17291326 -16956996 -16626077 -16276939 -15903465 -15525388 
3492.448 -15183233 -14923126 -14776474 -14743806 -14793063 -14869850 
3492.810 -14920789 -14906510 -14818105 -14676830 -14528012 -14423504 
3493.172 -14404978 -14493082 -14679041 -14926936 -15179361 -15377243 
3493.534 -15467901 -15419329 -15226712 -14910609 -14510707 -14072845 
3493.896 -13645264 -13269682 -12980739 -12811939 -12793440 -12951602 
3494.258 -13302910 -13843236 -14541342 -15334162 -16142044 -16873662 
3494.619 -17448430 -17815330 -17955812 -17887866 -17656576 -17327592 
3494.981 -16970060 -16644860 -16397560 -16244479 -16169466 -16121835 
3495.343 -16032973 -15828459 -15456454 -14911729 -14245677 -13559364 
3495.705 -12971413 -12594667 -12492462 -12663220 -13040742 -13520824 
3496.067 -13992258 -14364365 -14594465 -14683236 -14665427 -14585591 
3496.428 -14485166 -14388951 -14303549 -14222332 -14130933 -14010513 
3496.790 -13837268 -13587561 -13241915 -12796110 -12271261 -11720427 
3497.152 -11225888 -10875318 -10748045 -10888179 -11294043 -11921761 
3497.514 -12702287 -13566623 -14452061 -15313531 -16113246 -16804654 
3497.876 -17329852 -17623456 -17633510 -17351564 -16828530 -16172148 
3498.238 -15509658 -14965639 -14621538 -14497889 -14558773 -14728753 
3498.599 -14922421 -15067969 -15133125 -15125477 -15080770 -15037020 
3498.961 -15016504 -15012918 -14995762 -14922934 -14762222 -14508592 
3499.323 -14190136 -13862686 -13592217 -13440168 -13438754 -13583032 
3499.685 -13826547 -14096550 -14306467 -14378340 -14268987 -13979200 
3500.047 -13561676 -13103085 -12713227 -12488244 -12481548 -12692569 
3500.408 -13063249 -13498437 -13890414 -14162300 -14285755 -14289763 
3500.770 -14241476 -14222301 -14292264 -14465617 -14706139 -14941598 
3501.132 -15099172 -15129029 -15030202 -14845835 -14648127 -14503689 
3501.494 -14455009 -14510451 -14650274 -14841673 -15056576 -15281608 
3501.856 -15513910 -15748868 -15966963 -16123718 -16159091 -16016847 
3502.218 -15664948 -15118021 -14440042 -13737023 -13121474 -12690220 
3502.579 -12500864 -12558456 -12821526 -13215399 -13658108 -14069797 
3502.941 -14392412 -14596003 -14675549 -14646910 -14538266 -14384206 
3503.303 -14216977 -14065884 -13958024 -13917144 -13966687 -14126635 
3503.665 -14406580 -14799115 -15273259 -15777081 -16243776 -16612619 
3504.027 -16847304 -16948392 -16956902 -16942116 -16984846 -17141682 
3504.388 -17426214 -17790938 -18140736 -18348742 -18308718 -17981370 
3504.750 -17410648 -16710386 -16017167 -15459811 -15120837 -15037052 
3505.112 -15204029 -15584273 -16112160 -16696740 -17240408 -17641878 
3505.474 -17821342 -17743006 -17421884 -16922008 -16330712 -15739601 
3505.836 -15211324 -14771029 -14409432 -14098218 -13810178 -13537493 
3506.198 -13298026 -13129510 -13071384 -13144812 -13344137 -13635214 
3506.559 -13967329 -14279247 -14516700 -14643963 -14647263 -14539932 
3506.921 -14359203 -14163775 -14016417 -13975703 -14077015 -14318265 
3507.283 -14653382 -14999347 -15262607 -15356614 -15235159 -14906830 
3507.645 -14435875 -13923113 -13478715 -13200679 -13144523 -13320777 
3508.007 -13694421 -14200430 -14751269 -15253905 -15630782 -15823314 
3508.368 -15808331 -15602270 -15262447 -14872444 -14521603 -14285371 
3508.730 -14195428 -14233460 -14334647 -14416933 -14404689 -14259400 
3509.092 -13992804 -13661255 -13343237 -13105335 -12985016 -12975304 
3509.454 -13035212 -13106588 -13145037 -13136486 -13106331 -13108003 
3509.816 -13205692 -13447844 -13842146 -14342373 -14849934 -15242549 
3510.177 -15399437 -15253969 -14823324 -14218164 -13611645 -13196790 
3510.539 -13150084 -13573623 -14474879 -15743691 -17178468 -18510386 
3510.901 -19493538 -19995370 -20020178 -19681388 -19121174 -18459580 
3511.263 -17761170 -17048664 -16334191 -15640657 -15016119 -14528204 
3511.625 -14236570 -14173140 -14325029 -14641240 -15044157 -15457541 
3511.987 -15829992 -16137606 -16381001 -16569853 -16707484 -16785242 
3512.348 -16787950 -16704934 -16540574 -16315937 -16060850 -15796956 
3512.710 -15528648 -15239893 -14905870 -14511445 -14071786 -13637847 
3513.072 -13291406 -13114433 -13162396 -13445243 -13921701 -14509842 
3513.434 -15108164 -15631836 -16024703 -16273554 -16401198 -16450841 
3513.796 -16463602 -16461274 -16441366 -16380362 -16246522 -16012952 
3514.157 -15672043 -15240502 -14760461 -14287711 -13886274 -13614407 
3514.519 -13510481 -13590162 -13839481 -14219319 -14662928 -15089571 
3514.881 -15415811 -15564454 -15488268 -15178625 -14672250 -14041279 
3515.243 -13382854 -12798362 -12365081 -12131701 -12109693 -12280087 
3515.605 -12603615 -13032285 -13518254 -14010963 -14463310 -14833475 
3515.967 -15088867 -15217659 -15231864 -15166019 -15061184 -14950882 
3516.328 -14842025 -14710335 -14509105 -14196133 -13763731 -13259687 
3516.690 -12784979 -12466416 -12424043 -12715706 -13316824 -14115506 
3517.052 -14957189 -15676837 -16152451 -16339231 -16265512 -16014900 
3517.414 -15684219 -15360452 -15093859 -14898410 -14764016 -14670680 
3517.776 -14598150 -14526249 -14434433 -14297394 -14090231 -13800452 
3518.137 -13440809 -13057623 -12722109 -12520825 -12523592 -12760913 
3518.499 -13211607 -13806423 -14445779 -15020568 -15451050 -15701445 
3518.861 -15790407 -15776826 -15741294 -15755674 -15857305 -16042203 
3519.223 -16265033 -16460411 -16558466 -16515598 -16327647 -16032781 
3519.585 -15695086 -15384663 -15152516 -15012374 -14942398 -14899274 
3519.947 -14844939 -14763279 -14670327 -14604013 -14607057 -14700662 
3520.308 -14871515 -15072034 -15244149 -15343118 -15356774 -15308542 
3520.670 -15241973 -15197471 -15190464 -15207453 -15213468 -15174114 
3521.032 -15070369 -14911121 -14727407 -14560503 -14442638 -14389464 
3521.394 -14402477 -14478084 -14617981 -14830017 -15118212 -15469244 
3521.756 -15840150 -16165413 -16368654 -16395072 -16237298 -15946586 
3522.117 -15619850 -15366402 -15278857 -15395536 -15694702 -16103731 
3522.479 -16532632 -16896320 -17140342 -17250250 -17242162 -17149612 
3522.841 -17008392 -16853040 -16712425 -16609080 -16558116 -16558371 
3523.203 -16590009 -16613321 -16583567 -16466154 -16256545 -15987914 
3523.565 -15729055 -15561961 -15550772 -15728768 -16086362 -16582673 
3523.927 -17159390 -17765716 -18369768 -18959756 -19535100 -20090512 
3524.288 -20604010 -21037424 -21344212 -21484534 -21440980 -21218802 
3524.650 -20840398 -20332364 -19721414 -19033274 -18301030 -17574616 
3525.012 -16914296 -16383808 -16035177 -15885960 -15911674 -16044598 
3525.374 -16198484 -16288109 -16263373 -16121419 -15894394 -15623686 
3525.736 -15335122 -15031450 -14697876 -14316918 -13885471 -13422146 
3526.097 -12967844 -12573133 -12278863 -12106600 -12053589 -12102798 
3526.459 -12233863 -12437019 -12717057 -13088295 -13563571 -14140427 
3526.821 -14786529 -15438675 -16006086 -16393477 -16537480 -16426085 
3527.183 -16103763 -15647274 -15145668 -14673595 -14276586 -13975767 
3527.545 -13767872 -13637719 -13569898 -13560552 -13622466 -13784307 
3527.906 -14079357 -14537464 -15172610 -15978269 -16920508 -17935812 
3528.268 -18936348 -19803888 -20413490 -20661958 -20490396 -19909230 
3528.630 -18996706 -17892222 -16761236 -15782962 -15116964 -14856530 
3528.992 -15011799 -15494375 -16148429 -16777272 -17206972 -17331952 
3529.354 -17130246 -16671518 -16086970 -15534019 -15133765 -14948897 
3529.716 -14974987 -15162083 -15439794 -15747014 -16050121 -16339933 
3530.077 -16625376 -16917324 -17214072 -17493500 -17714124 -17823630 
3530.439 -17783368 -17584830 -17257668 -16853932 -16431253 -16034858 
3530.801 -15688822 -15402731 -15176865 -15009206 -14899755 -14850831 
3531.163 -14864087 -14937084 -15060704 -15220698 -15400749 -15591721 
3531.525 -15795549 -16026843 -16304735 -16642660 -17032194 -17437164 
3531.886 -17787058 -17993418 -17976792 -17689630 -17146108 -16425127 
3532.248 -15660953 -14994353 -14544385 -14378020 -14495806 -14839976 
3532.610 -15309374 -15793856 -16184630 -16404741 -16420374 -16238606 
3532.972 -15899440 -15459236 -14981901 -14522948 -14127598 -13828859 
3533.334 -13642247 -13566975 -13583643 -13660324 -13754454 -13824718 
3533.696 -13842948 -13800004 -13713781 -13625036 -13592634 -13672397 
3534.057 -13901806 -14285179 -14786690 -15333075 -15826093 -16173968 
3534.419 -16304735 -16190024 -15850469 -15352329 -14789348 -14256802 
3534.781 -13840316 -13590869 -13521370 -13610200 -13813484 -14077047 
3535.143 -14347984 -14588699 -14776121 -14903853 -14976940 -15006421 
3535.505 -15004148 -14979500 -14941534 -14901323 -14875038 -14887076 
3535.866 -14962630 -15122917 -15372638 -15693488 -16039455 -16342711 
3536.228 -16534131 -16554702 -16378671 -16021637 -15542619 -15029178 
3536.590 -14574281 -14262927 -14145430 -14230702 -14486512 -14853649 
3536.952 -15259216 -15635671 -15942562 -16171126 -16349252 -16530111 
3537.314 -16780874 -17158146 -17686894 -18343056 -19048780 -19685346 
3537.676 -20116864 -20244932 -20038182 -19543620 -18857926 -18094688 
3538.037 -17345388 -16657360 -16042266 -15486286 -14970058 -14479847 
3538.399 -14012695 -13570251 -13151145 -12744665 -12334197 -11907705 
3538.761 -11473276 -11069163 -10763948 -10633893 -10746234 -11127073 
3539.123 -11747228 -12518378 -13317178 -14021935 -14534933 -14815415 
3539.485 -14880545 -14797450 -14654567 -14542527 -14531665 -14653222 
3539.846 -14900203 -15228665 -15573340 -15853249 -15993152 -15940614 
3540.208 -15674919 -15217979 -14630252 -14003584 -13431976 -12995628 
3540.570 -12740386 -12666921 -12735913 -12883095 -13047912 -13186118 
3540.932 -13287196 -13369842 -13472194 -13630269 -13863937 -14168939 
3541.294 -14519905 -14881601 -15220154 -15515509 -15760818 -15956774 
3541.656 -16101975 -16184567 -16181342 -16066853 -15825551 -15466750 
3542.017 -15028763 -14579792 -14196037 -13944130 -13863809 -13956259 
3542.379 -14186770 -14495165 -14816856 -15089380 -15264559 -15313339 
3542.741 -15220826 -14989296 -14638902 -14213835 -13779846 -13417230 
3543.103 -13210675 -13219867 -13464903 -13913935 -14492153 -15093572 
3543.465 -15609654 -15963418 -16118482 -16090801 -15934225 -15730461 
3543.826 -15563910 -15506109 -15610836 -15902540 -16375067 -16989020 
3544.188 -17679992 -18362462 -18947354 -19368480 -19590024 -19616754 
3544.550 -19482670 -19235842 -18917758 -18552964 -18155134 -17737504 
3544.912 -17331412 -16998770 -16819316 -16872738 -17205826 -17806776 
3545.274 -18598552 -19449374 -20213148 -20745550 -20947668 -20782664 
3545.635 -20274848 -19496800 -18548550 -17549096 -16615426 -15865803 
3545.997 -15414724 -15350410 -15727969 -16546538 -17745392 -19186262 
3546.359 -20668688 -21968922 -22868658 -23239770 -23090276 -22567632 
3546.721 -21878570 -21207474 -20659652 -20246450 -19916888 -19593000 
3547.083 -19208548 -18724118 -18140038 -17489808 -16832258 -16229924 
3547.445 -15732188 -15369248 -15145509 -15047902 -15059360 -15177313 
3547.806 -15424414 -15852610 -16527241 -17508616 -18817284 -20408212 
3548.168 -22127304 -23715964 -24868494 -25317118 -24972022 -23966342 
3548.530 -22601194 -21191288 -19970436 -19050428 -18430810 -18047172 
3548.892 -17806840 -17623330 -17424910 -17169550 -16849056 -16491069 
3549.254 -16154846 -15915891 -15853856 -16019786 -16417406 -16986536 
3549.615 -17614038 -18148522 -18444054 -18415090 -18058584 -17458300 
3549.977 -16741566 -16045108 -15466078 -15048319 -14793350 -14676606 
3550.339 -14667733 -14740956 -14877247 -15055263 -15242709 -15397903 
3550.701 -15472825 -15429562 -15254257 -14962886 -14600009 -14224834 
3551.063 -13905271 -13701933 -13662828 -13823691 -14200206 -14784800 
3551.425 -15537281 -16388532 -17239518 -17979782 -18521818 -18816394 
3551.786 -18875028 -18759216 -18564426 -18378916 -18256014 -18203972 
3552.148 -18189928 -18160282 -18061920 -17866434 -17575092 -17219008 
3552.510 -16845518 -16509123 -16255906 -16110150 -16070876 -16108362 
3552.872 -16173042 -16207390 -16173808 -16077774 -15987404 -16023330 
3553.234 -16340859 -17079184 -18295662 -19904260 -21640634 -23126594 
3553.595 -23960386 -23913538 -23030608 -21596372 -19982144 -18499338 
3553.957 -17338478 -16541019 -16050378 -15762640 -15583890 -15458341 
3554.319 -15380058 -15374397 -15469275 -15666034 -15933108 -16214157 
3554.681 -16457062 -16638769 -16774690 -16911426 -17106260 -17400812 
3555.043 -17796090 -18243848 -18653688 -18928068 -18984526 -18782856 
3555.405 -18330508 -17671848 -16874746 -16017614 -15188704 -14467765 
3555.766 -13917144 -13572499 -13432168 -13462943 -13611196 -13826580 
3556.128 -14072363 -14334615 -14616123 -14923574 -15251442 -15576025 
3556.490 -15854048 -16038626 -16094441 -16010078 -15802994 -15513942 
3556.852 -15194207 -14887268 -14620128 -14398053 -14208320 -14026297 
3557.214 -13826773 -13594240 -13327461 -13042832 -12769697 -12544743 
3557.575 -12396866 -12339156 -12361861 -12436923 -12528486 -12610953 
3557.937 -12682979 -12773429 -12931855 -13205756 -13622081 -14167335 
3558.299 -14788579 -15398926 -15909662 -16252713 -16396604 -16351391 
3558.661 -16154302 -15851172 -15475927 -15050879 -14590108 -14108578 
3559.023 -13629467 -13177825 -12771627 -12412387 -12083753 -11762707 
3559.385 -11436163 -11118160 -10854701 -10713715 -10754607 -11006108 
3559.746 -11446103 -12007309 -12592221 -13107649 -13496831 -13747488 
3560.108 -13892692 -13988377 -14094016 -14246735 -14455265 -14700854 
3560.470 -14950242 -15164035 -15308893 -15366049 -15331060 -15218170 
3560.832 -15057120 -14893959 -14781053 -14764559 -14878207 -15132261 
3561.194 -15516052 -16000081 -16546888 -17111388 -17638634 -18067768 
3561.555 -18331144 -18370500 -18159900 -17715174 -17097946 -16398517 
3561.917 -15727362 -15184321 -14838343 -14714628 -14784896 -14980045 
3562.279 -15213660 -15420224 -15567011 -15659099 -15720332 -15771108 
3562.641 -15809448 -15811685 -15746536 -15600160 -15389204 -15163267 
3563.003 -14982861 -14896713 -14921813 -15037020 -15194623 -15342765 
3563.365 -15450667 -15515860 -15559595 -15606713 -15665652 -15714612 
3563.726 -15708188 -15594087 -15344270 -14968553 -14514489 -14046797 
3564.088 -13627893 -13304067 -13096686 -13012639 -13053282 -13223371 
3564.450 -13534024 -13996461 -14612631 -15364259 -16208218 -17076794 
3564.812 -17875052 -18505020 -18881816 -18963022 -18767942 -18378852 
3565.174 -17914448 -17484238 -17168658 -16996446 -16947980 -16967320 
3565.535 -16986918 -16953364 -16843830 -16675791 -16497001 -16366260 
3565.897 -16322862 -16371045 -16473683 -16572755 -16611822 -16566088 
3566.259 -16454287 -16331032 -16262289 -16297586 -16459135 -16740067 
3566.621 -17121518 -17591512 -18159202 -18851898 -19696240 -20688972 
3566.983 -21762738 -22777552 -23566978 -23996538 -24040774 -23788680 
3567.344 -23410374 -23080318 -22929416 -23034002 -23412384 -24049520 
3567.706 -24918650 -25999438 -27264602 -28646554 -30002694 -31066170 
3568.068 -31504742 -31083290 -29806232 -27936664 -25827694 -23773780 
3568.430 -21932380 -20359050 -19060768 -18025304 -17251842 -16757889 
3568.792 -16570874 -16727220 -17264292 -18221194 -19637498 -21548514 
3569.154 -23972614 -26857360 -30048552 -33257012 -36067976 -38058200 
3569.515 -38917312 -38551448 -37097372 -34879276 -32298378 -29707318 
3569.877 -27357542 -25371692 -23772556 -22535922 -21610496 -20936176 
3570.239 -20445798 -20069568 -19739524 -19401942 -19033876 -18647882 
3570.601 -18287022 -18002384 -17833998 -17784768 -17813232 -17837592 
3570.963 -17764922 -17524464 -17089854 -16492471 -15811173 -15152388 
3571.324 -14609876 -14248691 -14090358 -14117911 -14287679 -14542975 
3571.686 -14825534 -15070434 -15213116 -15202014 -15012374 -14668694 
3572.048 -14247697 -13865703 -13631972 -13618100 -13831041 -14210564 
3572.410 -14643194 -14996594 -15167715 -15105733 -14835364 -14440234 
3572.772 -14038360 -13732240 -13577830 -13577927 -13692656 -13865639 
3573.134 -14048850 -14221050 -14384206 -14550409 -14725453 -14898474 
3573.495 -15045534 -15143780 -15184577 -15183681 -15174818 -15196959 
3573.857 -15270188 -15385399 -15500866 -15562312 -15521903 -15362147 
3574.219 -15104773 -14807601 -14543200 -14368724 -14311661 -14355260 
3574.581 -14449561 -14524358 -14519007 -14397381 -14156238 -13822535 
3574.943 -13443187 -13073731 -12761267 -12540944 -12429388 -12423496 
3575.304 -12502925 -12635253 -12785977 -12922689 -13026851 -13098551 
3575.666 -13158184 -13239986 -13384299 -13625036 -13975543 -14425267 
3576.028 -14940798 -15478516 -15991459 -16440729 -16800192 -17055226 
3576.390 -17205030 -17260662 -17244932 -17185920 -17109030 -17027606 
3576.752 -16935104 -16804430 -16594920 -16270906 -15814433 -15240469 
3577.114 -14595139 -13952184 -13389762 -12970834 -12734979 -12690510 
3577.475 -12822298 -13099547 -13487837 -13950676 -14448439 -14941438 
3577.837 -15387381 -15751328 -16018348 -16202632 -16350847 -16527209 
3578.199 -16798056 -17199742 -17720836 -18296170 -18828674 -19216126 
3578.561 -19379762 -19289694 -18962420 -18448024 -17804326 -17086828 
3578.923 -16341817 -15610709 -14945632 -14407638 -14058153 -13945991 
3579.284 -14080415 -14421420 -14877663 -15337264 -15690291 -15861012 
3579.646 -15827499 -15618380 -15299425 -14945888 -14631053 -14407638 
3580.008 -14303133 -14323844 -14457925 -14679585 -14952803 -15241205 
3580.370 -15512951 -15748868 -15946491 -16114907 -16263885 -16390573 
3580.732 -16471578 -16468834 -16350944 -16116407 -15809990 -15516692 
3581.094 -15347627 -15394737 -15704578 -16249012 -16926182 -17571722 
3581.455 -18010872 -18132634 -17925386 -17483444 -16949446 -16463602 
3581.817 -16107116 -15892349 -15780630 -15712278 -15635479 -15523789 
3582.179 -15382744 -15239510 -15127525 -15068961 -15071009 -15125925 
3582.541 -15219579 -15334737 -15455239 -15564837 -15644269 -15673738 
3582.903 -15638964 -15537312 -15382648 -15204765 -15042365 -14927672 
3583.264 -14880064 -14899466 -14971338 -15074786 -15195359 -15330420 
3583.626 -15490059 -15689621 -15939305 -16237201 -16566632 -16898998 
3583.988 -17199806 -17439742 -17596126 -17656194 -17615026 -17473322 
3584.350 -17238562 -16926820 -16569661 -16214667 -15920587 -15752766 
3584.712 -15761521 -15968464 -16352603 -16850776 -17362102 -17768708 
3585.073 -17976000 -17932222 -17650914 -17200158 -16685260 -16211955 
3585.435 -15856508 -15658684 -15612914 -15680959 -15805390 -15933108 
3585.797 -16025534 -16064394 -16049897 -15991969 -15901389 -15786219 
3586.159 -15653795 -15516659 -15395440 -15321081 -15323831 -15420832 
3586.521 -15601726 -15823826 -16017741 -16105872 -16034219 -15789511 
3586.883 -15407273 -14957349 -14530319 -14210371 -14053501 -14085933 
3587.244 -14301081 -14673883 -15175458 -15795166 -16552981 -17507440 
3587.606 -18755314 -20425630 -22654410 -25538398 -29006970 -32673788 
3587.968 -35834824 -37735508 -38073192 -37112524 -35385028 -33317960 
3588.330 -31137390 -28934254 -26747894 -24641676 -22727054 -21127792 
3588.692 -19959992 -19291976 -19123710 -19390408 -19960562 -20657314 
3589.053 -21266194 -21597446 -21535962 -21067538 -20277726 -19311436 
3589.415 -18327078 -17445822 -16751513 -16298575 -16128251 -16297523 
3589.777 -16893868 -18044344 -19884732 -22463498 -25532650 -28268486 
3590.139 -29555142 -28891784 -26829700 -24276084 -21838272 -19743608 
3590.501 -17996756 -16543061 -15326390 -14311725 -13495514 -12890589 
3590.863 -12508462 -12346113 -12375000 -12545643 -12797944 -13082798 
3591.224 -13371255 -13657594 -13951479 -14261164 -14575914 -14860597 
3591.586 -15056384 -15103716 -14972042 -14681187 -14311148 -13985681 
3591.948 -13850618 -14017925 -14532177 -15339407 -16296757 -17194298 
3592.310 -17816922 -18021456 -17761710 -17103074 -16181245 -15171010 
3592.672 -14227560 -13453820 -12899178 -12561192 -12410808 -12416637 
3593.033 -12560966 -12838479 -13241208 -13744278 -14291623 -14801068 
3593.395 -15189856 -15389940 -15374397 -15162563 -14814102 -14406676 
3593.757 -14014812 -13700586 -13503640 -13452213 -13574202 -13903699 
3594.119 -14483949 -15357766 -16553268 -18067482 -19846020 -21772320 
3594.481 -23627200 -25115366 -25936768 -25907300 -25077804 -23702504 
3594.843 -22104788 -20521434 -19077224 -17806776 -16701521 -15758421 
3595.204 -15001363 -14476001 -14238077 -14316534 -14690412 -15273100 
3595.566 -15928380 -16496109 -16826648 -16837040 -16529888 -15995897 
3595.928 -15371263 -14805552 -14415843 -14263311 -14367057 -14720329 
3596.290 -15318842 -16174894 -17320714 -18790028 -20573896 -22576314 
3596.652 -24557046 -26140822 -26978814 -26936714 -26186494 -25054882 
3597.013 -23852384 -22758246 -21826678 -21049042 -20392500 -19832664 
3597.375 -19366990 -19008220 -18770990 -18651024 -18617282 -18615790 
3597.737 -18595218 -18533056 -18441608 -18354840 -18302872 -18279238 
3598.099 -18258684 -18186114 -17998284 -17654890 -17156810 -16554670 
3598.461 -15931509 -15382808 -14987791 -14784896 -14770293 -14904013 
3598.823 -15131877 -15398351 -15665427 -15918415 -16161676 -16412364 
3599.184 -16691638 -17019002 -17405620 -17853682 -18352394 -18878104 
3599.546 -19395510 -19860960 -20231838 -20467230 -20533350 -20408908 
3599.908 -20087314 -19587520 -18957218 -18276856 -17639778 -17134514 
3600.270 -16825628 -16735222 -16846920 -17115912 -17491112 -17926116 
3600.632 -18390318 -18869728 -19353902 -19826174 -20256190 -20597438 
3600.993 -20801396 -20833642 -20685306 -20377294 -19952398 -19460146 
3601.355 -18938028 -18408580 -17880648 -17358282 -16851478 -16381895 
3601.717 -15981015 -15691219 -15558348 -15630877 -15961917 -16601874 
3602.079 -17589508 -18927622 -20557682 -22313014 -23908238 -25012780 
3602.441 -25345936 -24831478 -23633726 -22090492 -20557904 -19297428 
3602.802 -18453136 -18035696 -17964458 -18104286 -18321266 -18506068 
3603.164 -18593028 -18559250 -18406484 -18150112 -17811802 -17426756 
3603.526 -17045320 -16728494 -16541371 -16526252 -16686695 -16978058 
3603.888 -17323198 -17634562 -17848628 -17950120 -17969290 -17960738 
3604.250 -17969450 -18007692 -18041770 -18007184 -17834888 -17494390 
3604.612 -17010336 -16456041 -15914900 -15450986 -15088739 -14813430 
3604.973 -14588603 -14379398 -14173589 -13988601 -13865606 -13848469 
3605.335 -13965725 -14211109 -14542431 -14888517 -15175682 -15346924 
3605.697 -15377851 -15284391 -15116837 -14945536 -14835428 -14832963 
3606.059 -14948641 -15157220 -15402923 -15621256 -15761713 -15799800 
3606.421 -15743818 -15624037 -15478165 -15333330 -15202462 -15087715 
3606.782 -14989360 -14915923 -14885571 -14916563 -15013559 -15154020 
3607.144 -15289637 -15355719 -15301537 -15116421 -14845643 -14578574 
3607.506 -14423215 -14468214 -14743294 -15210012 -15772449 -16327074 
3607.868 -16802422 -17206812 -17631664 -18241560 -19225160 -20749088 
3608.230 -22903832 -25638860 -28687374 -31514666 -33466398 -34010140 
3608.592 -33031892 -30861856 -28058998 -25141664 -22445816 -20163268 
3608.953 -18362622 -17035154 -16129816 -15561289 -15225657 -15012374 
3609.315 -14833027 -14632558 -14402573 -14176155 -14014363 -13981061 
3609.677 -14118617 -14441228 -14933082 -15559915 -16274896 -17033468 
3610.039 -17800576 -18555536 -19305128 -20092156 -21010654 -22216660 
3610.401 -23955808 -26568748 -30442620 -35707944 -41565400 -45928584 
3610.762 -46793576 -44381308 -40430128 -36375364 -32807484 -29833920 
3611.124 -27391918 -25368440 -23671568 -22236114 -21018042 -19990624 
3611.486 -19133412 -18425792 -17843634 -17361912 -16960056 -16621741 
3611.848 -16337095 -16097026 -15887940 -15688406 -15471002 -15208669 
3612.210 -14888261 -14517950 -14133339 -13786362 -13539420 -13442513 
3612.572 -13519604 -13764598 -14143570 -14607153 -15101668 -15586990 
3612.933 -16039999 -16455021 -16837550 -17196462 -17539008 -17870632 
3613.295 -18200320 -18548836 -18953888 -19476748 -20197492 -21211610 
3613.657 -22626514 -24548876 -27051050 -30067844 -33271834 -35948120 
3614.019 -37247172 -36830252 -35161224 -33036284 -31003794 -29277086 
3614.381 -27828156 -26536112 -25274888 -23967126 -22605064 -21249220 
3614.742 -19988724 -18907448 -18048412 -17398172 -16894920 -16450491 
3615.104 -15987083 -15459396 -14879296 -14310314 -13856171 -13626480 
3615.466 -13712143 -14176379 -15044830 -16312202 -17937404 -19847540 
3615.828 -21897884 -23847490 -25390756 -26231662 -26240428 -25519778 
3616.190 -24347580 -23035040 -21828726 -20905264 -20351684 -20179842 
3616.552 -20320414 -20635608 -20939460 -21059048 -20906810 -20497794 
3616.913 -19939864 -19375830 -18941740 -18711136 -18674954 -18743950 
3617.275 -18781840 -18651150 -18255474 -17581520 -16704008 -15768008 
3617.637 -14932986 -14341828 -14077015 -14144981 -14481161 -14970249 
3617.999 -15480914 -15883757 -16088758 -16054017 -15785070 -15323991 
3618.361 -14739098 -14116404 -13541861 -13102570 -12878689 -12936423 
3618.722 -13339478 -14150241 -15434231 -17231366 -19505956 -22068070 
3619.084 -24503030 -26302588 -27120222 -26950696 -26047746 -24731922 
3619.446 -23264080 -21809252 -20479462 -19349054 -18460788 -17839308 
3619.808 -17483696 -17371940 -17466096 -17719404 -18081976 -18503244 
3620.170 -18941834 -19365848 -19755038 -20103576 -20418960 -20724070 
3620.531 -21058952 -21490304 -22120282 -23105924 -24660178 -27072344 
3620.893 -30649108 -35401796 -40507376 -44064600 -44413560 -41832060 
3621.255 -37841568 -33679640 -29869368 -26543688 -23681418 -21230792 
3621.617 -19173202 -17506578 -16233850 -15356774 -14855442 -14687945 
3621.979 -14791045 -15095619 -15532581 -16046194 -16604934 -17195284 
3622.341 -17815362 -18460534 -19100976 -19668470 -20065644 -20191040 
3622.702 -19992396 -19488438 -18753568 -17878708 -16947342 -16025629 
3623.064 -15157668 -14377186 -13708515 -13165096 -12756344 -12488147 
3623.426 -12366853 -12404175 -12615750 -13015404 -13606572 -14370615 
3623.788 -15257840 -16182076 -17038946 -17716828 -18127360 -18232790 
3624.150 -18052924 -17663130 -17168052 -16688513 -16328095 -16154239 
3624.511 -16190408 -16408121 -16737709 -17083802 -17362102 -17515618 
3624.873 -17528856 -17423540 -17247924 -17058698 -16902726 -16811858 
3625.235 -16793912 -16835254 -16906648 -16974938 -17012280 -17000330 
3625.597 -16933096 -16813548 -16650537 -16456168 -16246138 -16039712 
3625.959 -15857114 -15718382 -15636183 -15611316 -15630143 -15666833 
3626.321 -15691314 -15675463 -15605275 -15485039 -15337616 -15195423 
3626.682 -15090467 -15040252 -15041821 -15075875 -15121477 -15173122 
3627.044 -15254289 -15420160 -15746791 -16320372 -17206972 -18430968 
3627.406 -19943598 -21616896 -23229658 -24502528 -25193506 -25170340 
3627.768 -24475470 -23290868 -21872332 -20454744 -19200084 -18205434 
3628.130 -17500502 -17071602 -16874840 -16851382 -16930548 -17035028 
3628.491 -17094314 -17046912 -16856674 -16525647 -16102582 -15679235 
3628.853 -15366145 -15280745 -15510713 -16101370 -17051850 -18325904 
3629.215 -19867324 -21616296 -23547708 -25678682 -28090866 -30948258 
3629.577 -34479600 -38879168 -43981428 -48648748 -50866472 -49606728 
3629.939 -45978120 -41665532 -37607300 -34097324 -31161692 -28808908 
3630.301 -27080532 -26014292 -25650978 -25989670 -26990336 -28564750 
3630.662 -30603748 -33010978 -35659052 -38355384 -40623444 -41406544 
3631.024 -39543124 -35585364 -31536512 -28429026 -26166560 -24421350 
3631.386 -22976370 -21721580 -20604548 -19589928 -18651912 -17766226 
3631.748 -16919204 -16122568 -15415044 -14864247 -14555152 -14556658 
3632.110 -14895208 -15525196 -16332626 -17151490 -17820324 -18236444 
3632.471 -18368022 -18256746 -17990750 -17680786 -17426660 -17300972 
3632.833 -17340772 -17542444 -17870028 -18266340 -18671050 -19024806 
3633.195 -19280440 -19410212 -19405014 -19276066 -19050716 -18769276 
3633.557 -18474664 -18206768 -17997488 -17864366 -17808748 -17817398 
3633.919 -17868024 -17932730 -17983882 -17997552 -17949610 -17817112 
3634.281 -17579422 -17223532 -16754318 -16203687 -15641073 -15161827 
3634.642 -14875101 -14883202 -15253394 -16014164 -17155312 -18643818 
3635.004 -20410520 -22335424 -24228956 -25781578 -26634444 -26548738 
3635.366 -25590162 -24111212 -22530164 -21138554 -20032992 -19184740 
3635.728 -18503212 -17892382 -17281072 -16648559 -16025534 -15488428 
3636.090 -15125765 -15006101 -15158883 -15560042 -16139299 -16792574 
3636.451 -17415264 -17917088 -18233108 -18329778 -18194090 -17832568 
3636.813 -17269578 -16556712 -15773984 -15019096 -14397701 -13990846 
3637.175 -13835470 -13917754 -14178079 -14529421 -14875197 -15139525 
3637.537 -15272140 -15255505 -15099012 -14834275 -14507631 -14173973 
3637.899 -13899463 -13748708 -13770408 -13982473 -14356093 -14814806 
3638.260 -15243797 -15530790 -15589772 -15391635 -14972010 -14421709 
3638.622 -13859380 -13389857 -13088970 -12981961 -13051675 -13254417 
3638.984 -13545618 -13896639 -14299639 -14765040 -15308126 -15933426 
3639.346 -16622985 -17329182 -17979432 -18498926 -18827976 -18944434 
3639.708 -18866906 -18644358 -18335210 -17990240 -17644996 -17313264 
3640.070 -16988766 -16652992 -16285013 -15870882 -15413636 -14934972 
3640.431 -14474078 -14077464 -13787260 -13636596 -13642503 -13805877 
3640.793 -14112138 -14533331 -15028378 -15540414 -16006820 -16363101 
3641.155 -16555820 -16559456 -16384384 -16079562 -15717424 -15381113 
3641.517 -15135365 -15007573 -14983790 -15015767 -15039613 -14991600 
3641.879 -14831170 -14546692 -14161017 -13724375 -13310655 -13003442 
3642.240 -12874410 -12976108 -13322833 -13885568 -14588795 -15327477 
3642.602 -15990820 -16480446 -16743064 -16777016 -16632264 -16389744 
3642.964 -16148364 -16002923 -16018795 -16225679 -16603595 -17090524 
3643.326 -17588076 -17991576 -18218142 -18220622 -18009982 -17644900 
3643.688 -17228212 -16871558 -16670210 -16665651 -16821166 -17021360 
3644.050 -17111708 -16972038 -16559742 -15939910 -15252114 -14675100 
3644.411 -14357312 -14380296 -14739866 -15348875 -16060276 -16705507 
3644.773 -17153020 -17324184 -17208564 -16847398 -16314149 -15690260 
3645.135 -15046718 -14446997 -13940376 -13562961 -13338546 -13270839 
3645.497 -13340603 -13502356 -13695994 -13853283 -13915957 -13852351 
3645.859 -13662411 -13379384 -13058170 -12768442 -12574357 -12522047 
3646.220 -12636605 -12918379 -13349599 -13897730 -14523909 -15180321 
3646.582 -15809735 -16351549 -16742300 -16931696 -16899954 -16667819 
3646.944 -16299246 -15882606 -15517107 -15276394 -15192255 -15248019 
3647.306 -15391187 -15559020 -15712278 -15862992 -16080519 -16472567 
3647.668 -17140628 -18133270 -19386542 -20708084 -21794694 -22376680 
3648.030 -22358838 -21876650 -21214574 -20692762 -20599334 -21137450 
3648.391 -22438044 -24524888 -27298580 -30469494 -33614480 -36320452 
3648.753 -38303756 -39442988 -39688548 -39021116 -37512944 -35416728 
3649.115 -33126644 -30993952 -29207048 -27783556 -26632356 -25625678 
3649.477 -24643616 -23608904 -22501128 -21365664 -20292208 -19399850 
3649.839 -18793392 -18541438 -18668768 -19155414 -19945214 -20955310 
3650.200 -22104788 -23317468 -24536850 -25742546 -26952782 -28248554 
3650.562 -29792466 -31818792 -34379388 -36832568 -37973048 -37376248 
3650.924 -35630784 -33395716 -31032084 -28701268 -26491756 -24460124 
3651.286 -22669002 -21177338 -20026792 -19261010 -18911508 -19005618 
3651.648 -19577830 -20674690 -22355596 -24659520 -27561490 -30826364 
3652.010 -33843496 -35716916 -35754148 -34147104 -31807400 -29703604 
3652.371 -28383992 -28031788 -28688428 -30327350 -32859438 -35964500 
3652.733 -38950144 -40699720 -40223652 -37544820 -33663880 -29697600 
3653.095 -26262136 -23553828 -21534828 -20084500 -19076972 -18387872 
3653.457 -17904208 -17524148 -17173880 -16815588 -16450746 -16113151 
3653.819 -15855646 -15729312 -15762417 -15952336 -16262321 -16633699 
3654.180 -16992492 -17269482 -17413290 -17394222 -17210666 -16884688 
3654.542 -16456489 -15971402 -15474680 -15002996 -14577036 -14200077 
3654.904 -13857134 -13521274 -13161431 -12758050 -12315903 -11872469 
3655.266 -11494445 -11264277 -11265181 -11548588 -12119393 -12923397 
3655.628 -13861402 -14799596 -15601503 -16168414 -16451735 -16470971 
3655.990 -16299598 -16049802 -15831493 -15721066 -15748037 -15887493 
3656.351 -16078860 -16247287 -16337924 -16328894 -16237106 -16105073 
3656.713 -15987627 -15932532 -15969550 -16114907 -16375769 -16760631 
3657.075 -17282794 -17958512 -18801420 -19818006 -21016588 -22418724 
3657.437 -24080554 -26128030 -28763512 -32206676 -36427864 -40567708 
3657.799 -42890472 -42342804 -39663900 -36209444 -32796580 -29713940 
3658.160 -27000112 -24644650 -22650196 -21022586 -19776280 -18908336 
3658.522 -18383458 -18134382 -18069676 -18097614 -18136702 -18139944 
3658.884 -18100664 -18045932 -18018406 -18054674 -18164348 -18320376 
3659.246 -18463296 -18520358 -18436972 -18194186 -17821468 -17383082 
3659.608 -16963466 -16633604 -16429275 -16345551 -16345199 -16377619 
3659.969 -16399506 -16391722 -16358824 -16320022 -16294140 -16289800 
3660.331 -16301576 -16315553 -16316032 -16292959 -16243521 -16168317 
3660.693 -16067460 -15939815 -15786668 -15616558 -15450859 -15321688 
3661.055 -15260591 -15286183 -15389748 -15532517 -15651109 -15680959 
3661.417 -15586575 -15377339 -15111781 -14875261 -14757962 -14816856 
3661.779 -15063521 -15457349 -15921257 -16354039 -16653437 -16745551 
3662.140 -16591189 -16198387 -15615183 -14925143 -14228361 -13622081 
3662.502 -13194250 -12999873 -13054794 -13331573 -13769509 -14285050 
3662.864 -14789412 -15215067 -15521679 -15706591 -15797403 -15841780 
3663.226 -15886057 -15955241 -16045203 -16121227 -16133808 -16037254 
3663.588 -15816573 -15500706 -15164707 -14903309 -14807922 -14928441 
3663.949 -15251250 -15695788 -16139330 -16465357 -16594186 -16519841 
3664.311 -16305821 -16065449 -15910110 -15912697 -16082276 -16367696 
3664.673 -16681148 -16936156 -17084630 -17125214 -17095652 -17044714 
3665.035 -17009222 -16993704 -16972802 -16905308 -16758112 -16520925 
3665.397 -16211061 -15862897 -15514646 -15196223 -14921813 -14697075 
3665.759 -14526377 -14420298 -14396579 -14474687 -14666644 -14973163 
3666.120 -15382296 -15874973 -16425764 -17005940 -17579674 -18092462 
3666.482 -18479268 -18665594 -18588520 -18221416 -17591194 -16785304 
3666.844 -15929243 -15170787 -14630187 -14370006 -14385553 -14609267 
3667.206 -14933499 -15233175 -15405769 -15379897 -15128229 -14666291 
3667.568 -14044680 -13339670 -12635446 -12023392 -11582917 -11369289 
3667.929 -11407730 -11684981 -12153321 -12734915 -13344940 -13902190 
3668.291 -14345419 -14648865 -14821819 -14906414 -14960390 -15047582 
3668.653 -15213564 -15471194 -15792260 -16111618 -16342614 -16394369 
3669.015 -16206112 -15762798 -15107812 -14330704 -13554290 -12906061 
3669.377 -12481644 -12338963 -12487471 -12898727 -13517002 -14281555 
3669.739 -15145828 -16083617 -17107088 -18269772 -19669070 -21433414 
3670.100 -23657794 -26231288 -28647950 -30107664 -30163584 -29088938 
3670.462 -27482900 -25803996 -24274862 -22985640 -21951438 -21156448 
3670.824 -20570642 -20150868 -19849788 -19625272 -19453018 -19328994 
3671.186 -19270076 -19304654 -19465248 -19779986 -20267764 -20938986 
3671.548 -21797686 -22846212 -24083532 -25516934 -27170368 -29102820 
3671.909 -31457838 -34516016 -38750660 -44728516 -52305264 -58841888 
3672.271 -59958696 -55173260 -48083892 -41329244 -35675196 -31101488 
3672.633 -27446946 -24585916 -22402580 -20798710 -19668722 -18895806 
3672.995 -18366308 -17985918 -17697298 -17478828 -17339116 -17297534 
3673.357 -17365094 -17529112 -17748032 -17952632 -18064558 -18007692 
3673.719 -17725226 -17197704 -16449310 -15551571 -14605775 -13737826 
3674.080 -13065564 -12669464 -12584174 -12786459 -13209100 -13754454 
3674.442 -14327851 -14850446 -15268909 -15559403 -15714867 -15737044 
3674.804 -15629375 -15399341 -15065568 -14664818 -14261869 -13940376 
3675.166 -13788127 -13886627 -14288031 -15009558 -16028343 -17290370 
3675.528 -18708440 -20169310 -21560588 -22785884 -23803266 -24640832 
3675.889 -25402600 -26238836 -27321046 -28850518 -31064720 -34252724 
3676.251 -38671280 -44268036 -50031940 -53732568 -53604312 -50230568 
3676.613 -45579856 -41066916 -37273020 -34298992 -32079812 -30551744 
3676.975 -29645242 -29295020 -29433910 -30009158 -31003424 -32464694 
3677.337 -34548732 -37384152 -40548212 -42595800 -42302736 -40173116 
3677.698 -37353416 -34491412 -31817160 -29392170 -27235848 -25336218 
3678.060 -23661904 -22170314 -20813018 -19562086 -18431192 -17471920 
3678.422 -16772458 -16425829 -16494099 -16993002 -17871714 -19018176 
3678.784 -20248884 -21351278 -22125384 -22431058 -22235012 -21600786 
3679.146 -20654724 -19534942 -18378694 -17307342 -16411854 -15759604 
3679.508 -15375900 -15243157 -15307198 -15498820 -15757559 -16043799 
3679.869 -16345359 -16663706 -16993354 -17308264 -17557210 -17679196 
3680.231 -17635610 -17434458 -17148114 -16898010 -16847398 -17162830 
3680.593 -17993038 -19450070 -21567588 -24228424 -27053914 -29444528 
3680.955 -30781146 -30790498 -29673712 -27894096 -25891348 -23939848 
3681.317 -22192700 -20714656 -19526136 -18637978 -18048794 -17746410 
3681.678 -17701654 -17866912 -18172260 -18527596 -18843712 -19038220 
3682.040 -19056580 -18883942 -18544422 -18092146 -17591768 -17107374 
3682.402 -16683124 -16339265 -16075825 -15880115 -15736980 -15634585 
3682.764 -15566436 -15529096 -15518450 -15529991 -15560810 -15612243 
3683.126 -15690707 -15803441 -15950674 -16118195 -16274959 -16382150 
3683.488 -16407516 -16340509 -16201772 -16038850 -15911674 -15864206 
3683.849 -15911164 -16028279 -16167359 -16274162 -16318044 -16306268 
3684.211 -16283927 -16310416 -16431667 -16656084 -16946736 -17232512 
3684.573 -17430798 -17481564 -17359110 -17079278 -16685707 -16235957 
3684.935 -15779926 -15347756 -14952003 -14593600 -14272354 -13996718 
3685.297 -13786650 -13671787 -13687486 -13864034 -14221852 -14762830 
3685.658 -15466590 -16283065 -17134004 -17927100 -18558996 -18946466 
3686.020 -19046560 -18867000 -18463710 -17921506 -17334850 -16779502 
3686.382 -16312586 -15972232 -15779478 -15743531 -15854176 -16078316 
3686.744 -16353240 -16597472 -16734138 -16709173 -16517194 -16202729 
3687.106 -15849736 -15544281 -15348523 -15279433 -15307838 -15377787 
3687.468 -15437076 -15465375 -15480530 -15529224 -15658045 -15892286 
3687.829 -16218338 -16591445 -16949572 -17243786 -17452664 -17588458 
3688.191 -17683172 -17771728 -17874192 -17990686 -18112676 -18238446 
3688.553 -18382854 -18579060 -18865414 -19268332 -19792396 -20418328 
3688.915 -21114220 -21851506 -22618840 -23428960 -24310736 -25274574 
3689.277 -26309386 -27368430 -28382442 -29259492 -29910878 -30263756 
3689.638 -30280040 -29979718 -29503136 -29284364 -30119010 -32437698 
3690.000 -34777468 -35374064 -34280804 -32291088 -29967474 -27599054 
3690.362 -25363034 -23379952 -21760564 -20571336 -19822122 -19461160 
3690.724 -19364456 -19359702 -19258918 -18925592 -18301570 -17429462 
3691.086 -16428573 -15465535 -14697651 -14226149 -14090936 -14270334 
3691.448 -14710464 -15347468 -16134286 -17043024 -18055276 -19151294 
3691.809 -20295118 -21429374 -22489016 -23413954 -24171388 -24766196 
3692.171 -25245750 -25688146 -26189894 -26870284 -27868150 -29351758 
3692.533 -31512014 -34510020 -38281424 -42153648 -44736740 -44666756 
3692.895 -41965196 -37898844 -33716708 -30027896 -26955648 -24444214 
3693.257 -22384644 -20683000 -19283292 -18156912 -17294956 -16693583 
3693.618 -16333297 -16168572 -16120717 -16096581 -15998453 -15761713 
3693.980 -15378298 -14902957 -14435074 -14080383 -13925520 -14006536 
3694.342 -14307396 -14768114 -15309374 -15848137 -16314851 -16669987 
3694.704 -16897596 -17003358 -17002212 -16910408 -16739080 -16494226 
3695.066 -16179649 -15802195 -15375708 -14927384 -14494364 -14125320 
3695.427 -13874913 -13790791 -13906362 -14227496 -14725293 -15332083 
3695.789 -15953837 -16498053 -16892272 -17110720 -17173978 -17135820 
3696.151 -17054940 -16975032 -16913944 -16865470 -16812400 -16743766 
3696.513 -16665077 -16597088 -16561305 -16562102 -16573649 -16541753 
3696.875 -16402889 -16105711 -15640562 -15049214 -14420971 -13858770 
3697.237 -13458734 -13283533 -13349599 -13635279 -14094240 -14679457 
3697.598 -15347627 -16066151 -16804878 -17522046 -18165144 -18677844 
3697.960 -19015292 -19161248 -19129544 -18953094 -18664196 -18281716 
3698.322 -17806330 -17229550 -16551929 -15799863 -15031067 -14333557 
3698.684 -13798045 -13491306 -13437661 -13607535 -13929531 -14310667 
3699.046 -14673178 -14968457 -15185760 -15343374 -15471002 -15587438 
3699.407 -15688119 -15742093 -15706878 -15550355 -15265645 -14879104 
3699.769 -14441741 -14018181 -13663310 -13415366 -13285686 -13260169 
3700.131 -13304806 -13379512 -13454462 -13515685 -13569641 -13633031 
3700.493 -13720843 -13832550 -13947789 -14031366 -14051993 -14001113 
3700.855 -13907004 -13829051 -13845002 -14022191 -14389303 -14923991 
3701.217 -15553425 -16185811 -16736465 -17166364 -17485892 -17737186 
3701.578 -17957558 -18154878 -18299030 -18339944 -18231964 -17965570 
3701.940 -17576780 -17140056 -16735923 -16412653 -16170200 -15960831 
3702.302 -15722377 -15416962 -15068705 -14772374 -14681059 -14952035 
3702.664 -15713334 -17025948 -18883274 -21215994 -23925392 -26931670 
3703.026 -30144822 -33427312 -36476580 -38694260 -39334832 -38033096 
3703.387 -35197216 -31669974 -28140744 -24941050 -22139270 -19712546 
3703.749 -17626988 -15861459 -14432862 -13375592 -12721401 -12486474 
3704.111 -12650830 -13156320 -13909571 -14805968 -15742188 -16623940 
3704.473 -17380950 -17958862 -18319678 -18444338 -18334830 -18020248 
3704.835 -17552564 -17004154 -16447650 -15939048 -15514262 -15184225 
3705.197 -14945472 -14789252 -14710976 -14712065 -14797257 -14966536 
3705.558 -15205277 -15478868 -15738579 -15925441 -15988553 -15900271 
3705.920 -15663797 -15314043 -14909328 -14522821 -14223198 -14069252 
3706.282 -14105338 -14355035 -14822204 -15487437 -16312554 -17237194 
3706.644 -18184112 -19068758 -19795624 -20274120 -20430530 -20216816 
3707.006 -19631260 -18723166 -17593740 -16367886 -15176065 -14126315 
3707.367 -13280223 -12657041 -12239210 -11993514 -11885590 -11896713 
3707.729 -12027969 -12296546 -12724844 -13328328 -14101714 -15011766 
3708.091 -15991651 -16942466 -17757480 -18334670 -18605378 -18551154 
3708.453 -18205910 -17650626 -16992558 -16358474 -15861236 -15580437 
3708.815 -15549460 -15744586 -16095527 -16504785 -16884912 -17172448 
3709.177 -17342460 -17404378 -17389098 -17334626 -17274800 -17240920 
3709.538 -17260312 -17358378 -17556288 -17859056 -18243688 -18649532 
3709.900 -18992838 -19182744 -19152722 -18888034 -18432906 -17887962 
3710.262 -17384386 -17082464 -17143688 -17722934 -18978912 -21074862 
3710.624 -24175212 -28352272 -33420566 -38546804 -42091700 -42552904 
3710.986 -40038952 -36169236 -32441386 -29534928 -27463182 -25968508 
3711.347 -24741658 -23523478 -22159390 -20622558 -19009932 -17501296 
3711.709 -16296182 -15529576 -15251762 -15418434 -15926879 -16644318 
3712.071 -17450500 -18263290 -19031402 -19731736 -20351494 -20875168 
3712.433 -21284872 -21566074 -21717860 -21753032 -21693054 -21558760 
3712.795 -21366262 -21133062 -20890296 -20686508 -20597438 -20711370 
3713.156 -21114820 -21879138 -23053830 -24676458 -26784966 -29468958 
3713.518 -32857162 -36960180 -41175088 -43837172 -43502916 -40863124 
3713.880 -37602164 -34669832 -32282322 -30401162 -28926598 -27758224 
3714.242 -26797084 -25937984 -25078526 -24142398 -23106866 -22009206 
3714.604 -20937598 -19992872 -19267000 -18807606 -18603948 -18589314 
3714.966 -18659498 -18705360 -18636580 -18414328 -18055944 -17630170 
3715.327 -17227130 -16936444 -16816830 -16876880 -17073704 -17326382 
3715.689 -17551768 -17690138 -17738044 -17752072 -17842108 -18134764 
3716.051 -18735574 -19682434 -20901568 -22182814 -23217596 -23739368 
3716.413 -23623968 -22940132 -21870506 -20623476 -19357578 -18162760 
3716.775 -17088484 -16158804 -15394833 -14827231 -14483565 -14375167 
3717.136 -14476546 -14723692 -15016823 -15245812 -15327989 -15225561 
3717.498 -14963559 -14615066 -14283608 -14063446 -14013048 -14146488 
3717.860 -14433471 -14815511 -15221978 -15593415 -15885545 -16074900 
3718.222 -16158676 -16152067 -16085405 -15996313 -15924387 -15897077 
3718.584 -15919436 -15968943 -16002284 -15970699 -15836956 -15595269 
3718.946 -15274891 -14933819 -14633904 -14425074 -14324998 -14316309 
3719.307 -14355131 -14393406 -14402221 -14382796 -14366576 -14399656 
3719.669 -14526825 -14771221 -15131621 -15589739 -16129401 -16754318 
3720.031 -17500374 -18430016 -19614346 -21092348 -22824806 -24628434 
3720.393 -26172144 -27068764 -27038192 -26086064 -24482516 -22607390 
3720.755 -20764282 -19136044 -17789570 -16709780 -15851811 -15170274 
3721.116 -14642970 -14281010 -14122723 -14211526 -14571717 -15180417 
3721.478 -15956774 -16761078 -17438404 -17852950 -17930028 -17677192 
3721.840 -17171652 -16533079 -15879955 -15318681 -14920020 -14716933 
3722.202 -14713475 -14892262 -15224826 -15674217 -16201898 -16765412 
3722.564 -17319058 -17824872 -18255220 -18603218 -18883212 -19127960 
3722.926 -19375990 -19655516 -19976670 -20329646 -20698196 -21078364 
3723.287 -21498630 -22029332 -22783054 -23887918 -25439256 -27392322 
3723.649 -29462116 -31087484 -31703610 -31143002 -29707998 -27899004 
3724.011 -26113552 -24585698 -23385322 -22483760 -21797152 -21223978 
3724.373 -20679304 -20130118 -19602470 -19159568 -18855706 -18699076 
3724.735 -18641534 -18591346 -18451294 -18145948 -17657976 -17030376 
3725.096 -16354198 -15727745 -15229656 -14900203 -14738297 -14719880 
3725.458 -14820570 -15034907 -15376540 -15862161 -16485900 -17194424 
3725.820 -17891586 -18472888 -18867890 -19081380 -19192666 -19330198 
3726.182 -19615012 -20118286 -20800826 -21490148 -21891424 -21728796 
3726.544 -20931440 -19691142 -18353030 -17229518 -16530430 -16324075 
3726.906 -16573170 -17155058 -17896514 -18592234 -19050778 -19160774 
3727.267 -18914300 -18407532 -17786740 -17207926 -16790788 -16605541 
3727.629 -16693328 -17075870 -17772746 -18801514 -20171840 -21840384 
3727.991 -23626792 -25171400 -25995412 -25801342 -24715522 -23164134 
3728.353 -21549206 -20085386 -18847712 -17830214 -17002020 -16336072 
3728.715 -15816029 -15435253 -15194655 -15093667 -15122565 -15252210 
3729.076 -15431576 -15582195 -15616111 -15472090 -15143684 -14697107 
3729.438 -14246927 -13926418 -13834507 -14010289 -14417061 -14950146 
3729.800 -15457893 -15786061 -15843026 -15627969 -15234967 -14802958 
3730.162 -14471098 -14321984 -14365775 -14555216 -14816151 -15082018 
3730.524 -15311676 -15499970 -15663894 -15825806 -15994843 -16162347 
3730.885 -16306650 -16408760 -16461018 -16473491 -16466601 -16460827 
3731.247 -16465101 -16473843 -16473332 -16455881 -16429020 -16416449 
3731.609 -16446566 -16541945 -16705699 -16919364 -17148210 -17353284 
3731.971 -17506642 -17595522 -17625620 -17616298 -17596984 -17600644 
3732.333 -17658866 -17798412 -18029402 -18335624 -18668386 -18960296 
3732.695 -19140386 -19165814 -19044182 -18841334 -18671400 -18665242 
3733.056 -18953982 -19633888 -20765072 -22385274 -24563780 -27459730 
3733.418 -31378318 -36793752 -44046640 -52277532 -58244568 -58424784 
3733.780 -53568668 -47067188 -41131632 -36365980 -32693210 -29901258 
3734.142 -27765218 -26094208 -24736462 -23580410 -22560710 -21656112 
3734.504 -20873370 -20227314 -19714446 -19315936 -18982846 -18670068 
3734.865 -18354142 -18044248 -17779902 -17608758 -17565196 -17652854 
3735.227 -17853620 -18146776 -18533502 -19048336 -19756874 -20731524 
3735.589 -22021176 -23610820 -25408694 -27245838 -28951736 -30434372 
3735.951 -31738724 -33028606 -34517764 -36366224 -38561360 -40792756 
3736.313 -42420372 -42763292 -41549832 -39203584 -36483528 -34063172 
3736.675 -32299488 -31308650 -31090230 -31542766 -32434438 -33358372 
3737.036 -33874756 -33700460 -32839068 -31497716 -29924734 -28327718 
3737.398 -26848200 -25598002 -24651070 -24043500 -23788334 -23881300 
3737.760 -24330912 -25189880 -26592996 -28785590 -32127016 -37037624 
3738.122 -43622896 -50780760 -55593120 -55170252 -50150220 -43551236 
3738.484 -37556220 -32811478 -29218818 -26514108 -24439360 -22809368 
3738.845 -21507868 -20466028 -19643832 -19009994 -18532104 -18178012 
3739.207 -17927992 -17787694 -17797870 -18026956 -18551376 -19435656 
3739.569 -20703282 -22312792 -24117668 -25866188 -27197756 -27745790 
3739.931 -27333430 -26095518 -24415836 -22693280 -21210000 -20080988 
3740.293 -19306270 -18835370 -18597504 -18521944 -18542326 -18604932 
3740.655 -18671400 -18721102 -18753852 -18782920 -18824582 -18885210 
3741.016 -18952840 -18994866 -18967812 -18827436 -18551280 -18151352 
3741.378 -17683458 -17232098 -16893868 -16752055 -16847908 -17168850 
3741.740 -17647286 -18184368 -18669178 -19015356 -19184044 -19180810 
3742.102 -19045958 -18832038 -18593916 -18374724 -18211026 -18144106 
3742.464 -18225038 -18522008 -19108492 -20031758 -21260674 -22628872 
3742.825 -23854830 -24626900 -24781812 -24371856 -23601058 -22701582 
3743.187 -21855446 -21179074 -20711592 -20435650 -20291006 -20201540 
3743.549 -20092790 -19916096 -19659476 -19342558 -19008568 -18704346 
3743.911 -18472790 -18338260 -18304144 -18353634 -18455612 -18571664 
3744.273 -18661592 -18696982 -18665846 -18581220 -18479524 -18419792 
3744.635 -18470950 -18694666 -19138770 -19824558 -20748614 -21890166 
3744.996 -23231730 -24778964 -26574888 -28721924 -31383622 -34766244 
3745.358 -39063180 -44265464 -49896860 -54915808 -58076536 -58678228 
3745.720 -56777584 -52899220 -47467508 -40708592 -33074356 -26060854 
3746.082 -23551286 -29756392 -41821588 -51513988 -55540876 -55238648 
3746.444 -52567700 -48981524 -45317100 -41878036 -38652096 -35533892 
3746.805 -32441572 -29390094 -26466192 -23808850 -21544636 -19779384 
3747.167 -18557186 -17834952 -17503938 -17418512 -17451582 -17518418 
3747.529 -17599212 -17720454 -17924526 -18232378 -18624392 -19041710 
3747.891 -19416484 -19697918 -19870364 -19947744 -19952524 -19896064 
3748.253 -19774352 -19579856 -19323162 -19047448 -18837906 -18799294 
3748.615 -19030196 -19592208 -20476206 -21580608 -22706142 -23618664 
3748.976 -24115316 -24118044 -23692840 -22995918 -22189646 -21384526 
3749.338 -20644140 -19992586 -19440660 -19001716 -18692380 -18526516 
3749.700 -18506926 -18620868 -18842826 -19144318 -19506556 -19924548 
3750.062 -20409032 -20978358 -21653054 -22451698 -23395526 -24515994 
3750.424 -25876240 -27596938 -29893280 -33155870 -38094656 -46018176 
3750.785 -59282700 -80906064 -108183176 -120248696 -105209456 -83330784 
3751.147 -66762932 -55597288 -47835732 -42070140 -37529748 -33819588 
3751.509 -30763584 -28299686 -26387842 -24993542 -24050618 -23457654 
3751.871 -23091848 -22839736 -22629250 -22439710 -22298848 -22256386 
3752.233 -22355848 -22603900 -22957514 -23328394 -23620516 -23763366 
3752.594 -23745046 -23612136 -23451878 -23357722 -23398320 -23611948 
3752.956 -23996192 -24518844 -25121244 -25737582 -26304520 -26764592 
3753.318 -27081030 -27250600 -27346434 -27588356 -28554262 -31538732 
3753.680 -38855264 -52168328 -66117400 -70422952 -65212160 -56879360 
3754.042 -48892864 -42162608 -36718524 -32415342 -29108894 -26649528 
3754.404 -24917242 -23791722 -23137558 -22803332 -22623052 -22442858 
3754.765 -22133506 -21627930 -20931218 -20118636 -19306460 -18621060 
3755.127 -18160886 -17952060 -17932380 -17961628 -17889296 -17609456 
3755.489 -17119734 -16512346 -15937004 -15533092 -15381688 -15494119 
3755.851 -15810886 -16228233 -16625376 -16909166 -17030090 -16991442 
3756.213 -16836848 -16631754 -16442928 -16320277 -16299533 -16398039 
3756.574 -16615650 -16931248 -17300528 -17657182 -17914288 -17989986 
3756.936 -17826684 -17414914 -16803538 -16096547 -15429529 -14924439 
3757.298 -14676030 -14723596 -15051167 -15606170 -16316671 -17130532 
3757.660 -18031026 -19053600 -20277440 -21804400 -23717876 -26004742 
3758.022 -28439764 -30542138 -31660148 -31371012 -29795218 -27478516 
3758.384 -24994920 -22698344 -20736358 -19109536 -17762632 -16640140 
3758.745 -15712375 -14990512 -14519616 -14349394 -14509425 -14977644 
3759.107 -15675718 -16470684 -17209360 -17761836 -18042404 -18038176 
3759.469 -17802610 -17437640 -17051308 -16729355 -16514353 -16399890 
3759.831 -16344817 -16297331 -16223924 -16122889 -16031569 -16014611 
3760.193 -16151207 -16504593 -17096928 -17880108 -18727386 -19443036 
3760.554 -19809616 -19694182 -19116068 -18261700 -17391390 -16774848 
3760.916 -16619604 -17059272 -18187990 -20072540 -22754694 -26138762 
3761.278 -29848088 -33073590 -34789796 -34515072 -32683100 -30159690 
3761.640 -27595632 -25314336 -23413420 -21881942 -20685560 -19772674 
3762.002 -19080112 -18533596 -18058552 -17595968 -17115338 -16624579 
3762.364 -16165763 -15801109 -15586128 -15554671 -15703140 -15990851 
3762.725 -16345870 -16683634 -16932364 -17042324 -17004186 -16848290 
3763.087 -16639918 -16455881 -16363867 -16403239 -16569469 -16814344 
3763.449 -17057616 -17217926 -17228562 -17060644 -16726423 -16272247 
3763.811 -15761809 -15255793 -14806801 -14450042 -14207967 -14095844 
3764.173 -14122819 -14289122 -14579375 -14960454 -15379290 -15774302 
3764.534 -16093930 -16307512 -16418587 -16461400 -16493302 -16573297 
3764.896 -16744245 -17024898 -17404440 -17846114 -18292294 -18678986 
3765.258 -18938440 -19011042 -18860116 -18478728 -17901030 -17199104 
3765.620 -16483795 -15879061 -15494055 -15403531 -15616302 -16070876 
3765.982 -16639279 -17169806 -17516126 -17583812 -17359904 -16914676 
3766.344 -16377363 -15884619 -15552626 -15436213 -15526698 -15767848 
3766.705 -16093099 -16462805 -16890872 -17455498 -18292326 -19570544 
3767.067 -21443914 -23949098 -26829856 -29432022 -30837598 -30528520 
3767.429 -28803080 -26434612 -24063878 -21992924 -20292588 -18916616 
3767.791 -17806618 -16935552 -16310001 -15961470 -15912121 -16144088 
3768.153 -16583662 -17109924 -17595044 -17929646 -18065608 -18019358 
3768.514 -17854034 -17641114 -17428060 -17226142 -17016804 -16775582 
3768.876 -16498661 -16214220 -15978238 -15851332 -15870724 -16039297 
3769.238 -16324777 -16677799 -17047706 -17401194 -17720200 -17990336 
3769.600 -18190022 -18284068 -18232568 -18013000 -17638282 -17165984 
3769.962 -16680893 -16278183 -16027577 -15952783 -16031792 -16210454 
3770.323 -16430199 -16646264 -16843574 -17028050 -17213404 -17406160 
3770.685 -17602044 -17794404 -17988716 -18218270 -18552106 -19090448 
3771.047 -19971068 -21362856 -23468704 -26480098 -30450064 -34964236 
3771.409 -38783904 -40370684 -39266640 -36492604 -33326492 -30521230 
3771.771 -28308472 -26653390 -25443006 -24530712 -23768824 -23019390 
3772.133 -22183632 -21217984 -20139324 -19010534 -17917564 -16942626 
3772.494 -16135436 -15515157 -15073378 -14791781 -14657225 -14669239 
3772.856 -14834180 -15149284 -15587470 -16091632 -16576806 -16958910 
3773.218 -17174040 -17195442 -17035952 -16739462 -16368557 -15988616 
3773.580 -15671244 -15485423 -15485167 -15700677 -16115386 -16659304 
3773.942 -17206336 -17611398 -17746696 -17541840 -17013650 -16262736 
3774.303 -15445422 -14713539 -14185904 -13913422 -13880882 -14024886 
3774.665 -14264178 -14524198 -14737689 -14851343 -14821307 -14617533 
3775.027 -14239488 -13731598 -13190264 -12736910 -12494168 -12538336 
3775.389 -12866530 -13393424 -13977917 -14479238 -14793190 -14892807 
3775.751 -14818617 -14652804 -14470585 -14315187 -14192189 -14087375 
3776.113 -13995050 -13937360 -13957446 -14097768 -14362601 -14698516 
3776.474 -14991600 -15106116 -14937180 -14448343 -13697728 -12822137 
3776.836 -12005246 -11406504 -11133790 -11216329 -11613660 -12238308 
3777.198 -12985981 -13765497 -14498338 -15127141 -15613809 -15933873 
3777.560 -16081573 -16067397 -15917584 -15663126 -15333490 -14950082 
3777.922 -14524903 -14069027 -13601498 -13152462 -12765225 -12483511 
3778.283 -12337740 -12337192 -12465965 -12691475 -12974725 -13284625 
3778.645 -13603168 -13921797 -14236858 -14541278 -14822812 -15069026 
3779.007 -15273611 -15443567 -15599073 -15769988 -15983475 -16253257 
3779.369 -16571255 -16906774 -17211494 -17427870 -17508172 -17421982 
3779.731 -17165536 -16762543 -16263247 -15734904 -15243093 -14842473 
3780.093 -14557042 -14379751 -14271296 -14191163 -14121023 -14081987 
3780.454 -14137316 -14383886 -14930777 -15875291 -17294606 -19238092 
3780.816 -21733492 -24733082 -28041946 -31230120 -33628036 -34652424 
3781.178 -34189460 -32607924 -30406848 -27965464 -25511996 -23171360 
3781.540 -21036256 -19184646 -17662112 -16489729 -15648361 -15088259 
3781.902 -14743742 -14555312 -14483949 -14511605 -14636210 -14857555 
3782.263 -15163971 -15527530 -15900878 -16222935 -16434060 -16482903 
3782.625 -16342806 -16022978 -15573788 -15081058 -14644507 -14363947 
3782.987 -14302042 -14468341 -14812277 -15241493 -15645165 -15925538 
3783.349 -16030515 -15956679 -15744874 -15453640 -15141540 -14846924 
3783.711 -14586904 -14368082 -14199341 -14098218 -14090134 -14194530 
3784.073 -14413888 -14725453 -15088611 -15455686 -15789671 -16078029 
3784.434 -16332339 -16579548 -16845166 -17139738 -17448910 -17734704 
3784.796 -17940964 -18010268 -17896960 -17577194 -17060004 -16388148 
3785.158 -15637366 -14897001 -14265780 -13830046 -13645714 -13735290 
3785.520 -14084745 -14655560 -15395280 -16255459 -17196272 -18175724 
3785.882 -19143908 -20025620 -20717814 -21119806 -21170682 -20894622 
3786.243 -20396798 -19829244 -19321640 -18937742 -18678954 -18499908 
3786.605 -18342928 -18162188 -17945828 -17714920 -17508172 -17354334 
3786.967 -17253656 -17173276 -17066090 -16890170 -16634656 -16326755 
3787.329 -16028823 -15816860 -15754875 -15881777 -16197206 -16666224 
3787.691 -17226874 -17811006 -18352584 -18799294 -19120126 -19303514 
3788.052 -19355456 -19292800 -19139246 -18918106 -18646008 -18334894 
3788.414 -17991892 -17625620 -17252892 -16898296 -16589563 -16346507 
3788.776 -16167583 -16024256 -15865453 -15640274 -15315643 -14900779 
3789.138 -14448696 -14048690 -13790374 -13730249 -13868815 -14145623 
3789.500 -14455874 -14680194 -14732308 -14577292 -14244393 -13807932 
3789.862 -13366789 -13009069 -12786942 -12715448 -12776582 -12938931 
3790.223 -13171075 -13455458 -13786811 -14164513 -14581425 -15015511 
3790.585 -15427259 -15772546 -16013302 -16136648 -16161742 -16139425 
3790.947 -16134189 -16197462 -16349060 -16561497 -16767230 -16874778 
3791.309 -16809404 -16537160 -16081318 -15512408 -14929689 -14426965 
3791.671 -14060623 -13845355 -13756766 -13753780 -13797307 -13866409 
3792.032 -13956901 -14067584 -14186224 -14281619 -14309512 -14234871 
3792.394 -14051544 -13797564 -13544141 -13379320 -13369842 -13530812 
3792.756 -13817368 -14137412 -14388566 -14486769 -14403118 -14168874 
3793.118 -13865350 -13587400 -13417519 -13400107 -13533414 -13780584 
3793.480 -14089845 -14417991 -14739706 -15052607 -15367169 -15693551 
3793.842 -16027896 -16346252 -16603339 -16747784 -16733628 -16535373 
3794.203 -16158836 -15639732 -15037276 -14414241 -13831137 -13332345 
3794.565 -12943755 -12680502 -12549796 -12555430 -12693984 -12948322 
3794.927 -13279773 -13625389 -13915957 -14090551 -14121119 -14024694 
3795.289 -13859220 -13700553 -13606732 -13599796 -13655090 -13721260 
3795.651 -13748387 -13724567 -13687294 -13715193 -13886370 -14243271 
3796.012 -14761614 -15360101 -15925698 -16369130 -16667724 -16874904 
3796.374 -17094090 -17421250 -17895530 -18462820 -18989918 -19303068 
3796.736 -19269918 -18847584 -18114296 -17239454 -16443217 -15922375 
3797.098 -15785133 -16044309 -16623940 -17408070 -18271456 -19125422 
3797.460 -19933534 -20708778 -21508974 -22428258 -23593748 -25150982 
3797.822 -27217766 -29751472 -32379362 -34342192 -34929296 -34045676 
3798.183 -32170772 -29896464 -27620600 -25548770 -23744010 -22201704 
3798.545 -20890232 -19764094 -18783428 -17924940 -17184168 -16573904 
3798.907 -16113309 -15815327 -15683612 -15711928 -15891647 -16214604 
3799.269 -16673367 -17248816 -17893272 -18527690 -19048780 -19350448 
3799.631 -19359798 -19043802 -18421634 -17557114 -16556425 -15548726 
3799.992 -14660269 -14009487 -13679331 -13712368 -14112330 -14845227 
3800.354 -15841780 -16996222 -18188244 -19290392 -20194550 -20838758 
3800.716 -21209778 -21340364 -21287428 -21118418 -20890518 -20643918 
3801.078 -20405050 -20186610 -19990844 -19810694 -19631988 -19437524 
3801.440 -19218122 -18984908 -18779684 -18673336 -18746078 -19069044 
3801.802 -19666600 -20496024 -21432844 -22308638 -22970430 -23341456 
3802.163 -23461484 -23470618 -23559728 -23892558 -24574550 -25624116 
3802.525 -26990492 -28553456 -30161854 -31675796 -32988254 -34096560 
3802.887 -35178704 -36668892 -38605564 -40166324 -40643148 -40159492 
3803.249 -39028352 -37459176 -35583744 -33490018 -31262710 -28985492 
3803.611 -26753906 -24657706 -22769722 -21158942 -19870300 -18934412 
3803.972 -18375932 -18212804 -18464598 -19147078 -20264474 -21777896 
3804.334 -23563932 -25394662 -26911208 -27734942 -27643328 -26678788 
3804.696 -25112864 -23280850 -21467032 -19839342 -18484698 -17442670 
3805.058 -16718706 -16297841 -16137158 -16165636 -16279683 -16362015 
3805.420 -16311342 -16059030 -15600256 -14995858 -14368564 -13861788 
3805.781 -13603264 -13670984 -14062162 -14693359 -15414883 -16061617 
3806.143 -16478660 -16570777 -16324967 -15808681 -15150116 -14497120 
3806.505 -13995467 -13741260 -13769606 -14053598 -14523526 -15088387 
3806.867 -15661849 -16185427 -16628565 -16986886 -17272952 -17507184 
3807.229 -17711706 -17907548 -18117888 -18363162 -18658418 -19005490 
3807.591 -19388664 -19774382 -20119424 -20388738 -20567322 -20671942 
3807.952 -20745992 -20855242 -21071830 -21463720 -22099562 -23062880 
3808.314 -24486432 -26581308 -29620574 -33641988 -37692884 -39834340 
3808.676 -39259256 -37084168 -34538692 -32163080 -30073502 -28248026 
3809.038 -26651770 -25253128 -24021744 -22934382 -21965896 -21097270 
3809.400 -20322246 -19647696 -19092732 -18679940 -18421282 -18310626 
3809.761 -18317296 -18392160 -18469712 -18482890 -18376724 -18112326 
3810.123 -17677764 -17090460 -16398869 -15674440 -15004756 -14480039 
3810.485 -14166469 -14094657 -14246029 -14558901 -14936380 -15274987 
3810.847 -15494471 -15548981 -15440051 -15207261 -14915379 -14628554 
3811.209 -14396163 -14243432 -14167206 -14142480 -14129426 -14087601 
3811.571 -13980933 -13789411 -13514850 -13184286 -12846297 -12559325 
3811.932 -12381087 -12347530 -12462069 -12691925 -12979903 -13259012 
3812.294 -13473704 -13600952 -13655090 -13684950 -13753427 -13923658 
3812.656 -14234358 -14686921 -15241397 -15825104 -16348550 -16718803 
3813.018 -16869614 -16774593 -16461113 -16004648 -15522606 -15146724 
3813.380 -14981453 -15085571 -15447212 -15991554 -16595718 -17131678 
3813.741 -17504894 -17670702 -17644296 -17480228 -17247224 -16993514 
3814.103 -16737390 -16467206 -16161485 -15809832 -15429210 -15060928 
3814.465 -14757930 -14556497 -14456675 -14412125 -14346220 -14176828 
3814.827 -13845291 -13344137 -12724297 -12087685 -11551814 -11230827 
3815.189 -11203220 -11492574 -12066803 -12844399 -13717408 -14560407 
3815.551 -15264559 -15755866 -16006820 -16044086 -15941316 -15803089 
3815.912 -15729759 -15800055 -16049450 -16465006 -16996476 -17577638 
3816.274 -18153672 -18690982 -19183632 -19641996 -20075704 -20480410 
3816.636 -20836926 -21124666 -21343644 -21537194 -21803800 -22279082 
3816.998 -23124334 -24487746 -26484212 -29180496 -32615236 -36856220 
3817.360 -42027520 -48420892 -56506420 -66541912 -76976832 -82517536 
3817.721 -78808848 -69453160 -59882672 -51964736 -45585584 -40302144 
3818.083 -35793724 -31879176 -28487988 -25586694 -23152922 -21173300 
3818.445 -19615328 -18436114 -17582602 -16997622 -16622251 -16401229 
3818.807 -16290693 -16256735 -16278533 -16346157 -16451543 -16581973 
3819.169 -16712075 -16803826 -16818424 -16731555 -16549887 -16317436 
3819.531 -16110405 -16016113 -16097346 -16372066 -16797004 -17285084 
3819.892 -17722426 -18015640 -18122050 -18060330 -17898136 -17720836 
3820.254 -17599498 -17558834 -17578370 -17607550 -17597462 -17514026 
3820.616 -17344242 -17086988 -16739367 -16291842 -15735159 -15076706 
3820.978 -14356542 -13652393 -13079614 -12758050 -12788390 -13217906 
3821.340 -14016160 -15066881 -16201004 -17272794 -18213568 -19063018 
3821.701 -19929580 -20950384 -22243102 -23902656 -26017570 -28704462 
3822.063 -32121540 -36402272 -41470060 -46567512 -49992016 -50155532 
3822.425 -47230856 -42857960 -38468120 -34757832 -31906422 -29895566 
3822.787 -28699034 -28294160 -28690042 -29934878 -32138738 -35461772 
3823.149 -40007436 -45553988 -50859428 -53497488 -51788552 -46813688 
3823.510 -40997548 -35835252 -31756218 -28679370 -26413846 -24793924 
3823.872 -23670092 -22906912 -22369002 -21934996 -21506450 -21030922 
3824.234 -20509268 -19987206 -19530886 -19191970 -18988428 -18888764 
3824.596 -18824074 -18705360 -18462948 -18072344 -17569014 -17033436 
3824.958 -16562676 -16234169 -16076496 -16073750 -16177287 -16333584 
3825.320 -16498661 -16656404 -16818232 -17016038 -17283396 -17638346 
3825.681 -18066940 -18519658 -18917060 -19167940 -19206616 -19010184 
3826.043 -18610202 -18075618 -17497574 -16958748 -16511260 -16171604 
3826.405 -15916849 -15698984 -15462497 -15171010 -14820507 -14443600 
3826.767 -14094593 -13834507 -13706300 -13718564 -13843076 -14026073 
3827.129 -14214572 -14374526 -14509137 -14652869 -14857299 -15164419 
3827.490 -15592808 -16132211 -16752310 -17417842 -18109530 -18843396 
3827.852 -19681926 -20733388 -22137350 -24046166 -26569370 -29685842 
3828.214 -33065208 -35990152 -37536464 -37089828 -34819216 -31491030 
3828.576 -27961704 -24803658 -22328624 -20641832 -19700514 -19370634 
3828.938 -19441802 -19679014 -19852194 -19807086 -19490814 -18946402 
3829.300 -18280732 -17621070 -17075136 -16693423 -16470078 -16357485 
3829.661 -16302023 -16267523 -16250320 -16269630 -16350752 -16503891 
3830.023 -16714562 -16940586 -17125148 -17210602 -17152032 -16933638 
3830.385 -16570874 -16110117 -15614512 -15157987 -14807922 -14607762 
3830.747 -14571109 -14674043 -14865560 -15078627 -15256817 -15370719 
3831.109 -15422878 -15441457 -15462657 -15510458 -15582035 -15647370 
3831.470 -15662136 -15590667 -15421088 -15175266 -14898218 -14646814 
3831.832 -14463887 -14367409 -14349747 -14388085 -14459817 -14555505 
3832.194 -14684807 -14872956 -15151428 -15545305 -16069535 -16725529 
3832.556 -17505496 -18395814 -19384610 -20469790 -21666008 -23019768 
3832.918 -24622454 -26621450 -29214080 -32567102 -36566628 -40480544 
3833.280 -42947532 -42963196 -40785968 -37444524 -33834396 -30426650 
3833.641 -27429060 -24903632 -22854732 -21263070 -20069504 -19186008 
3834.003 -18505784 -17932920 -17398106 -16874904 -16373886 -15927071 
3834.365 -15565509 -15303232 -15134725 -15039677 -14995346 -14983694 
3834.727 -14995090 -15024569 -15064673 -15104133 -15131717 -15144484 
3835.089 -15156835 -15203230 -15330964 -15581077 -15973605 -16491579 
3835.450 -17083292 -17669714 -18174200 -18541628 -18752582 -18826358 
3835.812 -18812080 -18775874 -18781682 -18892730 -19174184 -19701718 
3836.174 -20583722 -21970276 -24055478 -27020010 -30877348 -35149916 
3836.536 -38547836 -39565632 -37830608 -34452236 -30784542 -27611086 
3836.898 -25145072 -23302142 -21920314 -20829156 -19894100 -19033018 
3837.260 -18225292 -17500502 -16919172 -16534450 -16368749 -16397815 
3837.621 -16559456 -16767006 -16936730 -17014158 -16977582 -16839494 
3837.983 -16632712 -16401900 -16191557 -16040765 -15984338 -16046833 
3838.345 -16240330 -16560987 -16989626 -17497128 -18056420 -18659054 
3838.707 -19323226 -20096110 -21039760 -22217636 -23676996 -25454254 
3839.069 -27577130 -30123894 -33307128 -37604352 -43846664 -52740196 
3839.430 -62515944 -67182448 -63529560 -55591660 -47456668 -40480632 
3839.792 -34766948 -30141762 -26466724 -23620390 -21488318 -19961132 
3840.154 -18912366 -18219858 -17777960 -17512690 -17379198 -17351214 
3840.516 -17405364 -17508554 -17616074 -17685304 -17686004 -17617952 
3840.878 -17512944 -17433536 -17454510 -17650374 -18089920 -18829816 
3841.240 -19918124 -21382726 -23211504 -25288986 -27348082 -29007156 
3841.601 -29878928 -29782874 -28821434 -27290524 -25513716 -23742536 
3841.963 -22148306 -20816714 -19792934 -19109124 -18801450 -18936442 
3842.325 -19616216 -20964812 -23051536 -25727774 -28450656 -30248364 
3842.687 -30306958 -28600676 -25811490 -22724476 -19870392 -17525482 
3843.049 -15783122 -14670327 -14173749 -14239488 -14771125 -15621896 
3843.410 -16615268 -17544576 -18220622 -18507308 -18342262 -17763648 
3843.772 -16903174 -15967762 -15169314 -14686600 -14617725 -14957157 
3844.134 -15609493 -16422128 -17244804 -17955684 -18496258 -18867254 
3844.496 -19106080 -19258284 -19357136 -19423774 -19477286 -19557812 
3844.858 -19750606 -20188888 -21063814 -22596760 -24979028 -28217226 
3845.219 -31899772 -35105792 -36693012 -36125332 -33803036 -30603656 
3845.581 -27272320 -24241646 -21712062 -19731736 -18301984 -17398742 
3845.943 -16975510 -16968150 -17290752 -17847768 -18527756 -19218060 
3846.305 -19811294 -20200212 -20300302 -20062036 -19484382 -18621820 
3846.667 -17579706 -16500447 -15524045 -14776601 -14336347 -14214765 
3847.029 -14356703 -14653830 -14981613 -15222361 -15307071 -15226009 
3847.390 -15025049 -14783647 -14588795 -14510035 -14577325 -14780252 
3847.752 -15073665 -15397934 -15690196 -15904041 -16019402 -16043000 
3848.114 -16003594 -15939560 -15889091 -15875675 -15902890 -15955241 
3848.476 -16004840 -16019594 -15973989 -15856443 -15669296 -15424157 
3848.838 -15135013 -14814198 -14472348 -14122979 -13791594 -13516713 
3849.199 -13345068 -13320873 -13464292 -13760072 -14152230 -14560952 
3849.561 -14899819 -15105060 -15158019 -15084707 -14944703 -14803214 
3849.923 -14714532 -14703513 -14769588 -14901131 -15093315 -15357862 
3850.285 -15719725 -16199090 -16792574 -17456262 -18115696 -18677590 
3850.647 -19070440 -19273784 -19330388 -19333716 -19394624 -19613554 
3851.009 -20039510 -20654502 -21369890 -22057930 -22587038 -22866362 
3851.370 -22870828 -22627332 -22189898 -21614248 -20952594 -20251350 
3851.732 -19554548 -18907544 -18345438 -17883542 -17512498 -17201590 
3852.094 -16912734 -16620751 -16330585 -16082915 -15942594 -15971657 
3852.456 -16208507 -16646167 -17232544 -17878836 -18493528 -19008314 
3852.818 -19395320 -19675182 -19907142 -20177408 -20577402 -21210692 
3853.179 -22200256 -23715932 -26017850 -29514992 -34844080 -42784012 
3853.541 -53630964 -65172008 -70905480 -66417524 -56106780 -46031736 
3853.903 -38301208 -32789052 -28878702 -26034484 -23913726 -22316098 
3854.265 -21133062 -20316904 -19836620 -19655548 -19717740 -19957682 
3854.627 -20318452 -20773316 -21344276 -22103844 -23159832 -24629842 
3854.989 -26607082 -29120638 -32127940 -35467388 -38898528 -42166004 
3855.350 -45103104 -47760640 -50518772 -54334076 -60959636 -73531952 
3855.712 -96367896 -125405712 -128278776 -101551584 -78790032 -65636560 
3856.074 -57926588 -52801436 -48834564 -45396196 -42204012 -39115264 
3856.436 -36073772 -33073068 -30156012 -27388464 -24867024 -22693974 
3856.798 -20931880 -19602026 -18663020 -18025970 -17573596 -17196716 
3857.159 -16822600 -16421586 -16007427 -15615887 -15284007 -15028826 
3857.521 -14843370 -14703160 -14583028 -14469688 -14370423 -14306339 
3857.883 -14302844 -14374590 -14518911 -14718279 -14953988 -15222106 
3858.245 -15545784 -15976928 -16590806 -17473322 -18700346 -20315922 
3858.607 -22293372 -24506850 -26684364 -28450316 -29459516 -29529450 
3858.969 -28719164 -27254426 -25420132 -23464716 -21582816 -19928346 
3859.330 -18601314 -17667108 -17146266 -17009890 -17184392 -17563002 
3859.692 -18032772 -18480222 -18817284 -18988618 -18970444 -18770068 
3860.054 -18417314 -17958862 -17443530 -16918630 -16425287 -15994364 
3860.416 -15651366 -15418113 -15312636 -15347820 -15522351 -15814783 
3860.778 -16174350 -16528644 -16798056 -16911682 -16836944 -16587617 
3861.139 -16224435 -15830759 -15492233 -15267757 -15172322 -15179361 
3861.501 -15234967 -15284999 -15289349 -15236215 -15137573 -15017048 
3861.863 -14892871 -14767987 -14627753 -14449849 -14216688 -13929531 
3862.225 -13614503 -13322255 -13115237 -13045822 -13142819 -13396380 
3862.587 -13759334 -14155789 -14511636 -14783039 -14982766 -15192224 
3862.948 -15563399 -16306778 -17655082 -19829592 -22928348 -26765994 
3863.310 -30591706 -33176530 -33552960 -31802074 -28902726 -25858664 
3863.672 -23254438 -21238144 -19744748 -18633502 -17767084 -17048154 
3864.034 -16430775 -15906021 -15473145 -15112037 -14776537 -14406868 
3864.396 -13966334 -13469367 -12997236 -12672327 -12620223 -12922207 
3864.758 -13570155 -14455554 -15391602 -16192546 -16724573 -16960980 
3865.119 -16971526 -16886442 -16839174 -16928730 -17220952 -17749910 
3865.481 -18535946 -19590182 -20906304 -22431844 -24033218 -25503750 
3865.843 -26582400 -27058552 -26886418 -26233034 -25414412 -24752612 
3866.205 -24515148 -24860766 -25881016 -27645100 -30253126 -33811160 
3866.567 -38239952 -42895992 -46141988 -46182808 -42970548 -38136384 
3866.928 -33225030 -28927962 -25422412 -22681676 -20634438 -19223162 
3867.290 -18369960 -17975648 -17911998 -18040750 -18225324 -18350330 
3867.652 -18343024 -18166732 -17824204 -17346980 -16790978 -16224626 
3868.014 -15714036 -15320441 -15082370 -15010006 -15080323 -15243316 
3868.376 -15431160 -15572733 -15614160 -15519185 -15274059 -14885123 
3868.738 -14377892 -13798463 -13208746 -12690316 -12323827 -12173264 
3869.099 -12268555 -12588069 -13057526 -13560424 -13980933 -14228458 
3869.461 -14271776 -14144724 -13937713 -13765208 -13724214 -13873886 
3869.823 -14215214 -14703929 -15270700 -15855357 -16424840 -16978410 
3870.185 -17541648 -18151956 -18845776 -19653142 -20601484 -21721580 
3870.547 -23052416 -24612216 -26342192 -28024364 -29253422 -29649790 
3870.908 -29147812 -28023060 -26642670 -25294206 -24161580 -23343938 
3871.270 -22918510 -22956288 -23533302 -24744100 -26705740 -29527346 
3871.632 -33053112 -36434200 -38144788 -37372536 -34914404 -31924556 
3871.994 -28986854 -26248038 -23735006 -21492512 -19590436 -18133524 
3872.356 -17201494 -16804208 -16874394 -17270056 -17823186 -18372658 
3872.718 -18815952 -19107412 -19238188 -19208010 -19004604 -18607726 
3873.079 -18018914 -17294732 -16557064 -15950132 -15603516 -15573436 
3873.441 -15829640 -16265130 -16735094 -17101928 -17268558 -17215124 
3873.803 -16992048 -16696038 -16419480 -16224626 -16123336 -16087193 
3874.165 -16068738 -16027993 -15948597 -15837787 -15716976 -15607768 
3874.527 -15525803 -15478772 -15472026 -15514262 -15618284 -15800215 
3874.888 -16076241 -16463697 -16987362 -17685462 -18610646 -19820792 
3875.250 -21347934 -23161558 -25136974 -27086788 -28833498 -30291908 
3875.612 -31506870 -32628332 -33842732 -35275492 -36875304 -38281184 
3875.974 -38873288 -38068824 -35852396 -32802016 -29624414 -26754654 
3876.336 -24326338 -22302374 -20575664 -19051380 -17684476 -16486699 
3876.698 -15517107 -14844394 -14495614 -14432222 -14542751 -14683589 
3877.059 -14717734 -14581329 -14307301 -14018984 -13871864 -13994472 
3877.421 -14432671 -15126821 -15926177 -16641289 -17121262 -17285850 
3877.783 -17149102 -16792510 -16330361 -15859766 -15434166 -15065377 
3878.145 -14738009 -14434882 -14154443 -13911978 -13730699 -13625356 
3878.507 -13594690 -13625099 -13705016 -13838327 -14050839 -14378982 
3878.868 -14846444 -15441106 -16101273 -16724223 -17186366 -17392376 
3879.230 -17299922 -16937622 -16391912 -15786732 -15246004 -14852400 
3879.592 -14638036 -14577068 -14605967 -14639767 -14603276 -14448439 
3879.954 -14161851 -13768001 -13322287 -12901301 -12580794 -12429968 
3880.316 -12498450 -12807307 -13350756 -14095170 -14988688 -15957989 
3880.677 -16917226 -17773572 -18425062 -18787172 -18812270 -18515658 
3881.039 -17985726 -17383590 -16920222 -16798344 -17197036 -18232124 
3881.401 -19957588 -22361922 -25395318 -28993302 -33004224 -37091988 
3881.763 -40552320 -42348904 -41779400 -39190020 -35686488 -32228828 
3882.125 -29326456 -27157140 -25734740 -25047938 -25042744 -25605624 
3882.487 -26505814 -27392104 -27866222 -27614910 -26596330 -25030232 
3882.848 -23255380 -21543120 -20046882 -18810494 -17811610 -17015656 
3883.210 -16398614 -15955178 -15688406 -15589420 -15623079 -15722472 
3883.572 -15807275 -15806636 -15679905 -15434774 -15123685 -14827936 
3883.934 -14621698 -14554639 -14631405 -14814102 -15032123 -15211228 
3884.296 -15302496 -15301825 -15260303 -15274251 -15472633 -15973734 
3884.657 -16849342 -18067322 -19464898 -20744664 -21573958 -21743230 
3885.019 -21244804 -20272286 -19109030 -18047204 -17295274 -16954416 
3885.381 -17026108 -17425610 -18013606 -18628710 -19139912 -19457452 
3885.743 -19541276 -19388284 -19012626 -18437544 -17697774 -16854410 
3886.105 -15998485 -15238262 -14684358 -14405939 -14410586 -14635409 
3886.467 -14972298 -15295875 -15505853 -15564646 -15505469 -15426716 
3886.828 -15461058 -15771395 -16535694 -17954634 -20243446 -23577522 
3887.190 -27921222 -32696590 -36741696 -38931272 -39081532 -37845152 
3887.552 -36007964 -34016448 -32005452 -29968092 -27888068 -25791258 
3887.914 -23735194 -21793560 -20037516 -18542392 -17363536 -16536044 
3888.276 -16063500 -15903113 -15970508 -16154718 -16354198 -16492216 
3888.637 -16534481 -16487049 -16381511 -16256640 -16141437 -16047599 
3888.999 -15967794 -15881553 -15762065 -15585680 -15335633 -15006005 
3889.361 -14604270 -14154699 -13698980 -13289863 -12990032 -12852859 
3889.723 -12905321 -13135232 -13485396 -13865189 -14167335 -14310026 
3890.085 -14259015 -14048497 -13768450 -13547128 -13504315 -13703699 
3890.447 -14133692 -14702808 -15277098 -15711639 -15909152 -15847115 
3890.808 -15579127 -15207165 -14842185 -14565757 -14400810 -14319067 
3891.170 -14262959 -14185006 -14070952 -13950997 -13880561 -13916984 
3891.532 -14083783 -14355196 -14657065 -14894728 -14984590 -14883874 
3891.894 -14611767 -14248882 -13922663 -13765497 -13897249 -14392348 
3892.256 -15268909 -16490877 -17988556 -19692282 -21542174 -23522410 
3892.617 -25663940 -28016722 -30587938 -33172478 -35126876 -35524640 
3892.979 -34019880 -31380602 -28652602 -26409826 -24754740 -23588570 
3893.341 -22774062 -22170944 -21651824 -21103678 -20453004 -19675340 
3893.703 -18803038 -17904050 -17057616 -16326595 -15740495 -15303840 
3894.065 -15006165 -14829985 -14763279 -14793350 -14902828 -15060608 
3894.427 -15227512 -15366114 -15456806 -15509146 -15561769 -15666641 
3894.788 -15862035 -16157240 -16521275 -16896608 -17213148 -17420102 
3895.150 -17506294 -17504098 -17478890 -17505052 -17649768 -17950820 
3895.512 -18410706 -18992838 -19629486 -20224818 -20673016 -20887896 
3895.874 -20814596 -20449938 -19839628 -19070756 -18248518 -17470074 
3896.236 -16810838 -16300969 -15928572 -15651748 -15425532 -15223226 
3896.597 -15049919 -14936028 -14918740 -15016375 -15214556 -15465183 
3896.959 -15706623 -15888389 -15983889 -15997751 -15952941 -15874077 
3897.321 -15772481 -15645228 -15482417 -15282056 -15056863 -14832162 
3897.683 -14630027 -14456548 -14292681 -14103285 -13852063 -13526123 
3898.045 -13145712 -12763005 -12436569 -12211989 -12104441 -12098898 
3898.406 -12165725 -12283565 -12452764 -12693889 -13027173 -13448455 
3898.768 -13911881 -14336347 -14630508 -14722635 -14597509 -14302940 
3899.130 -13940954 -13623848 -13446753 -13461305 -13670887 -14048048 
3899.492 -14558068 -15179169 -15903817 -16729610 -17640764 -18591884 
3899.854 -19511532 -20315070 -20921968 -21279604 -21368216 -21203690 
3900.216 -20833578 -20341030 -19843394 -19477348 -19411448 -19826680 
3900.577 -20912272 -22866992 -25893066 -30157064 -35573704 -41456236 
3900.939 -46140528 -47693108 -45765588 -41867896 -37637012 -33821428 
3901.301 -30550200 -27719214 -25209264 -22965652 -20984168 -19282848 
3901.663 -17885766 -16788236 -15959425 -15354120 -14933819 -14677631 
3902.025 -14580368 -14637204 -14824510 -15091076 -15370591 -15596772 
3902.386 -15734712 -15791908 -15815040 -15863055 -15977822 -16164966 
3902.748 -16390190 -16593836 -16715743 -16722819 -16617946 -16448960 
3903.110 -16305311 -16346348 -16818774 -18050192 -20312856 -23473224 
3903.472 -26791602 -29351478 -30729780 -31010828 -30457448 -29310816 
3903.834 -27763820 -25988890 -24139106 -22348768 -20703472 -19234036 
3904.196 -17943348 -16827540 -15894394 -15169730 -14674780 -14407189 
3904.557 -14323491 -14350547 -14409144 -14456323 -14512502 -14664882 
3904.919 -15034107 -15715571 -16737709 -18032964 -19462206 -20845138 
3905.281 -22036294 -22964396 -23653778 -24220214 -24864520 -25862722 
3905.643 -27529738 -30117464 -33453300 -36524132 -37825352 -36886808 
3906.005 -34539368 -31751874 -29026030 -26524674 -24300208 -22380112 
3906.366 -20812764 -19658716 -18945672 -18662132 -18742904 -19089814 
3906.728 -19584828 -20115090 -20587042 -20911642 -21014506 -20843400 
3907.090 -20386714 -19694244 -18883370 -18133332 -17638728 -17589698 
3907.452 -18117920 -19240312 -20789518 -22389774 -23571842 -23943516 
3907.814 -23422682 -22236366 -20762702 -19325698 -18118238 -17216782 
3908.176 -16608538 -16241575 -16051685 -15983731 -15992161 -16041659 
3908.537 -16105009 -16157592 -16183672 -16180001 -16158102 -16139425 
3908.899 -16146131 -16191876 -16276108 -16387543 -16512409 -16643520 
3909.261 -16781702 -16929974 -17082814 -17215188 -17284002 -17241364 
3909.623 -17049652 -16703563 -16235989 -15712919 -15206205 -14771093 
3909.985 -14430523 -14174679 -13977115 -13817368 -13698146 -13648027 
3910.346 -13706749 -13899463 -14218036 -14612568 -15007061 -15318234 
3910.708 -15494567 -15534691 -15493384 -15456646 -15515764 -15731964 
3911.070 -16112704 -16610993 -17137698 -17597622 -17907230 -18022442 
3911.432 -17941918 -17701622 -17357678 -16971336 -16600916 -16289225 
3911.794 -16065544 -15946202 -15934512 -16020551 -16178884 -16370982 
3912.156 -16543763 -16642278 -16625280 -16475214 -16209625 -15879221 
3912.517 -15561800 -15334929 -15254193 -15334770 -15544729 -15813729 
3912.879 -16055390 -16201740 -16217412 -16112799 -15929913 -15724359 
3913.241 -15533636 -15360452 -15172482 -14920725 -14567904 -14115089 
3913.603 -13615402 -13166960 -12889335 -12875311 -13167056 -13732657 
3913.965 -14477091 -15258544 -15936173 -16415365 -16668329 -16743893 
3914.326 -16743064 -16791010 -16984622 -17365572 -17905640 -18521660 
3914.688 -19099580 -19532122 -19756336 -19759154 -19577006 -19270266 
3915.050 -18902088 -18509782 -18097772 -17645602 -17128686 -16540064 
3915.412 -15905861 -15279849 -14731860 -14323747 -14086446 -14017860 
3915.774 -14087440 -14255809 -14483917 -14741148 -15001267 -15227448 
3916.135 -15369120 -15365602 -15160579 -14732436 -14114062 -13403126 
3916.497 -12732245 -12245298 -12049916 -12184444 -12618871 -13267625 
3916.859 -14027934 -14804559 -15538879 -16210582 -16819316 -17362804 
3917.221 -17819242 -18147824 -18309862 -18292548 -18130790 -17899726 
3917.583 -17703404 -17639842 -17769056 -18095450 -18551726 -19013324 
3917.945 -19322530 -19360304 -19089084 -18560646 -17880648 -17173880 
3918.306 -16559998 -16136488 -15997335 -16231425 -16923506 -18154530 
3918.668 -19977714 -22376178 -25131626 -27742620 -29484560 -29791970 
3919.030 -28720126 -26861594 -24876754 -23149716 -21822012 -20879464 
3919.392 -20239492 -19802082 -19471456 -19173296 -18856342 -18499432 
3919.754 -18102984 -17677510 -17229614 -16753521 -16229222 -15634425 
3920.115 -14959205 -14226501 -13496991 -12871740 -12466255 -12369815 
3920.477 -12619322 -13171139 -13911497 -14676157 -15313531 -15725061 
3920.839 -15890688 -15866602 -15755769 -15666898 -15669296 -15788969 
3921.201 -16019307 -16355634 -16825628 -17504382 -18498036 -19895020 
3921.563 -21675750 -23608968 -25192474 -25864314 -25332216 -23794108 
3921.925 -21762928 -19776660 -18197426 -17166970 -16685931 -16645720 
3922.286 -16886504 -17226622 -17518864 -17677796 -17683362 -17568698 
3922.648 -17388652 -17195570 -17018238 -16862984 -16719058 -16568482 
3923.010 -16393604 -16181342 -15927486 -15637813 -15329236 -15025210 
3923.372 -14748162 -14504939 -14276361 -14013113 -13651944 -13134879 
3923.734 -12439338 -11597337 -10701075 -9883614 -9273732 -8972705 -9017395 
3924.156 -9377962 -9968432 -10680967 -11416122 -12101219 -12707661 -13241304 
3924.578 -13731437 -14211911 -14712930 -15251154 -15827212 -16422192 
3924.940 -16999024 -17509826 -17901124 -18135114 -18203146 -18132824 
3925.302 -17977174 -17795294 -17632906 -17507440 -17414722 -17343032 
3925.663 -17289034 -17266776 -17302758 -17417078 -17601758 -17807762 
3926.025 -17957178 -17970818 -17818352 -17541046 -17250472 -17083612 
3926.387 -17172130 -17604844 -18402164 -19497940 -20726248 -21854910 
3926.749 -22628276 -22897608 -22692998 -22195880 -21608132 -21060720 
3927.111 -20598638 -20205840 -19843204 -19471582 -19062606 -18596964 
3927.472 -18063412 -17460240 -16801276 -16121930 -15476885 -14934875 
3927.834 -14553198 -14353529 -14306467 -14335256 -14337212 -14217490 
3928.196 -13929947 -13489604 -12970095 -12469281 -12084397 -11875918 
3928.558 -11856508 -12000831 -12264432 -12605643 -12990450 -13394644 
3928.920 -13793584 -14154443 -14443535 -14636948 -14739098 -14789412 
3929.281 -14862037 -15043870 -15397646 -15938506 -16611535 -17302342 
3929.643 -17849802 -18100250 -17945446 -17351214 -16371971 -15139077 
3930.005 -13836208 -12644747 -11727716 -11195922 -11089899 -11384718 
3930.367 -11998059 -12822234 -13741839 -14670392 -15562312 -16405346 
3930.729 -17206718 -17968146 -18661086 -19220690 -19555530 -19583690 
3931.091 -19276826 -18680034 -17905450 -17088612 -16364440 -15827212 
3931.452 -15521327 -15448044 -15573628 -15846828 -16212657 -16629713 
3931.814 -17069116 -17510908 -17934574 -18305700 -18572838 -18681906 
3932.176 -18591982 -18306336 -17879854 -17411190 -17003294 -16731588 
3932.538 -16628278 -16676364 -16821964 -16991156 -17116708 -17149388 
3932.900 -17067968 -16876848 -16595336 -16249171 -15865803 -15482482 
3933.261 -15150660 -14937725 -14929721 -15209757 -15839832 -16827988 
3933.623 -18108354 -19527686 -20886000 -22027568 -22898142 -23555020 
3933.985 -24089990 -24544114 -24835012 -24775742 -24158256 -22918164 
3934.347 -21206054 -19347976 -17689980 -16510654 -15962301 -16047407 
3934.709 -16641671 -17515840 -18408930 -19070692 -19348356 -19212162 
3935.071 -18736112 -18046408 -17267732 -16497543 -15790118 -15177986 
3935.432 -14695922 -14390970 -14321888 -14533523 -15023801 -15718574 
3935.794 -16481211 -17161842 -17637838 -17860488 -17851456 -17680244 
3936.156 -17426564 -17155854 -16905468 -16679745 -16462997 -16233021 
3936.518 -15976097 -15692817 -15399278 -15119973 -14882914 -14712065 
3936.880 -14622627 -14622787 -14714083 -14892455 -15151524 -15482417 
3937.241 -15874781 -16312936 -16776379 -17232990 -17638634 -17943348 
3937.603 -18093734 -18049364 -17797076 -17357328 -16782946 -16146865 
3937.965 -15530727 -15000307 -14600649 -14353850 -14262382 -14318874 
3938.327 -14513751 -14838118 -15278857 -15812516 -16403239 -16996476 
3938.689 -17530828 -17949070 -18205020 -18276126 -18164000 -17893780 
3939.051 -17506228 -17055034 -16598972 -16189706 -15868647 -15656639 
3939.412 -15551475 -15528489 -15549460 -15575578 -15576025 -15540733 
3939.774 -15480467 -15423230 -15398094 -15426236 -15509562 -15629567 
3940.136 -15750976 -15831653 -15835486 -15737332 -15530631 -15230999 
3940.498 -14877214 -14524871 -14235255 -14064183 -14039515 -14152839 
3940.860 -14354908 -14574441 -14733205 -14774744 -14684197 -14489877 
3941.221 -14254046 -14046476 -13929274 -13934793 -14064697 -14298452 
3941.583 -14609524 -14977003 -15389492 -15840534 -16316479 -16786834 
3941.945 -17207672 -17528124 -17710308 -17746538 -17665324 -17525578 
3942.307 -17394128 -17329182 -17353984 -17451774 -17567202 -17629026 
3942.669 -17567298 -17335582 -16928222 -16384000 -15781684 -15215771 
3943.031 -14784704 -14558612 -14562618 -14771829 -15119429 -15517011 
3943.392 -15872672 -16119983 -16224626 -16184215 -16019657 -15767688 
3943.754 -15477397 -15208509 -15049919 -15122212 -15571934 -16563697 
3944.116 -18225674 -20574716 -23397880 -26222742 -28405564 -29399136 
3944.478 -29055132 -27636146 -25619430 -23432604 -21371782 -19572476 
3944.840 -18055498 -16797036 -15769189 -14966056 -14410041 -14128239 
3945.201 -14124583 -14354042 -14724941 -15115108 -15408424 -15541021 
3945.563 -15511192 -15379993 -15235767 -15169762 -15237207 -15441457 
3945.925 -15735703 -16043415 -16288012 -16414950 -16411854 -16306108 
3946.287 -16157750 -16038114 -16018795 -16150823 -16444461 -16856068 
3946.649 -17284608 -17596220 -17646236 -17339562 -16666895 -15725797 
3947.010 -14694705 -13791369 -13217457 -13085563 -13400267 -14054720 
3947.372 -14882017 -15689973 -16319862 -16679425 -16733341 -16494162 
3947.734 -15995897 -15281448 -14395521 -13393231 -12353714 -11374131 
3948.096 -10565634 -10033159 -9843191 -10016193 -10520617 -11291621 
3948.458 -12244042 -13298026 -14393855 -15486478 -16545486 -17544576 
3948.820 -18445292 -19194602 -19720274 -19941068 -19796416 -19276224 
3949.181 -18444688 -17425960 -16381096 -15462529 -14779996 -14403824 
3949.543 -14347791 -14567777 -14952099 -15340623 -15555311 -15452936 
3949.905 -14991120 -14238077 -13347800 -12489596 -11813077 -11406859 
3950.267 -11288490 -11414993 -11698754 -12037444 -12330751 -12512197 
3950.629 -12557972 -12485926 -12341766 -12185861 -12078114 -12064837 
3950.990 -12181384 -12453633 -12901751 -13546614 -14408471 -15499203 
3951.352 -16805610 -18271358 -19782550 -21154806 -22187190 -22726204 
3951.714 -22738688 -22322580 -21656142 -20916788 -20216910 -19606114 
3952.076 -19079856 -18608520 -18161838 -17724272 -17298140 -16893962 
3952.438 -16517449 -16160879 -15805326 -15434710 -15048478 -14672185 
3952.800 -14349426 -14129329 -14041022 -14076662 -14187859 -14300697 
3953.161 -14345323 -14277548 -14100526 -13860375 -13630045 -13475406 
3953.523 -13434545 -13505568 -13654351 -13829500 -13987542 -14108898 
3953.885 -14199084 -14279568 -14371417 -14483468 -14606768 -14722186 
3954.247 -14811572 -14870138 -14910512 -14958277 -15038365 -15163683 
3954.609 -15323224 -15485231 -15602749 -15632443 -15550931 -15360005 
3954.970 -15083107 -14753030 -14401227 -14047150 -13698530 -13357729 
3955.332 -13028524 -12724393 -12470634 -12296449 -12228386 -12276544 
3955.694 -12426554 -12638568 -12855014 -13019037 -13084791 -13035951 
3956.056 -12888080 -12686358 -12490498 -12362828 -12356837 -12504341 
3956.418 -12816764 -13284433 -13881139 -14563771 -15275787 -15953038 
3956.780 -16520670 -16909260 -17065932 -16964932 -16617946 -16074900 
3957.141 -15418625 -14741660 -14137155 -13679684 -13409134 -13330127 
3957.503 -13410805 -13596231 -13815699 -14005381 -14122274 -14150433 
3957.865 -14105274 -14027132 -13969735 -13979713 -14088627 -14303133 
3958.227 -14606512 -14963559 -15331220 -15671467 -15954124 -16162794 
3958.589 -16293949 -16352380 -16347209 -16287055 -16180448 -16032271 
3958.950 -15844719 -15617293 -15349227 -15043677 -14715396 -14393117 
3959.312 -14124583 -13965275 -13963126 -14145719 -14503016 -14986703 
3959.674 -15514198 -15998038 -16368685 -16594347 -16689660 -16701363 
3960.036 -16684271 -16671326 -16663609 -16631404 -16534897 -16342008 
3960.398 -16050249 -15687767 -15307678 -14965991 -14706587 -14553005 
3960.760 -14508400 -14564957 -14712994 -14944703 -15249970 -15607096 
3961.121 -15980728 -16319033 -16568609 -16692499 -16679203 -16546985 
3961.483 -16331511 -16068609 -15775325 -15448396 -15072834 -14642553 
3961.845 -14177630 -13732240 -13377263 -13184157 -13191068 -13387608 
3962.207 -13713171 -14081281 -14410650 -14646526 -14778939 -14835172 
3962.569 -14861781 -14898025 -14963399 -15054272 -15154084 -15248467 
3962.930 -15336561 -15432119 -15554256 -15714483 -15906116 -16103668 
3963.292 -16274801 -16395774 -16465867 -16508358 -16560508 -16651748 
3963.654 -16783106 -16921114 -17006992 -16983380 -16811348 -16488388 
3964.016 -16043257 -15523789 -14976908 -14436035 -13921604 -13444087 
3964.378 -13017912 -12672424 -12451766 -12411066 -12599302 -13037656 
3964.740 -13707424 -14543424 -15448939 -16303714 -17000428 -17464474 
3965.101 -17663450 -17612894 -17366718 -17006386 -16614502 -16266279 
3965.463 -16012313 -15868679 -15819831 -15825007 -15837532 -15816029 
3965.825 -15743818 -15633723 -15525196 -15466207 -15494151 -15616782 
3966.187 -15803155 -15988361 -16094696 -16067460 -15896151 -15630430 
3966.549 -15361221 -15196415 -15210556 -15409927 -15719054 -16000880 
3966.910 -16100187 -15887653 -15317434 -14441805 -13407270 -12399796 
3967.272 -11609145 -11170767 -11131691 -11454753 -12038475 -12760849 
3967.634 -13501296 -14176090 -14742365 -15188960 -15525675 -15766986 
3967.996 -15924037 -15999634 -15990118 -15889794 -15696237 -15417762 
3968.358 -15079170 -14723980 -14418407 -14238815 -14253597 -14506221 
3968.719 -14991760 -15650854 -16371589 -17026362 -17496490 -17709576 
3969.081 -17663194 -17423636 -17105400 -16825882 -16681019 -16710673 
3969.443 -16897596 -17181748 -17490030 -17763776 -17971358 -18113154 
3969.805 -18205370 -18261830 -18277206 -18223354 -18055944 -17737630 
3970.167 -17253498 -16626874 -15915604 -15204573 -14577325 -14095010 
3970.529 -13785463 -13636787 -13606732 -13637847 -13683024 -13719591 
3970.890 -13756476 -13824237 -13958248 -14176090 -14464111 -14773848 
3971.252 -15031131 -15155779 -15074914 -14749379 -14184846 -13438464 
3971.614 -12605128 -11808047 -11177645 -10816728 -10791034 -11105854 
3971.976 -11706753 -12479873 -13278198 -13956452 -14387412 -14500229 
3972.338 -14288866 -13809184 -13155773 -12440239 -11768996 -11219107 
3972.699 -10845781 -10682681 -10747754 -11045648 -11560752 -12252740 
3973.061 -13047816 -13853475 -14580048 -15161507 -15584497 -15891807 
3973.423 -16173169 -16523317 -17012822 -17650374 -18375262 -19066634 
3973.785 -19583340 -19817562 -19717804 -19309978 -18678128 -17944208 
3974.147 -17228660 -16631149 -16224274 -16040223 -16075570 -16289672 
3974.509 -16612716 -16947150 -17184868 -17235632 -17039490 -16595239 
3974.870 -15961278 -15253617 -14609876 -14155629 -13981638 -14117014 
3975.232 -14533811 -15155108 -15883949 -16611759 -17237640 -17684126 
3975.594 -17893590 -17837814 -17519244 -16970508 -16248757 -15424157 
3975.956 -14573832 -13762480 -13040131 -12442654 -11991387 -11701560 
3976.318 -11582820 -11637113 -11850351 -12184896 -12581084 -12956234 
3976.679 -13226873 -13331831 -13247218 -13000933 -12663607 -12334197 
3977.041 -12104151 -12042277 -12177646 -12496937 -12950541 -13464806 
3977.403 -13963318 -14373885 -14647615 -14766769 -14746112 -14627784 
3977.765 -14469495 -14332307 -14257220 -14258374 -14318425 -14399816 
3978.127 -14457220 -14457413 -14392348 -14280594 -14161851 -14079421 
3978.489 -14069187 -14142864 -14282966 -14442830 -14560022 -14567007 
3978.850 -14405970 -14047438 -13497537 -12803896 -12044566 -11321967 
3979.212 -10736375 -10360079 -10226765 -10321124 -10589790 -10955418 
3979.574 -11346436 -11713267 -12035156 -12316483 -12572458 -12813483 
3979.936 -13036916 -13228191 -13372091 -13464710 -13519475 -13563186 
3980.298 -13622531 -13711372 -13819903 -13918716 -13970858 -13953885 
3980.659 -13873276 -13768097 -13695480 -13713781 -13857615 -14121664 
3981.021 -14458214 -14789156 -15033564 -15121860 -15022873 -14750116 
3981.383 -14362440 -13947949 -13605962 -13427157 -13462686 -13714294 
3981.745 -14126315 -14603917 -15026970 -15288230 -15327541 -15145220 
3982.107 -14806096 -14412894 -14080607 -13888231 -13858417 -13952794 
3982.469 -14095651 -14203509 -14220729 -14141678 -14005734 -13877802 
3982.830 -13813388 -13842627 -13958923 -14131703 -14324196 -14517661 
3983.192 -14719432 -14959654 -15271883 -15674440 -16153855 -16665587 
3983.554 -17139196 -17497636 -17681422 -17655780 -17418988 -16996446 
3983.916 -16433900 -15783664 -15095076 -14413247 -13772270 -13198172 
3984.278 -12711748 -12327949 -12059841 -11919988 -11918118 -12061710 
3984.639 -12351330 -12777450 -13317178 -13935242 -14588891 -15228408 
3985.001 -15806893 -16283641 -16624993 -16810488 -16835764 -16717909 
3985.363 -16498405 -16248820 -16061362 -16026746 -16220285 -16670465 
3985.725 -17344146 -18140768 -18915092 -19508712 -19778750 -19646016 
3986.087 -19107222 -18238668 -17167958 -16054081 -15050367 -14267480 
3986.448 -13773618 -13582936 -13666521 -13957960 -14367826 -14795752 
3986.810 -15132325 -15284455 -15187168 -14820314 -14220441 -13482537 
3987.172 -12748622 -12166563 -11870921 -11938170 -12366530 -13072799 
3987.534 -13914385 -14734006 -15388341 -15797308 -15953390 -15914071 
3987.896 -15766762 -15597283 -15457605 -15352617 -15251410 -15112837 
3988.258 -14916115 -14675997 -14442734 -14278414 -14232754 -14314033 
3988.619 -14484012 -14667348 -14788835 -14800268 -14702360 -14541085 
3988.981 -14385200 -14292489 -14280145 -14321119 -14360101 -14348689 
3989.343 -14272738 -14169932 -14114191 -14188052 -14435587 -14836613 
3989.705 -15300993 -15706047 -15933171 -15918639 -15677860 -15299073 
3990.067 -14907407 -14609556 -14465265 -14465681 -14552140 -14646013 
3990.428 -14692622 -14681956 -14646878 -14637716 -14692911 -14813269 
3990.790 -14961286 -15075458 -15101732 -15021305 -14858900 -14673979 
3991.152 -14530223 -14474879 -14515899 -14627337 -14764784 -14891654 
3991.514 -14992401 -15073922 -15150660 -15227160 -15282088 -15271500 
3991.876 -15139781 -14845739 -14382187 -13786554 -13132853 -12513291 
3992.238 -12026292 -11749550 -11732715 -11993611 -12515158 -13245322 
3992.599 -14096453 -14959590 -15704801 -16210806 -16398104 -16248979 
3992.961 -15827915 -15265198 -14736312 -14395970 -14337148 -14565566 
3993.323 -15004500 -15523981 -15985422 -16294651 -16412109 -16355921 
3993.685 -16173169 -15914645 -15610388 -15266093 -14877470 -14448214 
3994.047 -14005092 -13600759 -13295488 -13138254 -13147480 -13302750 
3994.408 -13551367 -13825681 -14068899 -14242117 -14332948 -14347695 
3994.770 -14303037 -14218164 -14111401 -14005701 -13929467 -13919968 
3995.132 -14020170 -14266838 -14680802 -15254897 -15949396 -16688002 
3995.494 -17367738 -17882906 -18135114 -18066530 -17674614 -17021360 
3995.856 -16219679 -15409383 -14731091 -14277804 -14083013 -14113806 
3996.218 -14296432 -14544899 -14800396 -15053311 -15339919 -15715187 
3996.579 -16210614 -16797354 -17372258 -17780092 -17852190 -17480134 
3996.941 -16649261 -15454535 -14066879 -12705441 -11584272 -10854797 
3997.303 -10597453 -10801182 -11383653 -12209347 -13134428 -14039964 
3997.665 -14845739 -15528648 -16112065 -16648145 -17186110 -17748922 
3998.027 -18312498 -18809002 -19137786 -19200624 -18941358 -18367672 
3998.388 -17560330 -16648496 -15788009 -15106725 -14679008 -14515354 
3998.750 -14566206 -14742045 -14934972 -15051583 -15015448 -14780733 
3999.112 -14336154 -13705401 -12949126 -12156511 -11444039 -10925403 
3999.474 -10688500 -10775067 -11163372 -11769802 -12463325 -13109900 
3999.836 -13594176 -13850105 -13870806 -13700586 -13415078 -13091767 
4000.198 -12799457 -12578123 -12439048 -12372360 -12359704 -12387914 
4000.559 -12461329 -12605192 -12861897 -13276912 -13873469 -14635538 
4000.921 -15491817 -16328797 -16998930 -17367164 -17352264 -16952122 
4001.283 -16255714 -15421184 -14646526 -14098602 -13884509 -14023443 
4001.645 -14453022 -15050206 
##END=
