##TITLE=R134a Gas Flow
##JCAMP-DX=5.01  $$ Nicolet v. 1
##DATATYPE=INFRARED SPECTRUM
##ORIGIN=Thermo Fisher Scientific Corporation
##OWNER=Nicolet
##LONGDATE=2026/03/03
##TIME=19:06:24
##SPECTROMETER/DATA SYSTEM=Nicolet iS20
##DATA PROCESSING=
Ratio against background
%Transmittance->Absorbance
Truncated
ElementMultiply or ElementDivide
##COMMENTS=
Number of sample scans: 4
Collection length: 21.22 sec
Sample gain: 4.0
Background collected on: Tue Mar 03 18:40:12 2026 (GMT-07:00);;
Number of background scans: 4
Background gain: 4.0
Sample spacing:  1.000
Number of scan points: 50541
Resolution points: 65536
Number of FFT points: 524288
Apodization: N-B strong;
Phase correction: Mertz;
Laser frequency: 15798.00 cm-1
Number of rejected sample scans: 0
Number of rejected background scans: 0
Bench serial number: BEP2311074;;
##RESOLUTION= 0.500
##XUNITS=1/CM
##YUNITS=ABSORBANCE
##FIRSTX=399.976074
##LASTX=4000.001953
##FIRSTY=0.100856
##MAXX=4000.001953
##MINX=399.976074
##MAXY=1.685313
##MINY=-0.879455
##XFACTOR=1.000000
##YFACTOR=1.000000E-08
##NPOINTS=59738
##DELTAX=0.060265
##ZPD=1525
##XYDATA=(X++(Y..Y))
399.976 10085626 13641047 17964784 21802646 24077430 24235118 22242832 
400.398 18528712 13733196 8609520 3874489 52675 -2586384 -4128528 -4896358 
400.880 -5291705 -5594872 -5902715 -6157739 -6262544 -6235099 -6307275 
401.302 -6829504 -8172285 -10625207 -14367126 -19456092 -25730562 -32700198 
401.724 -39270864 -43953848 -45574780 -44179116 -40983296 -37468116 
402.086 -34664856 -32896132 -31919342 -31014720 -29260776 -25790316 
402.447 -20295750 -13246912 -5752430 909094 5755143 8311115 8724441 7538756 
402.929 5442606 3016888 683138 -1338433 -3025105 -4483695 -5871869 -7299842 
403.412 -8769130 -10137592 -11155277 -11531543 -11105821 -9956490 -8401100 
403.833 -6827675 -5555600 -4749064 -4402143 -4383884 -4495563 -4581756 
404.255 -4642083 -4938437 -5922407 -8082844 -11692945 -16712962 -22730386 
404.677 -29004458 -34457928 -37876904 -38503036 -36464132 -32711702 
405.039 -28365162 -24385568 -21389786 -19714506 -19561072 -21009758 
405.401 -24010574 -28281692 -33252984 -37977304 -41072444 -41144220 
405.762 -37365592 -30099762 -20711922 -10772444 -1484743 6522143 13017040 
406.184 18040320 21709096 24034540 24903016 24108594 21505532 17241352 
406.606 11949492 6745785 2804346 974370 1381376 3488326 6348042 8951466 
407.088 10481587 10341377 8268846 4248005 -1584318 -9083039 -18009216 
407.510 -27673716 -36510524 -41792084 -41159072 -34969188 -25789454 
407.872 -16006450 -6909312 765988 6533567 9998457 10881346 9258021 5636782 
408.354 960032 -3656897 -7058281 -8406547 -7573314 -5181208 -2256826 311524 
408.836 1951556 2500757 2089460 1019071 -363502 -1758075 -2948926 -3834303 
409.318 -4357012 -4412088 -3782486 -2128285 862849 5219270 10558445 16194652 
409.800 21441400 25734944 28729790 30251350 30232086 28720290 25857406 
410.222 21874894 17036226 11660264 6122736 831816 -3739135 -7152870 -9134959 
410.705 -9669899 -9029694 -7692276 -6281607 -5388926 -5464143 -6712629 
411.126 -9030781 -12055721 -15237854 -17984056 -19650240 -19684550 -17813668 
411.548 -14192139 -9412889 -4246959 600566 4722297 7976755 10357587 11890677 
412.031 12574978 12406757 11436519 9816907 7793287 5615457 3487235 1493823 
412.513 -390306 -2235902 -4063135 -5767906 -7108358 -7826046 -7811954 
412.935 -7236045 -6483758 -5999601 -6073477 -6715570 -7654384 -8403300 
413.357 -8437781 -7327029 -4966344 -1638540 2018485 5259482 7446477 8227436 
413.839 7656795 6141350 4285422 2632532 1565625 1210143 1461613 2041581 
414.321 2574926 2676144 1976149 226450 -2658317 -6543412 -11069798 -15589043 
414.803 -19160422 -20836428 -20073322 -17206838 -13270772 -9518585 -6838280 
415.225 -5552087 -5491090 -6096335 -6611944 -6267050 -4658010 -1921365 
415.647 1324551 4345497 6549006 7652480 7694920 6951364 5858137 4891731 
416.129 4528334 5067451 6504211 8445942 10253014 11314946 11319789 10365049 
416.611 8805898 7050133 5371316 3880717 2513425 1092018 -596312 -2686583 
417.093 -5171134 -7911025 -10757486 -13691081 -16908166 -20804692 -25849032 
417.515 -32198894 -38974804 -43229620 -41444492 -34158096 -25417454 
417.877 -18182798 -13289456 -10714908 -10234293 -11808457 -15754387 
418.239 -22922080 -34832652 -53141200 -76330096 -87945464 -72937632 
418.600 -50579532 -32227070 -18249166 -7373037 1148383 7582328 11869133 
419.022 13868666 13806954 12423885 10738049 9495186 9008672 9234515 9984786 
419.504 11064208 12323154 13636996 14758648 15174302 14106861 10969061 
419.926 6223177 1277306 -2591413 -4930176 -5850486 -5654584 -4639493 
420.348 -3050560 -1110356 959778 2865559 4276287 4915353 4618185 3366351 
420.830 1216661 -1761874 -5519853 -9977241 -14895701 -19790018 -23777214 
421.252 -25774846 -25140514 -22145646 -17741478 -12868419 -8150907 -3904383 
421.674 -285200 2559505 4497457 5405065 5206399 3942513 1821604 -754060 
422.156 -3287113 -5245892 -6251895 -6207236 -5322696 -4024201 -2785624 
422.578 -2066404 -2204369 -3405339 -5683671 -8781737 -11999214 -14213273 
423.000 -14506133 -12900613 -10328671 -7739067 -5620009 -3983476 -2614899 
423.422 -1273980 158550 1619175 2860165 3560261 3430830 2328994 337429 
423.904 -2198278 -4679961 -6423825 -6805129 -5553991 -2852010 781861 4757245 
424.386 8594676 11906452 14390877 15767169 15774977 14286147 11388092 
424.808 7434436 2924941 -1558683 -5491913 -8497937 -10309794 -10808781 
425.230 -10040305 -8313117 -6157892 -4146142 -2680035 -1901931 -1819294 
425.652 -2408876 -3639032 -5444961 -7668195 -10051728 -12226744 -13842557 
426.074 -14705366 -14823140 -14345652 -13420391 -12092125 -10286792 -7897477 
426.496 -4910438 -1494720 2009538 5174174 7622760 9044011 9252662 8201594 
426.978 5977685 2800458 -1016824 -5065301 -8949327 -12345903 -15048394 
427.400 -16985578 -18176624 -18675090 -18522678 -17754148 -16417395 
427.762 -14595319 -12411917 -10010515 -7527264 -5095022 -2837325 -880919 
428.183 626062 1549991 1788342 1316494 223509 -1246055 -2692279 -3661002 
428.666 -3742622 -2788909 -996723 1151394 3114219 4484854 5047494 4798857 
429.148 3867763 2440178 663660 -1384901 -3709177 -6343511 -9255899 -12251506 
429.630 -14963321 -16888536 -17582350 -16834858 -14749144 -11711667 -8273679 
430.052 -5054617 -2554998 -1090146 -697528 -1149221 -2024537 -2869497 
430.474 -3380064 -3479820 -3362405 -3386292 -3966574 -5391373 -7710147 
430.896 -10596602 -13312238 -14765911 -13983472 -10859752 -6295390 -1600493 
431.318 2257414 4760118 5822315 5632942 4559450 3062683 1585470 451463 
431.800 -267889 -717922 -1142147 -1726400 -2546406 -3558484 -4647576 
432.222 -5658932 -6448930 -6917996 -7012130 -6723560 -6079014 -5133167 
432.644 -3962258 -2656067 -1310710 -5917 1194030 2240103 3094132 3700158 
433.126 3961940 3741780 2859206 1140120 -1527185 -5124160 -9434427 -13999860 
433.608 -18085830 -20903114 -21874754 -20946508 -18610626 -15702915 
433.970 -13084829 -11367559 -10886966 -11637414 -13342834 -15508646 
434.331 -17548050 -18906676 -19168292 -18254090 -16472575 -14442977 
434.693 -12801029 -12017232 -12238819 -13286933 -14719482 -15987298 
435.055 -16658045 -16555527 -15853259 -14938700 -14238995 -14000013 
435.416 -14216855 -14636748 -14881624 -14588864 -13585643 -11970641 
435.778 -10040883 -8152263 -6583999 -5546520 -5177305 -5570062 -6778271 
436.200 -8746445 -11185800 -13371506 -14279211 -13108797 -10001884 -5965543 
436.622 -2162011 627232 2101922 2239279 1251813 -474803 -2349651 -3712764 
437.104 -4055005 -3244959 -1627400 169659 1512174 2033879 1671866 656080 
437.586 -623250 -1713072 -2259147 -2112176 -1332077 -146397 1154232 2273360 
438.068 2999551 3225357 2948052 2249949 1271826 188334 -829500 -1617090 
438.550 -2047408 -2063658 -1694731 -1069742 -393445 61951 32052 -677318 
439.032 -2122255 -4163022 -6452254 -8493087 -9830703 -10178702 -9519085 
439.454 -8047566 -6060306 -3838911 -1591509 511280 2326323 3713171 4518604 
439.937 4627325 4008446 2773208 1169676 -440229 -1677564 -2285099 -2182702 
440.419 -1489101 -431281 744067 1874209 2906554 3865129 4797550 5716831 
440.901 6562728 7211981 7516923 7375759 6788533 5856931 4745720 3615869 
441.383 2608701 1817938 1287001 1018291 975925 1099762 1316545 1572457 
441.865 1853536 2208258 2728990 3501056 4521362 5675887 6791516 7706234 
442.347 8313615 8548593 8400057 7904654 7143657 6217453 5216213 4194680 
442.830 3166846 2134347 1121830 191202 -558891 -1029455 -1160030 -936327 
443.312 -383494 463424 1567854 2892060 4358723 5800879 6985640 7698615 
443.794 7851095 7505283 6818562 5977891 5139158 4413750 3825572 3301772 
444.276 2682925 1792147 516517 -1133897 -3015635 -4889739 -6484026 -7588819 
444.758 -8084517 -7967565 -7326450 -6314175 -5104044 -3855557 -2720177 
445.180 -1827199 -1283896 -1177902 -1547218 -2355574 -3453367 -4596634 
445.602 -5483845 -5874069 -5701894 -5090219 -4268305 -3436931 -2706982 
446.024 -2062331 -1403752 -614522 349542 1420264 2425624 3169886 3491335 
446.506 3309281 2640365 1588291 331906 -912285 -1886820 -2360648 -2204155 
446.988 -1448481 -298539 945881 1978223 2595885 2714520 2365087 1668089 
447.471 812592 19205 -528908 -721787 -573955 -205504 201963 490760 580131 
448.013 478641 275520 113476 162740 564368 1401664 2668515 4277362 6092950 
448.555 7976930 9818880 11517904 12976414 14087841 14718561 14740868 
448.977 14063220 12670664 10648712 8189946 5579623 3127413 1142355 -145948 
449.460 -652796 -456646 217125 1074115 1788131 2096487 1847983 1039028 
449.942 -173632 -1508736 -2645559 -3361242 -3580849 -3383482 -2928455 
450.364 -2395515 -1925292 -1595364 -1435192 -1436615 -1578657 -1843195 
450.786 -2224096 -2718241 -3307494 -3946462 -4555351 -5029230 -5269462 
451.207 -5204343 -4827226 -4207278 -3480126 -2797655 -2276305 -1984592 
451.629 -1936480 -2112596 -2470779 -2952777 -3470730 -3896686 -4087126 
452.051 -3908955 -3303161 -2324002 -1145581 -24412 766632 952119 320145 
452.533 -1248431 -3711757 -6794615 -9880469 -12018041 -12346637 -10609690 
452.955 -7379289 -3586621 -55857 2725748 4566914 5411561 5304108 4351056 
453.438 2732427 684423 -1514198 -3570913 -5258267 -6428709 -7027048 -7074559 
453.920 -6652280 -5890803 -4954513 -4054775 -3420832 -3267713 -3789705 
454.342 -5111635 -7273384 -10195491 -13680308 -17366678 -20709764 -23090964 
454.764 -23968398 -23168688 -20989480 -18051152 -14969894 -12148686 -9795976 
455.185 -7965199 -6641491 -5798530 -5409482 -5445554 -5857241 -6564054 
455.607 -7438256 -8304830 -8972804 -9241752 -8963953 -8101044 -6752953 
456.029 -5136559 -3504588 -2081064 -989611 -264569 109799 150945 -164906 
456.511 -921135 -2239109 -4229296 -6897373 -10069637 -13308284 -16000170 
456.933 -17587384 -17811946 -16857520 -15204196 -13411525 -11877792 
457.295 -10805887 -10205676 -9945711 -9799603 -9499505 -8794506 -7486760 
457.717 -5547745 -3235414 -1055602 573996 1552676 1972824 1936424 1500562 
458.199 712111 -345153 -1522780 -2604584 -3367409 -3614746 -3272852 -2428889 
458.681 -1326936 -281079 438903 679452 466790 -21207 -518816 -802511 -768731 
459.224 -488543 -167058 -85725 -506546 -1595728 -3390991 -5748562 -8331223 
459.706 -10569886 -11841860 -11730397 -10271993 -7942220 -5415642 -3300963 
460.128 -1950921 -1480382 -1764855 -2519507 -3360920 -3938637 -4034402 
460.550 -3574795 -2632254 -1377111 -59279 1052048 1697303 1672104 885686 
461.032 -629279 -2706039 -5078978 -7359256 -9103811 -9947743 -9739636 
461.454 -8660840 -7130970 -5629699 -4469596 -3752008 -3418951 -3348345 
461.876 -3433762 -3627531 -3940425 -4406463 -5030635 -5746120 -6383227 
462.298 -6710855 -6531386 -5759152 -4467653 -2839951 -1104128 548128 1976093 
462.780 3099385 3902294 4419065 4715567 4853155 4864750 4731792 4390410 
463.262 3745662 2716865 1284213 -457856 -2288120 -3877863 -4868880 -5029962 
463.744 -4339409 -3014046 -1403226 95275 1155429 1589446 1336851 467828 
464.226 -857908 -2409068 -3944177 -5237578 -6094803 -6385496 -6041210 
464.648 -5070361 -3562501 -1695196 286552 2132784 3619168 4626698 5166930 
465.130 5367383 5408090 5448105 5577261 5786090 5985318 6042994 5847934 
465.613 5344537 4561489 3594750 2582486 1658755 924647 456797 306975 511374 
466.155 1089613 2028740 3270080 4702281 6186494 7567480 8695930 9451471 
466.637 9729438 9456129 8603436 7218917 5449953 3534870 1783870 474283 
467.119 -219187 -263499 239922 1097064 2069223 2939901 3519316 3681606 
467.602 3387417 2706486 1834981 1062593 720317 1021361 1968118 3353614 
468.084 4877990 6251881 7264872 7828404 7956485 7755828 7374517 6958087 
468.566 6576508 6202036 5738706 5099873 4274002 3352594 2502234 1914229 
469.048 1739407 2014910 2642453 3401630 4039504 4330361 4166103 3584662 
469.530 2765873 1975330 1480845 1485789 2034215 3000152 4127998 5147968 
470.012 5838560 6071016 5821398 5149024 4182233 3076339 1992984 1039517 
470.495 239282 -462908 -1157278 -1908163 -2701207 -3426200 -3902644 -3953831 
470.977 -3508592 -2646725 -1579689 -545779 257101 745941 954632 998473 
471.459 1006261 1061174 1180961 1331291 1468991 1580673 1698812 1893136 
471.941 2237636 2764231 3419862 4049137 4446755 4425694 3912590 2952496 
472.423 1656742 122792 -1593882 -3449612 -5356817 -7100157 -8327455 -8706854 
472.905 -8107088 -6708103 -4888418 -3080911 -1639660 -784129 -616133 
473.327 -1086268 -2010727 -3084349 -3977478 -4412190 -4258285 -3583000 
473.749 -2622826 -1695699 -1067446 -895141 -1166775 -1728260 -2325597 
474.171 -2708489 -2719224 -2342852 -1714266 -1059412 -613558 -516697 -777766 
474.653 -1256334 -1717426 -1879040 -1524680 -595413 783393 2351020 3828988 
475.136 4994860 5751084 6105919 6138163 5948881 5633247 5256112 4837544 
475.618 4359452 3778058 3049644 2145113 1067727 -143141 -1405491 -2606597 
476.100 -3615719 -4293435 -4529775 -4260379 -3488334 -2287378 -796629 806499 
476.582 2353312 3691309 4703591 5306822 5429407 5020870 4062153 2591833 
477.064 721513 -1359218 -3402107 -5180111 -6530151 -7395919 -7817737 
477.486 -7892932 -7723299 -7376202 -6884397 -6256485 -5507517 -4689025 
477.908 -3889922 -3212144 -2729954 -2450043 -2304958 -2169094 -1908578 
478.330 -1414376 -654686 308223 1331814 2254203 2959653 3400591 3607458 
478.812 3661807 3669973 3716268 3833280 3975532 4031010 3841084 3243137 
479.294 2117784 413808 -1806605 -4352051 -6875324 -8954804 -10212538 
479.716 -10415404 -9568889 -7893339 -5763435 -3577898 -1705404 -410352 
480.138 199926 156309 -389964 -1234666 -2153401 -2969784 -3582838 -3954294 
480.620 -4085682 -3977448 -3607441 -2943647 -1980705 -783387 511196 1711039 
481.102 2628244 3135732 3168197 2720809 1818204 492999 -1225129 -3293779 
481.585 -5613080 -8000779 -10164095 -11724038 -12351713 -11889909 -10478926 
482.007 -8509218 -6520360 -5014213 -4326712 -4626285 -5878699 -7878160 
482.428 -10247162 -12533882 -14293975 -15199311 -15143199 -14230669 
482.790 -12728028 -10955696 -9256545 -7925080 -7145765 -6971111 -7284984 
483.212 -7841523 -8315768 -8437268 -8071614 -7256159 -6164082 -5034262 
483.634 -4089662 -3459655 -3170884 -3145799 -3252483 -3345731 -3335938 
484.056 -3218806 -3065037 -2976737 -3043326 -3326137 -3846781 -4589164 
484.478 -5485279 -6410963 -7168546 -7522513 -7296652 -6454824 -5161012 
484.900 -3709755 -2437887 -1585960 -1239651 -1320382 -1614146 -1838263 
485.322 -1740046 -1229909 -425165 391528 923412 946332 391010 -659842 
485.804 -1985972 -3292388 -4299969 -4825737 -4878422 -4642920 -4404706 
486.226 -4412830 -4828281 -5692464 -6931336 -8362709 -9730024 -10787070 
486.648 -11358102 -11424227 -11116278 -10666548 -10304369 -10181004 
487.009 -10330047 -10653281 -10955506 -11016009 -10699755 -10006058 -9075292 
487.431 -8110618 -7317077 -6821318 -6640899 -6693098 -6833216 -6910883 
487.853 -6800775 -6435574 -5795193 -4894271 -3773371 -2505012 -1203038 -7391 
488.335 921344 1446082 1495438 1080464 305017 -663403 -1616697 -2380514 
488.817 -2858417 -3055483 -3063641 -3020219 -3055940 -3245344 -3596431 
489.239 -4044537 -4477368 -4752958 -4753579 -4432105 -3834780 -3087626 
489.661 -2346383 -1751892 -1374517 -1202896 -1146595 -1078576 -877535 
490.083 -488238 50479 615300 1049855 1235553 1131222 803670 401516 114978 
490.625 88518 372852 905585 1548635 2138481 2551211 2748693 2775175 2723430 
491.168 2672296 2650324 2618910 2501006 2216333 1727855 1060580 303805 
491.650 -424899 -1010357 -1373114 -1485675 -1360310 -1032018 -544025 47437 
492.132 669800 1239272 1669514 1907166 1955105 1887585 1836430 1967578 
492.614 2439873 3339560 4643587 6194217 7746600 9015216 9776505 9933181 
493.097 9506337 8602588 7353743 5891549 4321103 2738144 1253747 -10647 
493.579 -926977 -1404243 -1434477 -1118681 -652878 -261770 -155718 -441617 
494.061 -1079310 -1866952 -2508459 -2714935 -2302649 -1277693 174013 1743518 
494.543 3129411 4108726 4621082 4768320 4768134 4857364 5198425 5839982 
495.025 6695792 7586515 8291182 8642425 8566791 8096231 7330550 6397898 
495.508 5418103 4478767 3649783 2981260 2502564 2217874 2098316 2088045 
495.990 2114256 2116368 2060457 1943922 1783166 1587962 1333857 958457 
496.472 372999 -492871 -1647093 -3004950 -4386700 -5555035 -6246549 -6274231 
496.954 -5593844 -4343369 -2792150 -1259466 -11790 820972 1237639 1341812 
497.436 1279644 1206957 1242586 1445900 1814016 2281898 2740194 3049388 
497.918 3086636 2775762 2119767 1203210 172356 -815520 -1654991 -2312386 
498.401 -2834941 -3315274 -3854974 -4510450 -5268737 -6050046 -6747116 
498.823 -7267599 -7563449 -7640876 -7540682 -7309789 -6971805 -6519174 
499.244 -5922939 -5165022 -4265845 -3295674 -2351735 -1531753 -894365 
499.666 -448091 -153232 59569 268928 539898 902696 1350856 1846766 2340476 
500.209 2777772 3109399 3290827 3270844 2994812 2410487 1479385 199074 
500.691 -1378777 -3130612 -4881123 -6415742 -7535786 -8129320 -8200346 
501.113 -7872770 -7331667 -6781435 -6376780 -6193767 -6224560 -6384042 
501.535 -6542816 -6574502 -6422159 -6119859 -5779658 -5530058 -5475755 
501.957 -5645370 -5966170 -6232168 -6143400 -5440488 -4079411 -2323974 
502.379 -592687 750195 1540470 1784785 1619347 1250627 924211 854397 1142855 
502.921 1746391 2480068 3095599 3334608 3023683 2117373 725178 -913638 
503.403 -2483310 -3673055 -4288407 -4277149 -3738862 -2870505 -1931666 
503.825 -1170504 -759293 -780386 -1210096 -1950728 -2856363 -3780090 
504.247 -4596691 -5222574 -5640386 -5898631 -6095765 -6331974 -6676057 
504.669 -7128665 -7623193 -8040608 -8258153 -8199469 -7865434 -7346341 
505.091 -6794108 -6384893 -6249201 -6444257 -6934358 -7607580 -8288914 
505.513 -8777528 -8903713 -8559580 -7751317 -6595899 -5292479 -4044673 
505.935 -3006531 -2270586 -1859293 -1746186 -1870218 -2158912 -2539022 
506.357 -2951186 -3357580 -3728713 -4033218 -4230718 -4266780 -4093718 
506.778 -3701799 -3156430 -2593948 -2172687 -2001027 -2085884 -2346729 
507.200 -2653773 -2884744 -2946991 -2808450 -2501321 -2110800 -1743277 
507.622 -1493141 -1436692 -1620758 -2069317 -2781712 -3723230 -4807814 
508.044 -5887068 -6783160 -7315568 -7367682 -6933398 -6126098 -5145881 
508.466 -4205510 -3485187 -3067674 -2933292 -2980706 -3079790 -3117109 
508.888 -3033192 -2841651 -2617620 -2465717 -2467630 -2652841 -2978983 
509.310 -3354943 -3668439 -3834343 -3818102 -3633703 -3324896 -2935621 
509.732 -2485500 -1957963 -1308263 -488792 514190 1654277 2812744 3826158 
510.214 4501246 4673545 4250106 3230257 1715654 -112268 -2009987 -3739160 
510.696 -5090343 -5921077 -6191586 -5970958 -5421863 -4739122 -4117189 
511.118 -3698836 -3558127 -3710936 -4112231 -4665584 -5224107 -5633361 
511.540 -5770308 -5587415 -5127023 -4494311 -3807122 -3145075 -2542147 
511.962 -1991660 -1475831 -992506 -568553 -246340 -60387 -9276 -47279 -89138 
512.504 -44108 156126 523650 1007347 1508668 1923968 2187593 2279432 2218589 
513.046 2034167 1742417 1333871 784807 82326 -750338 -1644398 -2497408 
513.528 -3213572 -3724571 -4011545 -4100846 -4047589 -3908483 -3721864 
513.950 -3508721 -3280810 -3056728 -2871925 -2768399 -2776658 -2890486 
514.372 -3057645 -3188259 -3189666 -3010664 -2658701 -2203342 -1748793 
514.793 -1419161 -1321080 -1522185 -2042401 -2845438 -3844073 -4901958 
515.215 -5862806 -6559106 -6841615 -6622412 -5892108 -4740388 -3331869 
515.637 -1890037 -631820 287255 787587 875319 607262 56218 -721530 -1686110 
516.179 -2797854 -4003064 -5212148 -6301775 -7141077 -7598678 -7579890 
516.600 -7052586 -6074517 -4793734 -3411595 -2130452 -1082328 -321173 156043 
517.082 381857 399249 257077 3909 -311726 -655645 -1018990 -1416271 -1868688 
517.625 -2376126 -2890933 -3320041 -3555550 -3522184 -3223593 -2743932 
518.046 -2218010 -1770693 -1491682 -1410893 -1506137 -1726349 -2022298 
518.468 -2368248 -2760359 -3200194 -3670613 -4118636 -4466051 -4627714 
518.890 -4543147 -4204839 -3661450 -2999926 -2304883 -1643185 -1055147 
519.311 -573219 -257037 -206532 -547952 -1386981 -2724462 -4407169 -6146213 
519.793 -7647475 -8706084 -9269975 -9417014 -9293678 -9045368 -8760860 
520.215 -8461928 -8108586 -7640236 -7013855 -6235621 -5358712 -4465528 
520.637 -3628521 -2890917 -2256668 -1705124 -1214768 -786263 -445877 -237246 
521.119 -200303 -355237 -695944 -1189342 -1782010 -2399957 -2959702 -3365453 
521.601 -3514255 -3323577 -2749991 -1821191 -638899 625870 1778841 2661772 
522.082 3177867 3330830 3214794 2992057 2823270 2814608 2978815 3242294 
522.564 3486707 3604052 3538126 3281417 2862455 2317672 1676566 951696 
523.046 146483 -728539 -1644478 -2550906 -3380686 -4071667 -4576260 -4872712 
523.528 -4966936 -4888771 -4684781 -4408307 -4121640 -3887344 -3758214 
523.950 -3768796 -3915329 -4145322 -4347596 -4378175 -4087853 -3372213 
524.372 -2222027 -728347 943179 2616210 4123829 5337864 6173193 6570945 
524.854 6508734 6002727 5115679 3947176 2625762 1301520 115752 -802195 
525.336 -1362985 -1544270 -1400223 -1050580 -637560 -310795 -192337 -365545 
525.817 -862219 -1632761 -2524790 -3301872 -3762367 -3830879 -3573382 
526.239 -3119416 -2596835 -2094214 -1652287 -1277774 -948177 -626431 -273951 
526.721 130252 580131 1039395 1452567 1755350 1889042 1819793 1545143 
527.203 1099371 542390 -45518 -579821 -984976 -1192611 -1157288 -866955 
527.685 -356417 290147 949339 1479974 1769283 1745691 1394592 754884 -81393 
528.227 -978488 -1784484 -2343367 -2550946 -2386979 -1919162 -1265939 
528.649 -547997 143265 766059 1313710 1797022 2224654 2589076 2863623 
529.131 3014455 3013634 2861248 2596395 2305487 2102827 2100545 2374784 
529.613 2925838 3672039 4463382 5135410 5532515 5544617 5128235 4306191 
530.095 3165466 1830692 453251 -832386 -1931688 -2793986 -3412468 -3806132 
530.577 -4004142 -4030878 -3903504 -3632761 -3227026 -2699753 -2074286 
530.998 -1384673 -679239 -12748 564432 1012895 1316873 1483334 1533811 
531.480 1487891 1349441 1098284 698762 116207 -652688 -1559562 -2490159 
531.962 -3284954 -3784275 -3857036 -3452541 -2613061 -1475581 -230029 915174 
532.444 1779455 2263631 2354162 2118379 1663720 1110887 553923 39258 -433830 
532.986 -907048 -1441834 -2101782 -2925760 -3914278 -5016745 -6138918 
533.408 -7147578 -7899687 -8291112 -8281138 -7912960 -7289666 -6548182 
533.830 -5811439 -5159550 -4626630 -4198306 -3828051 -3452073 -3014503 
534.251 -2477245 -1829610 -1089338 -299836 477371 1179184 1747650 2151233 
534.733 2395720 2527794 2621581 2753946 2979049 3299663 3661771 3965355 
535.215 4108621 4023092 3714167 3261364 2798154 2454042 2300141 2329113 
535.697 2454238 2543316 2447889 2059637 1336540 319203 -887538 -2140411 
536.179 -3295665 -4245976 -4916207 -5264614 -5276693 -4962928 -4365969 
536.601 -3562254 -2667121 -1808661 -1105330 -647061 -469611 -556696 -848132 
537.083 -1268323 -1744843 -2232849 -2722841 -3229681 -3772478 -4351781 
537.504 -4931853 -5440214 -5783022 -5869284 -5656596 -5174197 -4526617 
537.926 -3850799 -3283053 -2917287 -2784260 -2859068 -3073932 -3347241 
538.348 -3598072 -3770664 -3836621 -3783722 -3605434 -3295084 -2853040 
538.769 -2300691 -1692624 -1112775 -643013 -339654 -202427 -174121 -151918 
539.251 -30538 251398 682363 1175473 1607752 1870908 1926257 1812334 1629635 
539.794 1490329 1484421 1640108 1919278 2236346 2504565 2676222 2749802 
540.275 2754045 2713511 2622933 2445222 2131604 1656483 1046542 389308 
540.757 -192795 -600770 -795107 -818329 -763476 -732247 -774290 -860913 
541.239 -887431 -724489 -276440 468508 1426591 2442778 3340426 3985330 
541.721 4300359 4277750 3955483 3390401 2632042 1717071 689126 -386749 
542.203 -1411560 -2256684 -2813518 -3034641 -2964344 -2713155 -2414910 
542.625 -2167903 -2004004 -1899140 -1800718 -1668357 -1499451 -1336804 
543.047 -1245920 -1281837 -1449657 -1690428 -1886230 -1904151 -1624358 
543.468 -979434 27370 1323263 2780421 4249809 5570081 6607777 7276717 
543.950 7542553 7428672 7002610 6360615 5592786 4767203 3913497 3025679 
544.432 2084353 1087353 71797 -874301 -1637098 -2122704 -2296449 -2210375 
544.914 -1983231 -1760847 -1647543 -1674727 -1784283 -1860782 -1777605 
545.336 -1470722 -978157 -431054 8834 224708 179339 -67044 -387317 -626288 
545.878 -672803 -496451 -162331 205695 468431 530200 376378 75973 -245125 
546.420 -462701 -490895 -318690 629 373975 711757 952834 1078660 1113419 
546.962 1109180 1122565 1187332 1303626 1435549 1529531 1529047 1399207 
547.444 1137878 779264 385497 33501 -196754 -246278 -84250 286398 833684 
547.986 1501996 2218265 2903706 3470858 3842861 3974051 3865350 3577308 
548.468 3219536 2935370 2850625 3041430 3501498 4139171 4796144 5301094 
548.950 5540913 5489335 5223593 4888149 4662584 4688946 5020148 5592533 
549.432 6243165 6763778 6960580 6723966 6038071 4985567 3715293 2432941 
549.914 1350066 620405 305200 348269 616835 948899 1220890 1368897 1385649 
550.456 1306300 1187332 1088376 1052466 1103837 1246146 1469560 1757113 
550.938 2090600 2453614 2829752 3205355 3571523 3926044 4273286 4619589 
551.420 4963546 5287559 5550256 5687757 5631806 5322344 4736156 3901254 
551.902 2904283 1871503 936824 220622 -210460 -352693 -263624 -33892 237880 
552.444 473536 633965 710232 712327 652885 539381 375175 169130 -51188 
552.986 -237526 -328787 -266578 -24399 376385 857888 1310725 1617728 1701118 
553.529 1555496 1255282 933519 731587 769209 1100357 1708513 2516954 3421317 
554.071 4315522 5111578 5756153 6217996 6476509 6511909 6298818 5817026 
554.553 5068308 4098478 3004128 1916951 984249 318823 -20952 -37865 213609 
555.095 640028 1123493 1550884 1820615 1867968 1678319 1287961 777958 253328 
555.637 -167592 -391228 -370654 -118418 302050 801389 1297949 1750513 
556.119 2162247 2573340 3032113 3569720 4174058 4789329 5326921 5701784 
556.601 5861944 5804875 5580919 5280727 5015529 4876418 4913739 5111411 
557.083 5391850 5629332 5693571 5495170 5003745 4263624 3378820 2501978 
557.565 1787116 1355669 1265085 1488889 1928034 2438997 2885515 3156836 
558.047 3199134 3024038 2704627 2353276 2083988 1988905 2102781 2397562 
558.529 2784639 3145093 3354613 3319087 3010058 2472624 1818722 1186371 
559.011 717746 512705 603351 947263 1437567 1936116 2302681 2446112 2339368 
559.553 2022456 1578271 1109976 710895 438702 315532 329899 453285 651852 
560.095 897500 1167075 1432115 1653867 1779928 1748188 1509052 1043406 
560.577 384678 -382398 -1126850 -1705481 -2006472 -1964104 -1579813 -913576 
561.059 -73382 816860 1642028 2308523 2763090 2983936 2972588 2744525 
561.541 2326903 1762313 1109187 451694 -114155 -505017 -668499 -606913 
562.023 -375549 -74074 187139 308721 223596 -83602 -578186 -1182845 -1803277 
562.565 -2333486 -2674889 -2751279 -2512968 -1958574 -1143965 -188553 752973 
563.047 1519204 1966673 2009031 1624365 871367 -121696 -1162285 -2042781 
563.529 -2609995 -2797593 -2651763 -2295619 -1888486 -1558059 -1366392 
563.950 -1300405 -1288666 -1236260 -1066464 -756212 -340712 99090 473110 
564.432 701503 741502 591610 284954 -125568 -581965 -1023970 -1399912 
564.914 -1667779 -1803242 -1812052 -1738438 -1662579 -1672371 -1841686 
565.336 -2194025 -2690498 -3231185 -3687229 -3946329 -3948092 -3717901 
565.758 -3355569 -3000390 -2763966 -2699077 -2783887 -2943610 -3077343 
566.179 -3099956 -2974333 -2716520 -2383409 -2038769 -1731240 -1477829 
566.601 -1272532 -1102197 -961457 -857408 -804706 -812928 -878077 -980577 
567.083 -1095810 -1204389 -1303710 -1406777 -1533556 -1696072 -1890373 
567.505 -2098230 -2299821 -2485973 -2665463 -2858829 -3084583 -3339783 
567.926 -3590932 -3770917 -3795944 -3596117 -3136219 -2437533 -1569144 
568.348 -628136 298627 1150173 1887436 2484299 2909225 3120997 3081966 
568.830 2770626 2201412 1425437 529898 -388457 -1250656 -2010984 -2666121 
569.312 -3237920 -3748136 -4193183 -4539736 -4736671 -4742859 -4544287 
569.734 -4169310 -3681150 -3167958 -2712150 -2363237 -2130291 -1983665 
570.155 -1876423 -1763551 -1623187 -1460952 -1306977 -1200353 -1176167 
570.577 -1249333 -1406206 -1603022 -1773858 -1848895 -1762186 -1474646 
570.999 -985990 -343444 365815 1031576 1539526 1806959 1790689 1494403 
571.481 960509 262247 -511956 -1280093 -1967841 -2522846 -2916689 -3140344 
571.963 -3203263 -3129995 -2961636 -2748903 -2550790 -2427968 -2427351 
572.384 -2577061 -2873969 -3281166 -3723719 -4102058 -4319438 -4302904 
572.806 -4039556 -3584101 -3050909 -2568233 -2241287 -2123366 -2203809 
573.228 -2423299 -2699398 -2963648 -3175634 -3332425 -3451923 -3547117 
573.649 -3601406 -3563988 -3359381 -2926097 -2251449 -1398690 -493480 308287 
574.131 873977 1141623 1118597 866716 464633 -9293 -497306 -962086 -1370822 
574.673 -1686464 -1863527 -1855394 -1638524 -1229664 -696087 -135627 343426 
575.155 658832 779736 724434 547735 312839 77646 -122053 -270622 -361764 
575.698 -389248 -342090 -208544 13033 302764 614964 892751 1084506 1169642 
576.240 1164216 1108670 1042792 987953 945048 901722 846288 778933 715068 
576.782 680102 696415 769728 885463 1013753 1124040 1192644 1209202 1172623 
577.324 1082047 930121 702412 384096 -26747 -510135 -1021330 -1505516 
577.806 -1908153 -2192308 -2348430 -2392388 -2358405 -2283876 -2202067 
578.228 -2132257 -2080215 -2042085 -2007934 -1962403 -1882480 -1740651 
578.649 -1507357 -1162556 -708388 -176639 371666 861345 1209168 1347171 
579.131 1236811 875979 302584 -414956 -1189709 -1945485 -2627819 -3212806 
579.613 -3703975 -4119205 -4474454 -4769447 -4980185 -5062246 -4966593 
580.035 -4655379 -4124846 -3413831 -2606622 -1808327 -1126166 -644253 
580.457 -398199 -373575 -514723 -754304 -1030031 -1301974 -1549645 -1756074 
580.939 -1898338 -1946714 -1873954 -1676123 -1385751 -1074688 -828804 
581.360 -726265 -807211 -1058746 -1417464 -1790242 -2092023 -2267598 
581.782 -2317142 -2290420 -2272762 -2349786 -2583550 -2998160 -3573666 
582.204 -4252118 -4947337 -5568153 -6021978 -6232998 -6159162 -5801113 
582.625 -5213324 -4492802 -3766232 -3142557 -2680667 -2375618 -2169630 
583.047 -1983348 -1751558 -1454262 -1121532 -821997 -627094 -586173 -699680 
583.529 -923163 -1183116 -1410777 -1564337 -1632426 -1627240 -1567019 
583.951 -1462083 -1310790 -1108195 -862281 -604113 -393783 -310029 -427747 
584.433 -805760 -1461026 -2357736 -3395612 -4429098 -5293970 -5836572 
584.854 -5962167 -5644230 -4927520 -3908180 -2722974 -1527984 -467042 329656 
585.336 777388 850275 583418 65220 -584591 -1231703 -1768708 -2130247 
585.818 -2306872 -2341480 -2315358 -2322469 -2436452 -2698305 -3100317 
586.240 -3592484 -4091420 -4511179 -4791256 -4911307 -4894804 -4791493 
586.662 -4655039 -4518454 -4390006 -4258486 -4110549 -3946982 -3791390 
587.083 -3680167 -3646786 -3697558 -3802608 -3897707 -3910972 -3791029 
587.505 -3529651 -3167271 -2776981 -2435243 -2187173 -2036003 -1942263 
587.927 -1846567 -1689995 -1442517 -1111512 -733983 -354754 -6941 293716 
588.409 545766 747276 882132 918122 812393 530602 66564 -549008 -1253321 
588.951 -1972581 -2633333 -3183252 -3595132 -3860780 -3984812 -3977058 
589.372 -3852036 -3631185 -3349673 -3058503 -2812779 -2663746 -2637287 
589.794 -2721829 -2865772 -2994706 -3041197 -2965409 -2774004 -2513169 
590.216 -2252248 -2051463 -1945178 -1930963 -1977938 -2042569 -2089926 
590.638 -2107047 -2101873 -2094223 -2101059 -2126509 -2156724 -2165753 
591.059 -2125385 -2019771 -1851283 -1641609 -1423984 -1240649 -1138939 
591.481 -1165227 -1366215 -1778009 -2413613 -3249968 -4221111 -5224856 
591.903 -6127945 -6804514 -7161553 -7165054 -6853188 -6322586 -5698317 
592.324 -5088468 -4572932 -4191254 -3949318 -3834419 -3823922 -3890697 
592.746 -3997488 -4096580 -4129902 -4034894 -3768383 -3322128 -2737645 
593.168 -2096841 -1510723 -1087092 -895034 -953627 -1223805 -1629688 
593.589 -2078364 -2496876 -2848743 -3131789 -3363100 -3555068 -3695421 
594.011 -3745306 -3649303 -3362545 -2878258 -2241743 -1548126 -915127 
594.433 -469867 -310355 -486341 -990677 -1759765 -2687097 -3639346 -4497774 
594.915 -5173323 -5627659 -5875588 -5973230 -5992862 -5991577 -5998017 
595.336 -6001191 -5961101 -5822564 -5542916 -5111311 -4560977 -3961260 
595.758 -3401884 -2967145 -2705357 -2620411 -2666613 -2766248 -2823526 
596.180 -2759581 -2539741 -2184589 -1766799 -1387247 -1153987 -1142945 
596.601 -1381711 -1835884 -2419940 -3013109 -3497607 -3801594 -3910197 
597.023 -3864703 -3731826 -3579390 -3447901 -3344995 -3253534 -3149232 
597.445 -3018256 -2867704 -2721820 -2609636 -2547153 -2527223 -2520970 
597.867 -2491439 -2414073 -2289839 -2151439 -2051640 -2050104 -2189016 
598.288 -2483567 -2921287 -3470593 -4088966 -4729011 -5345337 -5887560 
598.710 -6299408 -6524122 -6504477 -6199671 -5600025 -4738935 -3695294 
599.132 -2581280 -1529939 -655104 -35243 299031 365832 219646 -64722 -416121 
599.674 -771537 -1086985 -1337710 -1508842 -1590672 -1574493 -1454999 
600.095 -1238720 -952904 -650501 -396850 -258008 -280364 -472299 -798184 
600.577 -1180482 -1525211 -1739307 -1767556 -1608910 -1317361 -982268 
600.999 -700587 -554279 -582865 -783774 -1121300 -1549827 -2026991 -2523381 
601.481 -3021199 -3502439 -3941754 -4305488 -4552940 -4648857 -4571563 
601.903 -4316666 -3898767 -3350189 -2721680 -2073879 -1478150 -1005961 
602.324 -710034 -614427 -698406 -898919 -1114893 -1238153 -1184038 -907798 
602.806 -421011 216489 908864 1557172 2074940 2408470 2548063 2522934 
603.288 2391007 2216936 2061832 1962377 1922257 1910978 1874537 1754028 
603.770 1504689 1118828 633892 130146 -300441 -580632 -686125 -657519 
604.252 -591854 -603855 -778678 -1145823 -1659721 -2217129 -2683471 -2950707 
604.734 -2967522 -2754494 -2386232 -1964307 -1581123 -1289882 -1102807 
605.156 -993718 -918822 -833537 -714106 -564936 -417247 -315230 -301336 
605.638 -403002 -620500 -923315 -1251364 -1533358 -1699542 -1708026 -1559846 
606.120 -1300048 -1003940 -752406 -619138 -647694 -846465 -1188339 -1620509 
606.602 -2072899 -2468725 -2743294 -2848230 -2765884 -2515342 -2154078 
607.023 -1764254 -1425975 -1199738 -1098985 -1086672 -1082962 -1002642 
607.445 -789631 -447956 -43109 318059 529237 530093 321159 -34740 -446943 
607.987 -828499 -1139133 -1394336 -1649808 -1961659 -2351368 -2784061 
608.409 -3178162 -3428267 -3445061 -3194161 -2707309 -2077679 -1424324 
608.831 -873606 -520940 -414362 -555142 -901882 -1384670 -1914336 -2407535 
609.312 -2797015 -3044951 -3149275 -3135920 -3044367 -2907326 -2742318 
609.734 -2548037 -2315295 -2043220 -1752965 -1487420 -1300617 -1228939 
610.156 -1271390 -1378450 -1470223 -1461176 -1300099 -996020 -619246 -277421 
610.638 -70167 -62773 -255933 -590991 -966976 -1285411 -1480154 -1532232 
611.120 -1465501 -1326560 -1163540 -1009476 -886016 -808781 -793057 -854484 
611.602 -998423 -1209645 -1444725 -1642496 -1742898 -1707644 -1540324 
612.023 -1287013 -1021815 -811461 -693775 -660188 -666688 -653299 -575145 
612.505 -421018 -214977 -3452 166931 264921 286692 250538 186447 121426 
613.047 75179 58272 74393 123540 201680 299975 402974 492208 552541 577387 
613.650 572640 552809 531733 509413 464090 353363 132034 -232220 -737352 
614.192 -1342375 -1968439 -2522808 -2928736 -3142390 -3169816 -3058278 
614.614 -2881306 -2708489 -2591326 -2554217 -2594388 -2690130 -2809033 
615.035 -2918087 -2983920 -2977925 -2879427 -2675976 -2367254 -1964525 
615.457 -1490100 -970916 -435801 85055 561790 957576 1225620 1315226 1174833 
615.999 770093 98988 -797719 -1837240 -2909550 -3883902 -4642446 -5095815 
616.481 -5196238 -4949407 -4410741 -3675996 -2852683 -2051729 -1365775 
616.903 -854296 -547281 -442781 -516150 -727327 -1033704 -1397133 -1784414 
617.385 -2170534 -2533080 -2848265 -3092132 -3240159 -3273647 -3186778 
617.807 -2990512 -2712722 -2390585 -2066413 -1777204 -1550770 -1407557 
618.228 -1358887 -1409600 -1558309 -1797097 -2110607 -2475611 -2864792 
618.650 -3245445 -3584711 -3856215 -4041763 -4137783 -4154230 -4110513 
619.072 -4024427 -3903828 -3742075 -3522532 -3228137 -2855141 -2421726 
619.493 -1971159 -1562793 -1251560 -1076824 -1044929 -1128490 -1271972 
619.915 -1413500 -1504572 -1521740 -1471382 -1379881 -1280363 -1196808 
620.337 -1139143 -1102448 -1075153 -1047789 -1021087 -1005252 -1013442 
620.758 -1050140 -1103757 -1144461 -1135838 -1049626 -882912 -666982 -466717 
621.240 -365910 -436739 -722905 -1215470 -1851584 -2516455 -3076725 -3420256 
621.722 -3481869 -3268992 -2850924 -2336682 -1830049 -1409616 -1112597 
622.144 -935234 -847375 -811328 -800891 -805861 -830933 -884419 -967938 
622.626 -1071455 -1177338 -1268603 -1339294 -1396588 -1455230 -1525157 
623.048 -1602010 -1663832 -1681275 -1630202 -1509248 -1344341 -1185463 
623.469 -1085127 -1076669 -1159875 -1298813 -1436776 -1520387 -1528180 
623.891 -1478419 -1421752 -1411640 -1481701 -1623579 -1790255 -1908797 
624.313 -1913607 -1773591 -1503711 -1160066 -817714 -546682 -382618 -321634 
624.795 -325853 -347359 -346258 -310282 -258384 -236409 -299681 -491321 
625.276 -828463 -1290004 -1820784 -2339194 -2763925 -3028983 -3100342 
625.698 -2985835 -2731967 -2412682 -2104159 -1874563 -1763958 -1778171 
626.120 -1891274 -2056387 -2222937 -2348217 -2411403 -2412240 -2364709 
626.542 -2286202 -2190859 -2085426 -1969826 -1841280 -1699708 -1551384 
626.963 -1412015 -1304524 -1253782 -1282751 -1403621 -1614009 -1894234 
627.385 -2211851 -2526182 -2797282 -2997891 -3114223 -3144841 -3091697 
627.807 -2950833 -2708330 -2346531 -1855791 -1251335 -582168 64178 584419 
628.289 876266 863681 523217 -106993 -926445 -1801872 -2583053 -3147787 
628.771 -3431702 -3432501 -3205574 -2839116 -2437636 -2090210 -1859064 
629.192 -1769968 -1807695 -1922576 -2046135 -2120160 -2112050 -2029464 
629.614 -1911860 -1816167 -1789460 -1849606 -1976928 -2119952 -2214075 
630.036 -2201875 -2057282 -1788106 -1429473 -1023925 -611053 -218244 138967 
630.518 447064 689183 844994 895187 834261 678934 472112 270081 129206 89368 
631.120 160838 326417 549114 788815 1009480 1188605 1318563 1402818 1452478 
631.662 1482011 1507752 1543124 1595437 1661272 1724717 1758452 1731503 
632.144 1623368 1433618 1189068 935937 731085 619481 619154 717164 875908 
632.686 1047941 1188925 1272724 1292145 1256650 1183824 1094159 1006051 
633.168 933445 887232 872879 888006 919388 944171 935090 867186 729134 
633.710 527111 284320 29963 -210038 -423442 -613042 -789442 -958696 -1112758 
634.253 -1225834 -1262765 -1193639 -1006521 -716498 -362049 4675 337769 
634.734 604480 789335 890211 909310 846994 701169 473576 179100 -148781 
635.277 -455679 -684168 -793474 -776198 -662368 -508088 -376357 -312667 
635.759 -337609 -438737 -576044 -686930 -705008 -580632 -291796 145160 
636.240 681751 1245198 1761792 2168568 2425271 2523397 2482338 2340312 
636.722 2135123 1892489 1614873 1286138 884232 401372 -142682 -694059 
637.204 -1179747 -1527658 -1691018 -1670254 -1513910 -1303469 -1117577 
637.626 -1013329 -1004206 -1061811 -1126508 -1134249 -1043503 -850839 
638.048 -595815 -345873 -175569 -133120 -225806 -413299 -626170 -784893 
638.530 -830816 -746853 -558620 -325002 -114026 11750 19248 -88467 -272051 
639.072 -471204 -620252 -665958 -584862 -384161 -98491 225205 534560 785546 
639.614 951496 1025530 1025368 989608 973316 1027410 1184018 1445047 1781554 
640.156 2141726 2464140 2697660 2806311 2778365 2624059 2368936 2042689 
640.638 1668991 1264222 837298 397032 -39120 -443208 -775596 -991192 
641.120 -1054551 -950366 -696521 -341353 43211 387205 644396 796664 853461 
641.662 837892 774110 674471 536442 345417 86572 -242670 -620582 -1002046 
642.204 -1321745 -1515613 -1544724 -1407416 -1143493 -818127 -506733 -266967 
642.686 -128892 -93023 -140040 -246304 -398971 -599809 -855839 -1162304 
643.168 -1490772 -1782525 -1964120 -1974807 -1788856 -1435574 -992170 
643.590 -566669 -255403 -121626 -177922 -389888 -691450 -1008797 -1284385 
644.072 -1478118 -1571346 -1561390 -1458568 -1285102 -1074426 -869673 
644.494 -710768 -626461 -626931 -700936 -818661 -937841 -1017122 -1020624 
644.976 -927188 -731344 -439947 -69082 357773 805068 1226993 1568019 1766761 
645.518 1773943 1562688 1147437 589252 -109 -487947 -771335 -805672 -619602 
646.060 -285812 109500 500003 845940 1126380 1331739 1452872 1479388 1406459 
646.602 1244393 1027373 807974 650783 607524 697482 899750 1159744 1409823 
647.144 1588673 1668729 1664783 1629917 1625256 1693658 1838268 2028087 
647.626 2216152 2364128 2458077 2510866 2556317 2632525 2766360 2955876 
648.108 3166571 3334955 3391099 3272252 2942000 2400647 1687888 878907 67227 
648.650 -635389 -1124609 -1326264 -1215570 -832016 -267461 357606 938493 
649.132 1400669 1705604 1848692 1847838 1737420 1558212 1355087 1166497 
649.614 1016785 913757 845646 785826 697499 546269 306788 -29525 -449540 
650.156 -911422 -1340878 -1645125 -1726470 -1524779 -1047659 -371942 386861 
650.638 1116435 1725120 2162989 2417962 2511523 2488071 2401953 2299327 
651.120 2200377 2096410 1955497 1742266 1435334 1045161 615464 222860 -43556 
651.662 -98425 123729 643071 1422079 2368002 3369234 4325807 5175787 5895219 
652.205 6477386 6919948 7219947 7375931 7397707 7310741 7155970 6975631 
652.686 6802210 6648771 6506847 6353576 6164569 5928454 5655525 5380571 
653.168 5153303 5030460 5051756 5220607 5490982 5781389 6005033 6101922 
653.650 6061741 5917426 5730837 5566393 5479403 5498284 5619277 5811075 
654.132 6027612 6225310 6370628 6448956 6461096 6415673 6319684 6173384 
654.614 5971211 5709477 5399437 5080128 4815423 4685329 4749372 5017184 
655.096 5444807 5957633 6483595 6971208 7403046 7788890 8155127 8527600 
655.578 8918159 9314241 9682591 9976155 10154254 10201354 10137136 10015491 
656.060 9907283 9885319 9997689 10258296 10641184 11089347 11524379 11868542 
656.542 12073544 12130583 12069278 11935896 11777158 11623865 11488129 
656.964 11367825 11251227 11122273 10963342 10759953 10502332 10188230 
657.385 9823699 9422659 9003282 8581379 8169529 7775699 7407550 7082154 
657.867 6831036 6698873 6732505 6953288 7337521 7812825 8286819 8671544 
658.349 8909518 8987150 8930603 8799540 8666135 8603348 8658414 8841795 
658.831 9127333 9465107 9798086 10074397 10260592 10338833 10304588 10162845 
659.313 9928825 9631848 9315929 9043579 8878519 8862405 8998859 9249505 
659.795 9551528 9835918 10051634 10169310 10182294 10102163 9951306 9755652 
660.277 9536978 9313942 9101596 8913554 8764873 8669546 8637615 8672592 
660.759 8769572 8915518 9089193 9264977 9412386 9501293 9511595 9440857 
661.241 9311864 9168322 9069265 9068432 9196477 9449489 9783390 10122179 
661.723 10370821 10447921 10300732 9924389 9364519 8715648 8100403 7633412 
662.205 7408469 7474093 7834463 8455104 9273028 10202007 11129285 11939145 
662.687 12527971 12832375 12849560 12633908 12278485 11880148 11527231 
663.108 11278734 11159504 11167053 11278033 11460356 11679085 11905611 
663.530 12116982 12293901 12420554 12482172 12466681 12367904 12188241 
663.952 11941060 11649105 11344899 11063588 10836038 10685077 10619121 
664.373 10633565 10715747 10853659 11042587 11288276 11602726 11997318 
664.795 12472161 13010901 13577986 14129035 14627041 15054171 15422793 
665.217 15770413 16147579 16592740 17117426 17698128 18288470 18836542 
665.638 19311020 19715824 20087946 20475868 20909118 21378834 21832660 
666.060 22193622 22382866 22355876 22116548 21721118 21254418 20808788 
666.482 20453458 20213840 20073844 19987032 19900880 19768560 19562788 
666.904 19274240 18905134 18459996 17940178 17344456 16661888 15871376 
667.325 14924236 13690819 11807453 8273545 754992 -14353591 -36305756 
667.747 -52421660 -53518080 -45930828 -36318432 -27079740 -18965354 
668.108 -12212574 -6859729 -2797695 138063 2156264 3489227 4355847 4947416 
668.590 5405729 5822156 6232366 6629182 6979336 7248448 7418444 7497067 
669.072 7513991 7507078 7504628 7512313 7513010 7476844 7381253 7227855 
669.554 7054186 6924136 6910250 7055811 7356082 7757108 8181793 8554261 
670.036 8823295 8974217 9019665 8986343 8896563 8759096 8567251 8309021 
670.518 7980612 7597418 7194357 6818799 6509696 6285567 6138342 6042194 
671.000 5967325 5897458 5839550 5823163 5887660 6062751 6357925 6758632 
671.482 7236473 7759192 8299657 8833779 9335487 9777920 10133651 10383284 
671.964 10524859 10576546 10572374 10547634 10528190 10517754 10498614 
672.385 10438536 10307138 10088460 9789667 9439045 9079163 8750498 8472868 
672.867 8239772 8026121 7810267 7588921 7384944 7237960 7195312 7292732 
673.349 7544200 7938199 8441495 9006299 9577310 10103714 10536729 10834890 
673.831 10971715 10939260 10755861 10463214 10126253 9816948 9598722 9513257 
674.313 9559865 9689237 9810743 9833085 9694625 9389594 8965267 8507798 
674.795 8118187 7883732 7868867 8090295 8512655 9050781 9596784 10046706 
675.277 10320403 10382619 10237421 9919472 9474370 8951494 8395928 7845918 
675.759 7344603 6939653 6677124 6587944 6666971 6869474 7123985 7365970 
676.241 7554861 7679265 7749400 7782472 7789207 7766561 7699232 7570521 
676.723 7376933 7139041 6901382 6718203 6635578 6664765 6772792 6884780 
677.205 6913261 6780708 6452546 5956310 5389382 4891442 4582188 4513443 
677.687 4642016 4867389 5079633 5212260 5253173 5236696 5218589 5252361 
678.169 5366971 5557388 5791561 6027018 6231498 6389156 6501560 6575992 
678.651 6612329 6594349 6491847 6270358 5911260 5430804 4896356 4412617 
679.133 4096742 4024677 4195782 4541259 4963111 5379570 5737779 6021408 
679.615 6237446 6400262 6517218 6580637 6567388 6450747 6212272 5855324 
680.096 5407185 4916422 4438199 4015572 3674761 3420188 3242809 3131149 
680.578 3082933 3108488 3224222 3436033 3726278 4052939 4367138 4625641 
681.060 4801832 4887983 4888898 4818466 4693623 4531843 4347281 4150511 
681.542 3950409 3754024 3566641 3388964 3214359 3027022 2804388 2525100 
682.024 2178343 1778009 1370353 1041349 890110 984788 1322833 1824918 
682.506 2373695 2859702 3220535 3438174 3531085 3535373 3490358 3421891 
682.988 3334622 3216614 3050657 2829126 2563905 2284929 2027941 1817983 
683.470 1652838 1500017 1304620 1013719 598644 84368 -446133 -863863 
683.952 -1054467 -975157 -667902 -229254 240035 663912 1010629 1282602 
684.434 1501705 1689280 1851378 1971395 2018277 1957303 1768459 1455613 
684.916 1047360 586646 116323 -326902 -719930 -1046230 -1287010 -1418099 
685.398 -1413628 -1263329 -989780 -655681 -344036 -122396 -26313 -47584 
685.880 -144759 -254201 -313009 -276045 -128895 105613 374216 607537 745651 
686.422 747286 602198 329335 -28853 -420361 -798893 -1127732 -1389628 
686.904 -1586299 -1737041 -1869317 -2007554 -2159296 -2308122 -2417555 
687.325 -2443068 -2348945 -2112428 -1732905 -1232894 -659297 -73604 462044 
687.807 893191 1189732 1347116 1384708 1336065 1240482 1130797 1021785 
688.289 907145 760026 543518 221098 -222886 -767201 -1340216 -1837040 
688.771 -2155999 -2239959 -2103265 -1818957 -1489626 -1206506 -1037910 
689.193 -1013552 -1123127 -1322844 -1549690 -1742888 -1854531 -1866302 
689.615 -1790678 -1668752 -1556256 -1512342 -1586698 -1804981 -2165434 
690.036 -2635398 -3159712 -3661020 -4058925 -4293636 -4341175 -4222199 
690.458 -3984909 -3683762 -3356712 -3023235 -2692276 -2370696 -2071184 
690.880 -1812087 -1609258 -1469505 -1383495 -1328764 -1275460 -1200057 
691.301 -1094508 -967699 -839459 -729966 -651673 -604374 -578699 -563294 
691.783 -554060 -559532 -599600 -694600 -855550 -1075076 -1329764 -1584682 
692.265 -1803712 -1955553 -2015210 -1970098 -1821360 -1587203 -1300440 
692.687 -1007744 -762073 -608096 -576702 -672715 -873892 -1132413 -1389503 
693.169 -1591969 -1702072 -1710390 -1634539 -1514336 -1395504 -1320890 
693.591 -1321138 -1410742 -1592713 -1859988 -2196344 -2571622 -2941979 
694.012 -3256436 -3463471 -3531871 -3460607 -3281762 -3047666 -2816645 
694.434 -2635862 -2526163 -2482374 -2478522 -2484283 -2476159 -2448884 
694.856 -2414885 -2399196 -2427479 -2515705 -2662014 -2843644 -3020265 
695.277 -3141817 -3164868 -3057938 -2809260 -2430205 -1958109 -1454868 
695.699 -994683 -658824 -509811 -575672 -842140 -1254091 -1727324 -2163414 
696.181 -2482121 -2633570 -2610584 -2443040 -2187066 -1908398 -1665710 
696.603 -1510467 -1476833 -1577749 -1802158 -2116004 -2469855 -2807810 
697.024 -3085046 -3272750 -3361303 -3358163 -3282208 -3156680 -3001302 
697.446 -2830707 -2652511 -2469160 -2280742 -2086155 -1883517 -1669846 
697.868 -1442129 -1199931 -949717 -707117 -499091 -360094 -321177 -402027 
698.350 -599907 -889658 -1228295 -1570579 -1881430 -2138562 -2333860 
698.771 -2466888 -2539400 -2552890 -2509703 -2416750 -2287359 -2143461 
699.193 -2012195 -1918379 -1881331 -1908515 -1996065 -2132519 -2305832 
699.615 -2507990 -2735863 -2988826 -3262882 -3545038 -3813474 -4039233 
700.036 -4195548 -4267933 -4257108 -4178180 -4052874 -3904652 -3751437 
700.458 -3603833 -3466634 -3340755 -3227045 -3129249 -3054340 -3011635 
700.880 -3009257 -3049717 -3127097 -3226180 -3326621 -3405986 -3447782 
701.302 -3445597 -3404218 -3336994 -3260303 -3187267 -3121565 -3056934 
701.723 -2981136 -2885343 -2771396 -2656622 -2568833 -2540644 -2595231 
702.145 -2736267 -2942062 -3168747 -3361303 -3465664 -3449643 -3309646 
702.567 -3072953 -2786215 -2507417 -2291473 -2176853 -2184501 -2312590 
702.988 -2539691 -2825606 -3119876 -3370052 -3527268 -3561247 -3465936 
703.410 -3263693 -2997934 -2725598 -2502100 -2363793 -2323000 -2362720 
703.832 -2445151 -2520135 -2545325 -2500405 -2393586 -2258675 -2142789 
704.253 -2091846 -2131869 -2264066 -2464264 -2694640 -2912073 -3082689 
704.675 -3191667 -3244234 -3262645 -3275433 -3310328 -3384162 -3500951 
705.097 -3652425 -3821352 -3983787 -4111728 -4180136 -4169377 -4071752 
705.518 -3894741 -3661964 -3407698 -3167444 -2971400 -2833495 -2749820 
705.940 -2701362 -2663793 -2616758 -2551171 -2472140 -2395386 -2339800 
706.362 -2318103 -2333615 -2379542 -2444136 -2514898 -2583297 -2645272 
706.784 -2699092 -2743509 -2776754 -2798059 -2809950 -2820207 -2841081 
707.205 -2884183 -2955876 -3051718 -3156381 -3245187 -3291985 -3277000 
707.627 -3190155 -3034246 -2822533 -2576384 -2319498 -2076504 -1870726 
708.049 -1718942 -1628536 -1591579 -1584526 -1569770 -1508918 -1379435 
708.470 -1185841 -964863 -774697 -680994 -727848 -922900 -1229609 -1582660 
708.952 -1906523 -2144435 -2279075 -2331661 -2348330 -2373353 -2432630 
709.374 -2521064 -2610625 -2664952 -2661780 -2603676 -2518268 -2442614 
709.796 -2407438 -2421231 -2466935 -2508293 -2505688 -2433260 -2283775 
710.217 -2068606 -1807314 -1519337 -1216495 -904582 -589713 -283215 -4171 
710.699 223919 383458 468846 491950 477274 455997 452910 477683 523365 
711.241 570397 595668 578909 509966 388900 224685 31250 -174045 -372757 
711.784 -549195 -691705 -796737 -869816 -924363 -976006 -1035548 -1103734 
712.266 -1168943 -1210672 -1206805 -1145849 -1033283 -893696 -761269 -671997 
712.747 -651030 -705969 -828057 -997856 -1195857 -1408599 -1633224 -1873751 
713.229 -2133352 -2406804 -2676001 -2910403 -3077046 -3147586 -3109948 
713.651 -2973439 -2769372 -2543447 -2342651 -2209783 -2171042 -2232475 
714.073 -2378497 -2575044 -2774112 -2920661 -2969438 -2891940 -2686271 
714.494 -2376176 -2006507 -1630227 -1292526 -1026255 -843791 -739739 -696332 
714.976 -692138 -708405 -732165 -758674 -789742 -832399 -896423 -993763 
715.458 -1135980 -1330471 -1577474 -1865819 -2173169 -2465942 -2709522 
715.880 -2877939 -2962054 -2974513 -2946211 -2917681 -2922941 -2982151 
716.302 -3093563 -3235774 -3371738 -3460552 -3469812 -3379522 -3187378 
716.723 -2905785 -2558844 -2175672 -1788344 -1431012 -1134133 -924243 
717.145 -818137 -817558 -906818 -1053960 -1220290 -1366501 -1466709 -1515062 
717.627 -1526423 -1529664 -1556544 -1630952 -1758257 -1924306 -2099591 
718.049 -2252623 -2357997 -2405770 -2401798 -2362365 -2304654 -2238848 
718.470 -2166960 -2086083 -1996065 -1906682 -1838222 -1817404 -1867759 
718.892 -1997559 -2195112 -2429804 -2664974 -2867171 -3020342 -3129169 
719.314 -3214686 -3301589 -3404690 -3521145 -3631490 -3709363 -3734757 
719.735 -3705758 -3639526 -3564858 -3505979 -3471571 -3446386 -3397631 
720.157 -3284936 -3080769 -2782849 -2416452 -2023364 -1645811 -1313311 
720.579 -1033552 -797413 -589396 -400468 -233792 -103721 -25985 -9250 -46879 
721.121 -118679 -195988 -254827 -284314 -289775 -288212 -300188 -341409 
721.603 -416906 -522826 -651249 -796798 -959101 -1141563 -1345912 -1567284 
722.085 -1792831 -2006086 -2192749 -2348709 -2481702 -2607754 -2740520 
722.507 -2881858 -3015078 -3109994 -3130646 -3051700 -2870229 -2608831 
722.928 -2309018 -2016026 -1769173 -1589350 -1479745 -1431201 -1430406 
723.350 -1464585 -1522332 -1592144 -1657559 -1696894 -1688953 -1617910 
723.772 -1481868 -1294439 -1082800 -877603 -704212 -578307 -503539 -476494 
724.254 -491724 -545442 -634070 -749931 -878259 -995133 -1074733 -1100349 
724.736 -1072157 -1010600 -948314 -919598 -943240 -1015546 -1109778 -1189274 
725.217 -1220925 -1191876 -1115936 -1030336 -980934 -1003273 -1115081 
725.639 -1311443 -1572950 -1874287 -2195408 -2523859 -2850834 -3165888 
726.061 -3451063 -3681485 -3834798 -3899085 -3881396 -3805367 -3705040 
726.483 -3609898 -3533603 -3471369 -3404742 -3313705 -3188034 -3035197 
726.904 -2878490 -2748271 -2666171 -2636342 -2640084 -2644050 -2608725 
727.326 -2504724 -2322868 -2075906 -1793734 -1513018 -1270347 -1091590 
727.748 -990492 -968975 -1019268 -1126276 -1269836 -1429268 -1584468 
728.169 -1720929 -1833127 -1925061 -2008532 -2097217 -2201988 -2324288 
728.591 -2454633 -2573930 -2660786 -2697019 -2673677 -2593695 -2471236 
729.013 -2328436 -2188991 -2076750 -2010965 -2004159 -2062543 -2184318 
729.434 -2359315 -2567028 -2779458 -2962521 -3080451 -3105762 -3022401 
729.856 -2831160 -2548787 -2207244 -1847247 -1508698 -1227171 -1023621 
730.278 -901671 -848919 -843131 -860000 -880191 -896098 -911889 -940912 
730.760 -997963 -1093367 -1225985 -1382118 -1535792 -1656325 -1717381 
731.181 -1703034 -1615315 -1474495 -1317747 -1188043 -1128032 -1170004 
731.603 -1326193 -1585861 -1914397 -2263595 -2577143 -2808595 -2934036 
732.025 -2956668 -2905658 -2824380 -2759103 -2741353 -2782995 -2875637 
732.446 -2998516 -3127288 -3244249 -3344066 -3431626 -3515774 -3600506 
732.868 -3678510 -3729531 -3725155 -3634787 -3438762 -3134962 -2742283 
733.290 -2294924 -1836948 -1413975 -1062965 -812811 -679771 -666287 -761389 
733.772 -942368 -1179846 -1440283 -1695228 -1925191 -2121482 -2286768 
734.193 -2431606 -2570010 -2713233 -2866879 -3027902 -3185941 -3324283 
734.615 -3424730 -3472526 -3457963 -3379043 -3239978 -3049247 -2816080 
735.037 -2549309 -2257946 -1952192 -1647518 -1366677 -1136922 -989588 
735.459 -951737 -1038133 -1246419 -1554038 -1922826 -2303676 -2652277 
735.880 -2937325 -3145808 -3283335 -3368228 -3423386 -3467077 -3510353 
736.302 -3555270 -3597389 -3628561 -3640221 -3625336 -3578515 -3496995 
736.724 -3380720 -3232760 -3058849 -2866929 -2666186 -2465263 -2272997 
737.145 -2098609 -1951511 -1842052 -1778868 -1765587 -1797819 -1862325 
737.567 -1939719 -2008295 -2052642 -2067431 -2059266 -2042559 -2034124 
737.989 -2045926 -2080768 -2133326 -2194907 -2260135 -2330456 -2413891 
738.410 -2518944 -2647115 -2786699 -2912785 -2992222 -2997591 -2915227 
738.832 -2751823 -2530480 -2284366 -2043824 -1826192 -1635314 -1465197 
739.254 -1309977 -1172745 -1068798 -1020977 -1050722 -1164569 -1347383 
739.675 -1560617 -1754823 -1877984 -1891899 -1782910 -1562438 -1262711 
740.097 -924071 -588249 -286661 -37988 149070 273359 336724 341656 290401 
740.639 186047 33770 -159010 -381507 -620918 -864473 -1099460 -1315943 
741.121 -1507376 -1670553 -1805778 -1916150 -2007001 -2084346 -2154104 
741.543 -2220406 -2284121 -2341831 -2385542 -2404550 -2386665 -2322623 
741.965 -2209792 -2054687 -1872713 -1685103 -1515126 -1380157 -1288939 
742.386 -1239422 -1221305 -1220052 -1223251 -1226085 -1232466 -1252967 
742.808 -1298289 -1373256 -1470818 -1571662 -1646950 -1669683 -1623918 
743.230 -1513306 -1361787 -1210067 -1104471 -1080360 -1155026 -1319081 
743.651 -1540692 -1770862 -1960497 -2074229 -2096437 -2034017 -1908692 
744.073 -1747882 -1573311 -1399113 -1233451 -1083514 -962313 -890191 -889350 
744.555 -977740 -1157978 -1412974 -1704388 -1983389 -2202807 -2327529 
744.977 -2346540 -2272076 -2134105 -1966400 -1799815 -1655502 -1544609 
745.398 -1473634 -1446757 -1466347 -1529949 -1626168 -1733122 -1819053 
745.820 -1853324 -1815630 -1705086 -1542073 -1364510 -1217065 -1135789 
746.242 -1142870 -1239747 -1410043 -1623155 -1843459 -2037773 -2177301 
746.664 -2243946 -2231304 -2146353 -2008003 -1844818 -1688758 -1564551 
747.085 -1485790 -1450183 -1442356 -1437824 -1412051 -1348025 -1239119 
747.507 -1090549 -915971 -734729 -567133 -434873 -360982 -365706 -464475 
747.989 -660475 -940597 -1273275 -1615484 -1925993 -2172879 -2344239 
748.411 -2446250 -2495869 -2508450 -2489793 -2433721 -2329080 -2170761 
748.832 -1971077 -1760538 -1584047 -1484474 -1485685 -1585161 -1752357 
749.254 -1940986 -2100721 -2197717 -2221643 -2185481 -2114814 -2036056 
749.676 -1964373 -1898595 -1824686 -1724340 -1585954 -1410248 -1212232 
750.097 -1016187 -851628 -744212 -711312 -760195 -886324 -1074280 -1298967 
750.579 -1531813 -1742513 -1905160 -2003479 -2030416 -1988647 -1887413 
751.001 -1741297 -1567990 -1388235 -1228414 -1116957 -1082361 -1147421 
751.423 -1320219 -1589190 -1920686 -2267957 -2576015 -2797540 -2904763 
751.844 -2891779 -2775160 -2585585 -2361386 -2135806 -1931726 -1759393 
752.266 -1616582 -1492969 -1375731 -1256254 -1133549 -1016925 -923179 
752.688 -873742 -886457 -968804 -1114383 -1303710 -1510298 -1707265 -1877628 
753.170 -2016421 -2129597 -2227395 -2318062 -2402569 -2474967 -2526338 
753.591 -2551409 -2552577 -2539444 -2522899 -2507890 -2488930 -2451618 
754.013 -2379429 -2263245 -2108631 -1936667 -1777751 -1658123 -1592253 
754.435 -1575826 -1589774 -1608032 -1611145 -1594508 -1569451 -1556694 
754.856 -1576644 -1641274 -1749241 -1887943 -2038241 -2181464 -2299827 
755.278 -2376882 -2397120 -2345125 -2211811 -2001764 -1741224 -1477208 
755.700 -1269012 -1176454 -1235918 -1450112 -1782347 -2170358 -2538281 
756.121 -2819670 -2977340 -3005322 -2927123 -2779993 -2603102 -2422206 
756.543 -2246381 -2071452 -1887375 -1686298 -1468829 -1245801 -1037434 
756.965 -868400 -759130 -721624 -753617 -838799 -947548 -1044855 -1100177 
757.447 -1095054 -1032934 -939638 -859322 -837252 -908421 -1084339 -1349031 
757.929 -1660978 -1963819 -2204445 -2340830 -2356402 -2261824 -2092900 
758.350 -1899248 -1733010 -1641606 -1654526 -1780369 -2002967 -2285234 
758.772 -2572103 -2802607 -2928557 -2922665 -2790388 -2566537 -2309904 
759.194 -2083910 -1940267 -1910601 -1998132 -2182217 -2425154 -2686038 
759.615 -2925085 -3109464 -3217427 -3236229 -3164363 -3011931 -2802088 
760.037 -2567887 -2346148 -2173361 -2074100 -2056416 -2108897 -2204609 
760.459 -2307167 -2381057 -2404390 -2372437 -2299001 -2208425 -2128925 
760.881 -2080919 -2070195 -2085505 -2101434 -2086285 -2010534 -1859442 
761.302 -1637800 -1372302 -1103689 -882451 -757254 -761536 -908917 -1186305 
761.784 -1557839 -1967014 -2350743 -2650899 -2819875 -2833780 -2694120 
762.206 -2428708 -2082312 -1710514 -1368629 -1098804 -930499 -875915 -931586 
762.688 -1080253 -1294739 -1543250 -1791346 -2010965 -2184249 -2306338 
763.109 -2385803 -2441502 -2496964 -2571475 -2676054 -2808679 -2955941 
763.531 -3095699 -3205011 -3267388 -3275217 -3231176 -3144643 -3027553 
763.953 -2889314 -2735088 -2566116 -2381760 -2182718 -1973965 -1765311 
764.375 -1572774 -1416175 -1315085 -1286733 -1339297 -1468243 -1652918 
764.796 -1859810 -2046906 -2171817 -2206574 -2144255 -2004090 -1823673 
765.218 -1650756 -1526100 -1470351 -1481797 -1538770 -1611908 -1674440 
765.640 -1714875 -1738696 -1763853 -1808435 -1880513 -1970716 -2055054 
766.061 -2100977 -2080467 -1981664 -1812786 -1601700 -1386644 -1210373 
766.483 -1106435 -1092921 -1169901 -1320382 -1514358 -1713731 -1882718 
766.905 -1990087 -2015580 -1954054 -1815878 -1625954 -1417006 -1226481 
767.326 -1085237 -1011008 -1004666 -1049257 -1114331 -1162743 -1164669 
767.748 -1104619 -988500 -840616 -698197 -598191 -564010 -601008 -694294 
768.230 -816928 -938613 -1040158 -1119863 -1194236 -1288856 -1427806 
768.652 -1621680 -1861559 -2119854 -2359164 -2547334 -2665036 -2713363 
769.073 -2709974 -2683437 -2662649 -2671131 -2725564 -2833315 -2992572 
769.495 -3190171 -3401706 -3589669 -3708225 -3716359 -3585498 -3313705 
769.917 -2928009 -2482728 -2043116 -1667451 -1396819 -1242661 -1190586 
770.339 -1208024 -1260574 -1320942 -1376755 -1430556 -1493782 -1578487 
770.760 -1689874 -1822665 -1960959 -2082498 -2161740 -2178394 -2122319 
771.182 -1997983 -1824950 -1636262 -1471904 -1365419 -1337389 -1386300 
771.604 -1489815 -1609335 -1704812 -1750152 -1740192 -1692885 -1639417 
772.025 -1613320 -1635304 -1709409 -1824190 -1961963 -2107116 -2253642 
772.447 -2405174 -2569089 -2747064 -2928783 -3089330 -3196648 -3222409 
772.869 -3150643 -2985263 -2748557 -2476547 -2206870 -1974604 -1806401 
773.290 -1716222 -1706210 -1764862 -1869276 -1984266 -2069405 -2087911 
773.712 -2012739 -1837831 -1579893 -1276860 -974192 -715765 -533546 -440584 
774.194 -433971 -498227 -612680 -753269 -896722 -1022605 -1112290 -1153000 
774.676 -1140130 -1079623 -988060 -891418 -821704 -807822 -871891 -1022174 
775.158 -1250237 -1530019 -1821789 -2081582 -2264724 -2338789 -2289939 
775.580 -2125884 -1874226 -1576260 -1279688 -1023970 -836427 -726835 -688352 
776.061 -701640 -742075 -787773 -821171 -831684 -814138 -766504 -689709 
776.543 -588422 -473099 -358865 -264401 -207789 -200468 -245260 -335044 
777.025 -456305 -591792 -726212 -849279 -955526 -1043988 -1116237 -1175161 
777.507 -1224046 -1266383 -1305212 -1341735 -1374033 -1396797 -1403601 
777.929 -1389452 -1355223 -1309282 -1267583 -1248351 -1265733 -1325149 
778.351 -1420745 -1538213 -1659852 -1772443 -1870180 -1955321 -2034472 
778.772 -2114426 -2198105 -2284168 -2369055 -2449720 -2524853 -2592784 
779.194 -2648190 -2679188 -2666834 -2592240 -2444343 -2229607 -1974427 
779.616 -1724056 -1530950 -1436596 -1462832 -1600787 -1814499 -2046479 
780.037 -2237712 -2343809 -2344550 -2249609 -2092348 -1919789 -1774873 
780.459 -1689969 -1679480 -1740224 -1856309 -2006263 -2170708 -2333775 
780.881 -2485163 -2617367 -2721275 -2785360 -2796223 -2742896 -2623899 
781.302 -2452276 -2257643 -2078099 -1954663 -1918103 -1979790 -2129888 
781.724 -2339618 -2570435 -2779104 -2930022 -2999051 -2974871 -2859940 
782.146 -2668794 -2426706 -2163789 -1913762 -1706688 -1561524 -1484353 
782.568 -1466728 -1491493 -1539419 -1599331 -1672017 -1768043 -1897980 
782.989 -2061693 -2239257 -2393947 -2478350 -2451637 -2297385 -2030997 
783.411 -1698538 -1358907 -1071300 -873716 -776868 -767445 -818222 -899081 
783.893 -983904 -1056278 -1106567 -1130411 -1128274 -1107010 -1082309 
784.315 -1076905 -1119327 -1234108 -1433246 -1710887 -2042860 -2392661 
784.736 -2718652 -2988010 -3180533 -3290686 -3324746 -3296918 -3225965 
785.158 -3131888 -3037045 -2961429 -2917371 -2904884 -2908224 -2900142 
785.580 -2849943 -2739866 -2575113 -2388211 -2227524 -2145098 -2176248 
786.001 -2324715 -2559703 -2824110 -3056428 -3203657 -3239655 -3165645 
786.423 -3003491 -2782663 -2530939 -2270498 -2015808 -1778311 -1568591 
786.845 -1395735 -1266634 -1183574 -1143948 -1142041 -1172078 -1230469 
787.266 -1314648 -1420771 -1540359 -1658592 -1758798 -1827472 -1861013 
787.688 -1867898 -1866172 -1875055 -1904681 -1951501 -1998809 -2025973 
788.110 -2017693 -1974452 -1913506 -1864813 -1857512 -1910370 -2024477 
788.531 -2183795 -2360159 -2522108 -2644942 -2711570 -2714403 -2653655 
788.953 -2536809 -2379028 -2202829 -2038484 -1915297 -1854496 -1861305 
789.375 -1921406 -2003580 -2069377 -2089522 -2051818 -1967505 -1864505 
789.797 -1779857 -1745008 -1776454 -1873021 -2016541 -2177603 -2320427 
790.218 -2413631 -2433702 -2370454 -2229957 -2035563 -1825938 -1644943 
790.640 -1537116 -1533067 -1640876 -1843506 -2102984 -2371891 -2602424 
791.062 -2762517 -2839364 -2840128 -2785951 -2706179 -2631085 -2583681 
791.483 -2578051 -2614091 -2676833 -2735682 -2752196 -2691968 -2535765 
791.905 -2293123 -2004564 -1736792 -1558468 -1524171 -1654130 -1927692 
792.327 -2287403 -2657248 -2970645 -3182692 -3284410 -3295708 -3252403 
792.748 -3186230 -3113948 -3035157 -2937740 -2806661 -2631596 -2410807 
793.170 -2149626 -1857725 -1545993 -1228034 -921187 -646741 -431163 -299161 
793.652 -267385 -339315 -502151 -728927 -983898 -1234772 -1457053 -1639268 
794.134 -1782684 -1898138 -2001809 -2110279 -2238917 -2397390 -2586965 
794.556 -2798065 -3010713 -3196922 -3324752 -3368697 -3314095 -3161927 
794.977 -2927377 -2637608 -2326298 -2026937 -1774240 -1598625 -1522252 
795.399 -1555754 -1691184 -1899870 -2131749 -2330198 -2443932 -2444524 
795.821 -2338124 -2164208 -1982826 -1849943 -1805572 -1859160 -1991407 
796.242 -2160157 -2315889 -2415531 -2429159 -2347805 -2180641 -1951609 
796.664 -1691451 -1434638 -1213595 -1050884 -957425 -929147 -951403 -1006006 
797.146 -1082580 -1185541 -1334683 -1555045 -1862642 -2248992 -2676122 
797.568 -3079908 -3387837 -3548177 -3543386 -3399025 -3168701 -2918173 
797.989 -2697890 -2529073 -2405052 -2302074 -2196841 -2079119 -1956519 
798.411 -1847492 -1768889 -1723773 -1698076 -1665799 -1602997 -1497169 
798.833 -1355274 -1200015 -1064065 -976946 -956904 -1008049 -1120412 
799.255 -1273813 -1441327 -1596127 -1712432 -1770092 -1759914 -1686445 
799.676 -1570269 -1443158 -1343856 -1304292 -1339785 -1444235 -1591541 
800.098 -1743388 -1857712 -1902394 -1858290 -1722385 -1506272 -1235030 
800.520 -944443 -674317 -467864 -360462 -370730 -494941 -704509 -952670 
801.002 -1183777 -1354741 -1444924 -1462294 -1435619 -1403066 -1396071 
801.423 -1428136 -1495097 -1580270 -1665095 -1734828 -1782808 -1807120 
801.845 -1805435 -1772274 -1700409 -1586529 -1437398 -1272931 -1122860 
802.267 -1014934 -967281 -978948 -1031416 -1094084 -1137897 -1146262 
802.688 -1118843 -1069981 -1020935 -992562 -997911 -1042216 -1124403 
803.110 -1239699 -1379525 -1529379 -1667850 -1764012 -1784544 -1704391 
803.532 -1515888 -1237921 -914332 -607785 -377136 -264138 -280509 -406662 
804.014 -599407 -807832 -993070 -1134695 -1235661 -1314246 -1394727 -1494707 
804.496 -1619516 -1762247 -1909070 -2045439 -2160646 -2249990 -2311779 
804.917 -2343690 -2340415 -2293092 -2193140 -2037213 -1831208 -1591621 
805.339 -1341841 -1108757 -913966 -770267 -681324 -644048 -653498 -706967 
805.821 -805028 -948917 -1135331 -1352654 -1578296 -1783867 -1944858 
806.243 -2048372 -2101545 -2130440 -2174184 -2268085 -2431954 -2659355 
806.664 -2918781 -3159453 -3327898 -3388496 -3332366 -3183111 -2985699 
807.086 -2795574 -2656803 -2590252 -2589319 -2623275 -2646691 -2611517 
807.508 -2485313 -2258644 -1951555 -1606701 -1284066 -1044713 -934118 
807.929 -976346 -1164608 -1465136 -1821833 -2174893 -2473974 -2687828 
808.351 -2811223 -2859372 -2858718 -2832535 -2793734 -2739798 -2656884 
808.773 -2526475 -2336494 -2088732 -1802870 -1513232 -1261681 -1091293 
809.194 -1032429 -1097981 -1278070 -1542511 -1842712 -2120826 -2325180 
809.616 -2415712 -2376964 -2220633 -1984899 -1724263 -1496413 -1354019 
810.038 -1328443 -1425792 -1624693 -1884409 -2152590 -2380248 -2538550 
810.459 -2623596 -2657641 -2676101 -2715240 -2793865 -2906430 -3024555 
810.881 -3110917 -3134881 -3085497 -2977022 -2843178 -2723286 -2643183 
811.303 -2607330 -2596411 -2579909 -2528879 -2432624 -2303199 -2171603 
811.725 -2072678 -2031102 -2053714 -2128433 -2231468 -2336513 -2424879 
812.146 -2485720 -2514422 -2507980 -2461904 -2372214 -2240368 -2078339 
812.568 -1908268 -1755969 -1643453 -1578267 -1552004 -1545044 -1540209 
812.990 -1533547 -1541123 -1591509 -1714346 -1921352 -2197059 -2497881 
813.411 -2767721 -2959194 -3046748 -3035790 -2953579 -2834044 -2697822 
813.833 -2545000 -2357096 -2112940 -1804640 -1451474 -1096950 -801616 
814.255 -620863 -587088 -703371 -942170 -1255745 -1585047 -1878060 -2095467 
814.737 -2215564 -2236494 -2174149 -2059886 -1932763 -1837332 -1811877 
815.158 -1877955 -2035244 -2258531 -2505272 -2724266 -2875318 -2938201 
815.580 -2916838 -2833330 -2717927 -2596807 -2482478 -2373544 -2257838 
816.002 -2120940 -1952322 -1751787 -1530224 -1309209 -1114955 -973716 
816.423 -907629 -927794 -1031908 -1201810 -1407775 -1611059 -1773830 
816.845 -1870444 -1891477 -1847758 -1764483 -1675505 -1610242 -1586066 
817.267 -1605194 -1655690 -1716706 -1764906 -1783046 -1762517 -1706140 
817.688 -1626493 -1544145 -1481512 -1455851 -1474710 -1530694 -1602642 
818.110 -1658819 -1669403 -1616104 -1500341 -1343393 -1180627 -1048675 
818.532 -969876 -946511 -958751 -974565 -958307 -885360 -749022 -561119 
819.014 -346850 -136922 38170 156049 202239 170357 61673 -115137 -343316 
819.556 -600273 -856723 -1082684 -1253405 -1351549 -1372100 -1321597 
819.978 -1217139 -1081718 -941810 -824441 -750680 -733064 -770059 -845075 
820.460 -926967 -978847 -971321 -891012 -748807 -575645 -414720 -302689 
820.942 -258348 -275903 -329691 -384598 -411773 -401255 -362992 -320634 
821.423 -297460 -307305 -347132 -400340 -443506 -458144 -437261 -386959 
821.905 -322055 -260634 -218327 -204326 -222319 -270826 -344295 -432029 
822.387 -518370 -585006 -613379 -592733 -525262 -428886 -331526 -263489 
822.869 -246891 -286089 -365447 -452108 -508020 -496599 -395113 -200339 
823.351 71070 385988 702314 972120 1154657 1222171 1167790 1010154 793998 
823.893 582485 435553 397149 476025 644403 845325 1015330 1106974 1098869 
824.436 1001874 849474 685218 543303 441507 379236 345260 327866 323827 
824.978 339826 387944 476406 602265 748155 886863 989655 1033246 1008401 
825.520 920714 789814 642883 511974 427726 411520 472407 601634 774471 
826.062 952424 1095790 1175633 1181652 1127730 1047442 985005 976549 1040406 
826.604 1168910 1333441 1492314 1606376 1652198 1624520 1536248 1410070 
827.086 1273153 1148665 1053986 1001426 997459 1043515 1134831 1260848 
827.568 1405412 1550396 1681491 1790147 1875585 1941805 1992866 2028046 
828.050 2040358 2019068 1956914 1856994 1737944 1629673 1567655 1579284 
828.532 1671663 1827354 2007272 2164810 2254814 2250249 2147490 1966347 
829.014 1742193 1516682 1329146 1205134 1155389 1175238 1249706 1357610 
829.496 1477955 1595674 1703088 1802334 1903915 2024314 2179513 2378882 
829.978 2619103 2881588 3133129 3332114 3443353 3446176 3344713 3166881 
830.460 2961686 2785328 2685445 2693605 2814219 3026642 3290651 3561735 
830.942 3800185 3977969 4083086 4115363 4082238 3993005 3856800 3681660 
831.424 3476002 3252688 3029655 2828602 2673462 2582623 2565311 2619131 
831.906 2731605 2883575 3054044 3226231 3388262 3534435 3663829 3777006 
832.387 3873529 3950758 4004616 4033060 4039936 4038813 4051229 4103598 
832.869 4219426 4409077 4665071 4960020 5254964 5504256 5669861 5730799 
833.351 5684887 5547926 5345141 5103856 4842959 4570974 4287993 3991584 
833.833 3683492 3374208 3081400 2827386 2631465 2503965 2444745 2444086 
834.315 2487671 2560060 2649722 2749240 2854327 2962456 3070872 3175561 
834.797 3271412 3352043 3410750 3442499 3445681 3425039 3392604 3368077 
835.279 3372675 3422493 3521565 3657561 3802897 3921453 3983289 3973103 
835.761 3898786 3787511 3678256 3604729 3581935 3602147 3639271 3662197 
836.243 3647545 3592043 3512475 3438773 3397792 3403823 3452174 3524473 
836.725 3596557 3650583 3681851 3698513 3716123 3748873 3804156 3879728 
837.207 3966753 4054244 4133868 4199847 4247372 4270979 4264216 4223932 
837.689 4155590 4078412 4023514 4024375 4106719 4273037 4498332 4732047 
838.171 4917212 5005704 4976277 4843245 4653717 4472626 4356825 4342857 
838.653 4433843 4605281 4814875 5021078 5194776 5322310 5404108 5445837 
839.135 5450299 5413464 5326404 5182267 4983772 4747856 4504481 4287565 
839.616 4129612 4050112 4051476 4118911 4226273 4343461 4443539 4511204 
840.098 4543746 4550574 4548249 4556903 4594282 4670689 4787545 4936360 
840.580 5101922 5264864 5408337 5521960 5603863 5660488 5703314 5743667 
841.062 5786847 5830033 5862650 5871832 5846858 5785080 5693087 5585305 
841.544 5478091 5384352 5311252 5259841 5229038 5220196 5239384 5296703 
842.026 5401305 5554779 5747200 5956911 6157367 6322609 6438048 6505123 
842.508 6542319 6578786 6646419 6771649 6966158 7225370 7528368 7844334 
842.990 8134171 8357674 8481922 8484286 8361184 8129872 7828900 7507134 
843.472 7211492 6975518 6806148 6683063 6564848 6408798 6184981 5892319 
843.954 5559595 5239986 4991551 4855089 4841889 4925254 5049887 5144021 
844.436 5146610 5019955 4758691 4388533 3960183 3538090 3182502 2945833 
844.918 2860654 2935363 3152973 3471630 3831232 4156826 4379681 4450396 
845.400 4350947 4101344 3755596 3390157 3078160 2878604 2817750 2886223 
845.882 3045521 3244915 3440803 3605182 3732365 3831800 3917329 3994730 
846.364 4056270 4081324 4047082 3937924 3756492 3525170 3284486 3081325 
846.845 2954638 2929687 3010101 3180755 3411911 3669648 3920869 4136733 
847.327 4297309 4390139 4412605 4373210 4293760 4207403 4150154 4154733 
847.809 4236266 4386308 4571644 4745443 4860848 4884397 4809330 4655926 
848.291 4465652 4283454 4147821 4078041 4072433 4113927 4180369 4254761 
848.773 4329182 4405333 4488690 4581592 4678383 4764807 4821765 4833840 
849.255 4794061 4708488 4594437 4478451 4388680 4347167 4366955 4447771 
849.737 4577472 4733595 4889866 5019880 5101441 5122691 5083488 4996956 
850.219 4885176 4776789 4698688 4667996 4688532 4747450 4819318 4870428 
850.701 4871303 4804356 4670291 4489248 4298091 4142269 4059901 4074059 
851.183 4183298 4364427 4578539 4785389 4955151 5071000 5130264 5137390 
851.665 5096627 5006927 4862463 4658419 4399099 4104301 3809755 3556107 
852.147 3381249 3304929 3323250 3410704 3532095 3657467 3771784 3880126 
852.629 4000812 4153158 4343055 4555877 4756665 4903685 4957952 4899134 
853.111 4731711 4484064 4198990 3920553 3687666 3523729 3436980 3422407 
853.593 3465830 3546273 3638317 3716972 3758114 3743780 3666249 3529227 
854.074 3347261 3140594 2931594 2737332 2567491 2425358 2310815 2224880 
854.556 2173072 2164932 2212090 2323604 2501343 2737420 3013418 3303456 
855.038 3573930 3790342 3922359 3947100 3857401 3664824 3402680 3118633 
855.520 2870649 2713705 2682914 2786946 3001536 3278236 3552184 3763559 
856.002 3872765 3865205 3753237 3567134 3345500 3120278 2911925 2726369 
856.484 2558261 2397506 2236520 2074808 1919805 1783577 1677314 1606865 
856.966 1568486 1549019 1527272 1481658 1395207 1261681 1088760 898495 
857.448 723753 598513 553182 604019 748455 964304 1215468 1461613 1664470 
857.990 1799571 1858031 1846928 1784444 1695412 1604919 1531387 1485751 
858.472 1469314 1475449 1490997 1499852 1486502 1438197 1349919 1226642 
858.954 1084873 948319 843369 790455 795371 846054 913675 963314 961973 
859.496 893191 763196 601022 447794 342815 312064 357335 456753 570303 
860.038 656054 679435 625047 499122 325319 134420 -47504 -203587 -330355 
860.581 -433876 -524316 -608782 -687312 -751383 -787298 -779849 -717912 
861.062 -599489 -433787 -241810 -51612 103295 192953 197516 110779 -56208 
861.605 -276841 -511547 -719741 -866224 -930444 -912097 -830303 -718085 
862.087 -610308 -537644 -515961 -543544 -602587 -666480 -708991 -711273 
862.569 -668940 -591553 -499291 -414274 -355668 -334212 -350896 -399486 
863.050 -470798 -557429 -655515 -765348 -889012 -1027585 -1178789 -1336155 
863.532 -1489351 -1626822 -1736681 -1808331 -1834169 -1809646 -1735006 
863.954 -1616253 -1466907 -1306900 -1158991 -1046230 -983985 -976427 
864.376 -1014746 -1080480 -1149935 -1200415 -1217416 -1195351 -1137987 
864.797 -1054891 -959169 -864269 -782472 -726056 -705500 -728249 -796219 
865.279 -903264 -1034539 -1167753 -1280380 -1353119 -1375673 -1348202 
865.701 -1279353 -1182184 -1069373 -953247 -845253 -758108 -708004 -710758 
866.183 -777513 -907976 -1086788 -1283384 -1458658 -1579516 -1626548 
866.605 -1603013 -1531538 -1447670 -1384654 -1361871 -1380822 -1426696 
867.026 -1477458 -1513296 -1526235 -1520815 -1510157 -1506288 -1513171 
867.448 -1521909 -1514118 -1466984 -1364054 -1202555 -996542 -773792 -568177 
867.930 -413168 -330858 -329563 -402467 -531828 -692507 -858289 -1008777 
868.412 -1129856 -1215151 -1263589 -1276059 -1253411 -1196940 -1111635 
868.834 -1009467 -912214 -851209 -857934 -956579 -1151909 -1424028 -1727187 
869.316 -2000454 -2187453 -2247092 -2169658 -1976786 -1715757 -1440888 
869.737 -1198529 -1017388 -902200 -839586 -806541 -782472 -754083 -718971 
870.219 -683134 -656660 -648239 -661086 -691714 -730745 -765723 -784334 
870.701 -780194 -756750 -731051 -730794 -791476 -945671 -1209941 -1576979 
871.183 -2010294 -2452298 -2830207 -3080648 -3168131 -3095714 -2904881 
871.605 -2661549 -2437029 -2280723 -2212503 -2218945 -2265161 -2306470 
872.026 -2306209 -2247608 -2134904 -1989675 -1840321 -1715266 -1633747 
872.448 -1604239 -1624818 -1685272 -1768743 -1853426 -1917152 -1938134 
872.870 -1899750 -1794684 -1626337 -1409725 -1168162 -932455 -733227 -596240 
873.352 -539529 -568415 -675713 -842709 -1045369 -1257471 -1457066 -1631954 
873.834 -1779872 -1907931 -2027121 -2147220 -2270174 -2387976 -2483075 
874.255 -2535340 -2528861 -2458585 -2333059 -2172082 -1999802 -1834385 
874.677 -1684057 -1544686 -1404612 -1250865 -1077225 -887837 -696893 -522623 
875.159 -380923 -281079 -223591 -203195 -213190 -250093 -314398 -408766 
875.641 -533497 -682185 -840226 -988581 -1107978 -1188030 -1231786 -1256907 
876.123 -1289120 -1354491 -1469947 -1635429 -1832399 -2026883 -2181070 
876.545 -2259462 -2241328 -2126215 -1934984 -1703990 -1474752 -1286997 
876.966 -1166088 -1120580 -1142193 -1211230 -1302003 -1389769 -1457758 
877.388 -1497345 -1508048 -1493692 -1458780 -1405324 -1332604 -1238756 
877.810 -1123638 -991302 -851791 -719548 -612706 -551040 -551478 -627251 
878.292 -783371 -1013523 -1296163 -1594623 -1863667 -2053692 -2128414 
878.713 -2076213 -1917884 -1702317 -1495718 -1364507 -1351006 -1465636 
879.135 -1681775 -1948881 -2203761 -2393244 -2489728 -2492109 -2420943 
879.557 -2303777 -2164385 -2013239 -1849327 -1666488 -1462038 -1242459 
879.978 -1024679 -830059 -680351 -591122 -569024 -613366 -717375 -870229 
880.460 -1055612 -1252410 -1434468 -1571368 -1637114 -1615165 -1505852 
880.882 -1327594 -1115362 -911568 -752227 -661830 -646568 -697004 -792859 
881.364 -911412 -1033005 -1142441 -1230794 -1292902 -1325730 -1327700 
881.786 -1298591 -1240407 -1157691 -1058529 -954158 -857752 -784744 -749305 
882.268 -761044 -821161 -918686 -1029300 -1116821 -1144736 -1084087 -925550 
882.750 -684448 -400212 -126454 86546 199167 195369 82950 -109551 -342934 
883.292 -576201 -771618 -903605 -958855 -938091 -854994 -736075 -617181 
883.774 -534515 -520649 -592642 -746381 -954849 -1175384 -1362163 -1476292 
884.256 -1499912 -1437609 -1313835 -1161133 -1012607 -892294 -809929 -762829 
884.737 -739189 -724404 -704229 -669185 -615620 -546168 -469418 -398990 
885.219 -352454 -346255 -393326 -499193 -660325 -864460 -1092944 -1325522 
885.701 -1540887 -1720499 -1850375 -1920940 -1929818 -1882581 -1793546 
886.123 -1682275 -1570103 -1474351 -1402212 -1350184 -1306324 -1257802 
886.545 -1196827 -1126024 -1056789 -1004335 -978054 -975786 -982647 -978760 
887.027 -948703 -891366 -822663 -772149 -771960 -842751 -988231 -1193059 
887.509 -1431707 -1675926 -1905626 -2111299 -2288349 -2430381 -2522655 
887.930 -2541285 -2463316 -2277107 -1994268 -1649690 -1297536 -994401 
888.352 -779752 -669080 -648771 -686206 -740661 -781776 -798048 -798074 
888.834 -802852 -835104 -908450 -1021398 -1158227 -1294841 -1408849 -1484397 
889.316 -1517856 -1516582 -1495193 -1468185 -1443674 -1419873 -1385382 
889.738 -1323005 -1216633 -1060126 -862203 -647994 -450626 -304324 -230553 
890.219 -230095 -281625 -349039 -395451 -394794 -344447 -265001 -193320 
890.701 -164807 -202483 -307607 -461400 -631030 -781994 -890272 -944871 
891.183 -948340 -909563 -837587 -737052 -609618 -459187 -296216 -140288 
891.665 -17878 46843 37092 -49699 -202044 -397332 -609847 -819126 -1012409 
892.207 -1187121 -1347238 -1498984 -1645951 -1786643 -1913743 -2016649 
892.629 -2083578 -2105557 -2080101 -2013549 -1922332 -1829995 -1765893 
893.051 -1756580 -1818551 -1953323 -2144378 -2359776 -2557039 -2697383 
893.473 -2752607 -2713503 -2591248 -2414255 -2220101 -2044159 -1916749 
893.894 -1856048 -1867244 -1943540 -2068205 -2217629 -2363338 -2479505 
894.316 -2546156 -2553974 -2506807 -2420761 -2319903 -2227439 -2161286 
894.738 -2127294 -2119021 -2120346 -2112940 -2083329 -2026830 -1948694 
895.159 -1860518 -1774749 -1698175 -1629972 -1562605 -1487449 -1400165 
895.581 -1305993 -1219301 -1161624 -1153439 -1207221 -1323809 -1491291 
896.003 -1688344 -1887988 -2065121 -2197654 -2268384 -2267092 -2190679 
896.424 -2046659 -1854118 -1646401 -1465812 -1353974 -1345231 -1452435 
896.846 -1662088 -1932528 -2207210 -2427342 -2550037 -2564095 -2490770 
897.268 -2376035 -2269372 -2211329 -2217374 -2276758 -2358204 -2425374 
897.689 -2451624 -2428228 -2366745 -2291728 -2230586 -2201097 -2207619 
898.111 -2239978 -2279424 -2303532 -2293963 -2241296 -2145224 -2013609 
898.533 -1858852 -1696053 -1539313 -1401080 -1292133 -1220206 -1190577 
898.955 -1205687 -1264954 -1364552 -1497210 -1653192 -1819628 -1982807 
899.376 -2130424 -2252406 -2343486 -2403105 -2434692 -2443538 -2435419 
899.798 -2415687 -2388848 -2359713 -2333527 -2314673 -2305276 -2302702 
900.220 -2299425 -2284052 -2246633 -2183603 -2101387 -2015437 -1945834 
900.641 -1909939 -1913832 -1949895 -1998872 -2040043 -2058612 -2053903 
901.063 -2038434 -2032806 -2054087 -2106450 -2177109 -2240667 -2269123 
901.485 -2242677 -2159479 -2036037 -1902242 -1788131 -1716789 -1695973 
901.906 -1718528 -1766462 -1818903 -1858702 -1873820 -1859169 -1815437 
902.328 -1749060 -1671500 -1599225 -1551400 -1543020 -1580452 -1656187 
902.750 -1750836 -1837116 -1891230 -1902892 -1879358 -1843084 -1821337 
903.171 -1835388 -1888530 -1964174 -2030444 -2055484 -2017756 -1915922 
903.593 -1767601 -1603348 -1454284 -1341099 -1272127 -1243904 -1247874 
904.015 -1275673 -1322905 -1387648 -1466814 -1553747 -1637710 -1707121 
904.437 -1755272 -1782942 -1798687 -1813845 -1837764 -1872243 -1911156 
904.858 -1943248 -1958755 -1954232 -1934097 -1907392 -1882477 -1861534 
905.280 -1838758 -1802501 -1741497 -1651850 -1540413 -1424182 -1323764 
905.702 -1258819 -1240375 -1268816 -1334041 -1419023 -1502757 -1562934 
906.123 -1581238 -1544529 -1448526 -1299566 -1115781 -924814 -756873 -641762 
906.605 -599538 -636509 -744580 -904536 -1091816 -1281329 -1454393 -1598673 
907.087 -1708007 -1781507 -1822494 -1839066 -1843106 -1850502 -1876442 
907.509 -1930177 -2011192 -2107432 -2198892 -2263500 -2287588 -2270576 
907.931 -2225714 -2172618 -2129276 -2102659 -2085732 -2060401 -2007130 
908.352 -1915963 -1792560 -1657948 -1539720 -1462919 -1438084 -1459148 
908.774 -1506425 -1557682 -1596814 -1621808 -1644675 -1686642 -1767890 
909.196 -1897659 -2070312 -2265491 -2455015 -2608101 -2701565 -2723286 
909.617 -2673484 -2562861 -2409497 -2234584 -2056327 -1888565 -1738139 
910.039 -1605347 -1486844 -1380061 -1287363 -1218953 -1190712 -1218831 
910.461 -1312504 -1466167 -1655961 -1840972 -1976969 -2025840 -1971403 
910.882 -1825661 -1627224 -1428242 -1274546 -1194648 -1187046 -1223006 
911.304 -1253853 -1231680 -1124248 -927172 -666179 -391484 -164476 -36617 
911.786 -41662 -183413 -436759 -751061 -1065125 -1323844 -1486994 -1542227 
912.268 -1504262 -1410729 -1307504 -1239570 -1239889 -1321035 -1475998 
912.690 -1680762 -1903704 -2109446 -2267667 -2357937 -2370234 -2307975 
913.111 -2187680 -2039619 -1900469 -1807736 -1789889 -1855096 -1987786 
913.533 -2149976 -2295047 -2377117 -2368553 -2268369 -2102249 -1912558 
913.955 -1741949 -1621131 -1556244 -1530463 -1511622 -1468897 -1382994 
914.376 -1254371 -1100681 -950346 -831151 -760585 -744707 -778873 -853610 
914.858 -958962 -1088216 -1237145 -1400749 -1571068 -1735245 -1876898 
915.280 -1981427 -2039022 -2049024 -2020157 -1969617 -1917932 -1882823 
915.702 -1875769 -1897266 -1937000 -1974965 -1988384 -1956956 -1869441 
916.123 -1728613 -1552120 -1369461 -1211936 -1107197 -1069095 -1094595 
916.545 -1165595 -1256566 -1344366 -1414206 -1464495 -1503666 -1544180 
916.967 -1594214 -1653703 -1713900 -1763103 -1792468 -1802272 -1802361 
917.388 -1809096 -1836852 -1890614 -1962239 -2032733 -2079400 -2084226 
917.810 -2043230 -1968262 -1884295 -1818347 -1792452 -1814607 -1877032 
918.232 -1958118 -2029530 -2065412 -2046782 -1968316 -1838644 -1679569 
918.654 -1519683 -1390058 -1318897 -1323818 -1409985 -1567003 -1771498 
919.075 -1988137 -2177424 -2305744 -2349626 -2304393 -2184652 -2023073 
919.497 -1860325 -1737104 -1685865 -1720910 -1836967 -2009145 -2201960 
919.919 -2374636 -2493770 -2543047 -2525841 -2464662 -2392034 -2342641 
920.340 -2339345 -2387433 -2473273 -2570888 -2649546 -2683645 -2661256 
920.762 -2584705 -2468403 -2330789 -2189394 -2054583 -1928785 -1809068 
921.184 -1691005 -1572285 -1454268 -1341482 -1239973 -1155639 -1092685 
921.605 -1054176 -1042500 -1059664 -1107471 -1186608 -1296009 -1432153 
922.027 -1589465 -1760901 -1937446 -2108972 -2263403 -2386204 -2463385 
922.449 -2483235 -2441048 -2342400 -2205112 -2056602 -1925793 -1838399 
922.870 -1807374 -1830465 -1891696 -1968943 -2042316 -2100348 -2143757 
923.292 -2182053 -2226897 -2283555 -2346402 -2398355 -2417972 -2385850 
923.714 -2294626 -2152625 -1983592 -1818703 -1686996 -1608406 -1586181 
924.136 -1607103 -1644596 -1669116 -1654430 -1586548 -1467769 -1316236 
924.557 -1161217 -1033714 -961989 -962125 -1035347 -1167582 -1334015 
924.979 -1504540 -1649550 -1748853 -1793273 -1786042 -1739183 -1670056 
925.401 -1595776 -1528973 -1477999 -1446891 -1437494 -1451628 -1491656 
925.822 -1559581 -1655062 -1773559 -1904805 -2033088 -2141518 -2214286 
926.244 -2241922 -2224291 -2171121 -2099856 -2030659 -1984234 -1976181 
926.666 -2015321 -2103010 -2233032 -2392200 -2561040 -2718017 -2840472 
927.087 -2909358 -2914263 -2855333 -2744962 -2604184 -2460125 -2337197 
927.509 -2250688 -2203843 -2187198 -2182733 -2169645 -2132825 -2065857 
927.931 -1972619 -1863858 -1753620 -1654290 -1573305 -1513971 -1476481 
928.352 -1460250 -1464992 -1490513 -1535476 -1596306 -1667764 -1743958 
928.774 -1820429 -1895344 -1968493 -2038671 -2101125 -2145678 -2159123 
929.196 -2130948 -2058925 -1954539 -1842058 -1754731 -1721716 -1759822 
929.618 -1866743 -2022282 -2193480 -2345294 -2453434 -2507811 -2514767 
930.039 -2490369 -2454298 -2421720 -2400541 -2393103 -2398741 -2416653 
930.461 -2446281 -2485513 -2527857 -2560928 -2569664 -2539522 -2463169 
930.883 -2344334 -2198646 -2049289 -1919418 -1827148 -1778953 -1769446 
931.304 -1783495 -1802282 -1806980 -1782366 -1719952 -1617875 -1482015 
931.726 -1324818 -1165601 -1026750 -928453 -885808 -903352 -974545 -1082955 
932.208 -1208623 -1332746 -1441949 -1530649 -1598197 -1645116 -1669890 
932.630 -1668028 -1634835 -1569726 -1479693 -1379595 -1287888 -1222075 
933.051 -1190870 -1191579 -1210672 -1230092 -1233487 -1213260 -1173458 
933.473 -1128332 -1097050 -1096394 -1137810 -1223921 -1349422 -1502216 
933.895 -1666539 -1824924 -1958878 -2052816 -2095104 -2080559 -2011844 
934.316 -1899080 -1757350 -1601560 -1444459 -1293282 -1150186 -1014999 
934.738 -888399 -774535 -682318 -623048 -607821 -643992 -731895 -863736 
935.220 -1023783 -1192356 -1347052 -1468185 -1543400 -1569498 -1554805 
935.642 -1517097 -1481765 -1473339 -1509558 -1595878 -1722942 -1868638 
936.063 -2004406 -2106599 -2161755 -2172195 -2153208 -2128294 -2119125 
936.485 -2137783 -2183836 -2244783 -2301364 -2332534 -2323226 -2266101 
936.907 -2162906 -2022589 -1859893 -1692487 -1537004 -1408256 -1315673 
937.328 -1262096 -1244085 -1253817 -1282348 -1322105 -1369345 -1423044 
937.750 -1481685 -1539425 -1582666 -1590123 -1539454 -1412471 -1204998 
938.172 -930824 -623420 -327827 -89303 53929 83332 1842 -167058 -388486 
938.714 -622711 -834337 -1001408 -1115290 -1181130 -1212483 -1227177 
939.136 -1240919 -1263522 -1298688 -1344286 -1395375 -1446917 -1496467 
939.557 -1544475 -1592822 -1641868 -1687535 -1719509 -1723477 -1682817 
939.979 -1584516 -1423487 -1204401 -941324 -654268 -367142 -101830 122669 
940.461 290864 392712 422907 382582 279615 129890 -44701 -221102 -377040 
941.003 -497735 -578336 -623694 -645559 -658038 -673563 -698490 -732748 
941.485 -770410 -802836 -820758 -817399 -790536 -743225 -683838 -624054 
941.967 -577627 -555574 -562852 -595678 -641583 -681447 -694415 -666121 
942.449 -592674 -484313 -361750 -252544 -181314 -161704 -193439 -261615 
942.931 -342119 -406889 -434551 -415222 -353686 -266697 -178480 -113032 
943.413 -85573 -100048 -147464 -210427 -267230 -300402 -301958 -274961 
943.895 -231522 -187339 -155735 -141552 -140043 -138851 -124792 -88728 
944.377 -30598 41032 111732 167500 200026 208112 197163 175031 147956 117101 
944.979 78701 26836 -41748 -124461 -211294 -288264 -340301 -357094 -336155 
945.521 -282797 -207624 -122334 -37037 42508 113616 174010 219396 241441 
946.064 228942 172433 68555 -74411 -236106 -383905 -481882 -500958 -426448 
946.606 -266305 -50076 175896 365471 482048 509510 455086 345520 217279 
947.148 102561 23322 -15835 -24869 -22654 -27419 -50400 -93559 -150545 
947.690 -210242 -260386 -291227 -295301 -267731 -206476 -112618 8522 147730 
948.232 292189 429449 550970 654106 742796 824771 907527 993608 1078939 
948.774 1153582 1206378 1228187 1215955 1173086 1107984 1030338 948116 
949.256 867199 791444 724585 671224 635489 619144 619044 627571 634517 
949.799 632597 622610 616483 635492 703304 840027 1052581 1331907 1652910 
950.341 1982530 2285348 2530288 2697759 2779184 2777931 2706732 2587149 
950.823 2446060 2310676 2207028 2152413 2152159 2198651 2274558 2358338 
951.305 2430775 2482180 2513264 2533698 2555790 2589906 2639573 2701337 
951.786 2767324 2830127 2886358 2937589 2988497 3043431 3103431 3165199 
952.268 3222438 3268890 3301919 3323883 3341739 3363666 3396438 3442316 
952.750 3498926 3560757 3622283 3680246 3734557 3787630 3842572 3901330 
953.232 3963609 4027512 4091123 4154729 4222194 4300619 4397658 4518549 
953.714 4661957 4818377 4969842 5095368 5175925 5200404 5170475 5101114 
954.196 5017303 4944835 4905132 4907406 4947175 5008456 5070598 5116021 
954.678 5134272 5125621 5099243 5070438 5054808 5066145 5114333 5204020 
955.160 5335163 5502165 5694152 5893739 6079784 6232286 6335952 6386995 
955.642 6394450 6379058 6365053 6373708 6416894 6493990 6594299 6701974 
956.124 6803225 6888605 6954875 7002692 7033517 7047767 7045218 7027296 
956.606 6999036 6969437 6949233 6945500 6958391 6979740 6997631 7001664 
957.088 6990275 6972714 6967508 6994062 7063585 7173212 7305409 7434601 
957.570 7536782 7601946 7638500 7672164 7734277 7852730 8039495 8286563 
958.052 8567768 8848444 9097788 9294529 9432955 9519664 9568599 9593519 
958.534 9604744 9608018 9605666 9599730 9593754 9592560 9601111 9621897 
959.016 9653609 9691370 9729433 9764522 9798692 9839816 9899613 9989657 
959.497 10115273 10271827 10442544 10602999 10724564 10784461 10773989 
959.919 10701967 10594308 10486164 10416213 10413603 10492703 10650718 
960.341 10870390 11124940 11384750 11626126 11831977 11993885 12110671 
960.763 12185876 12225699 12237033 12226604 12198906 12155352 12094257 
961.184 12012760 11910280 11793118 11676033 11583266 11543082 11577414 
961.606 11695074 11884474 12116864 12351207 12549557 12688598 12765399 
962.028 12797534 12815081 12849151 12917206 13018051 13131776 13230704 
962.449 13288325 13291322 13243480 13163771 13078158 13009417 12971723 
962.871 12966020 12983039 13008358 13030188 13043250 13050844 13062605 
963.293 13091692 13150474 13246712 13382669 13554159 13751638 13960245 
963.714 14162622 14341190 14480039 14569868 14610103 14610946 14590997 
964.136 14575227 14588614 14647955 14757811 14905883 15065634 15198669 
964.558 15266739 15242423 15116635 14904542 14644144 14391777 14205018 
964.979 14134489 14210138 14433366 14777456 15193836 15627109 16020474 
965.401 16329642 16527875 16604972 16567831 16436975 16245171 16029675 
965.823 15830435 15684341 15616658 15639314 15746923 15919398 16124207 
966.245 16325589 16494083 16610858 16673692 16695012 16698152 16707769 
966.666 16743876 16816398 16923006 17050876 17180806 17294238 17375838 
967.088 17418090 17421816 17395454 17352470 17308188 17278352 17275084 
967.510 17305888 17372554 17471080 17592276 17723352 17851674 17966022 
967.931 18059876 18132498 18188216 18234146 18276712 18319452 18361486 
968.353 18399202 18429526 18453940 18480984 18526032 18605648 18732748 
968.775 18908934 19122038 19346010 19548500 19701462 19787510 19807132 
969.196 19777150 19726474 19684452 19673986 19706118 19779118 19882982 
969.618 20005578 20139270 20283086 20443420 20630510 20855610 21126132 
970.040 21442900 21798502 22177768 22558752 22914046 23217596 23447398 
970.461 23592044 23654834 23654900 23623492 23593858 23595504 23643362 
970.883 23735332 23854378 23977016 24082518 24159412 24208834 24240950 
971.305 24268382 24298480 24330144 24354192 24359540 24339106 24296216 
971.727 24244874 24207888 24208436 24263136 24377438 24543262 24740952 
972.148 24942938 25122190 25254670 25324356 25326288 25267232 25166112 
972.570 25050064 24952908 24904986 24925298 25016326 25162104 25333446 
972.992 25496694 25628460 25722110 25791446 25863450 25970682 26138004 
973.413 26372842 26662094 26974094 27268166 27500228 27635648 27652616 
973.835 27541828 27305224 26952786 26501530 25973490 25397574 24807552 
974.257 24236176 23715236 23269034 22911918 22650056 22481650 22399720 
974.678 22392644 22445538 22538276 22643968 22733180 22774992 22744634 
975.100 22631316 22441612 22200106 21941084 21702102 21509892 21373970 
975.522 21286348 21227894 21177728 21121880 21059128 20999708 20959548 
975.943 20950490 20974294 21018518 21060688 21072804 21031856 20927014 
976.365 20762028 20553910 20327006 20107176 19913072 19754474 19631992 
976.787 19540004 19470414 19416162 19373364 19340190 19314870 19292810 
977.208 19263932 19213598 19125470 18985178 18786712 18535130 18247912 
977.630 17949754 17668894 17429694 17246596 17124656 17060812 17048726 
978.052 17081798 17154912 17262580 17394256 17532362 17651698 17722126 
978.474 17719012 17629022 17457110 17225326 16970066 16731068 16539405 
978.895 16413663 16355531 16354227 16391408 16448626 16510421 16563725 
979.317 16597891 16602451 16567583 16487627 16363904 16207455 16036308 
979.739 15872866 15735616 15632883 15561004 15506254 15451692 15384343 
980.160 15302598 15217260 15148465 15116039 15133275 15200606 15305921 
980.582 15427703 15542541 15633310 15691616 15719539 15725468 15719487 
981.004 15707730 15690389 15661971 15614627 15541205 15438524 15308444 
981.425 15157342 14994229 14827974 14667258 14519474 14390862 14287244 
981.847 14212738 14168669 14151955 14155066 14166443 14172927 14164519 
982.269 14136879 14094304 14048706 14018431 14022504 14074764 14180425 
982.690 14332972 14515497 14702414 14867049 14985760 15042372 15032302 
983.112 14961886 14846672 14705263 14556417 14413460 14282018 14161342 
983.534 14046733 13933931 13822621 13718207 13630511 13570341 13543843 
983.956 13549183 13575010 13604207 13617125 13598569 13542648 13453797 
984.377 13345177 13233399 13135147 13062134 13020518 13012461 13038069 
984.799 13096888 13187632 13306354 13443355 13581651 13699648 13772567 
985.221 13779792 13710882 13568217 13367480 13133417 12896493 12684131 
985.642 12518042 12411898 12369327 12384581 12442286 12520827 12592597 
986.064 12630211 12613803 12534511 12399214 12228307 12052123 11899684 
986.486 11791214 11732626 11714596 11717057 11717144 11699212 11658322 
986.907 11601613 11542983 11498024 11476856 11481132 11504467 11535519 
987.329 11561801 11571968 11558342 11516249 11443910 11342443 11216736 
987.751 11076089 10932628 10800396 10690327 10605998 10541429 10481887 
988.172 10408861 10305798 10166400 9997806 9820728 9661803 9547668 9495986 
988.654 9509500 9575687 9670198 9765899 9837635 9870702 9862435 9820325 
989.136 9757145 9685709 9615116 9548048 9481817 9410329 9327744 9230482 
989.618 9119153 8998280 8875507 8759432 8657722 8576608 8519729 8488065 
990.100 8479570 8488895 8506536 8518403 8508358 8458960 8355737 8191935 
990.582 7971184 7709756 7433658 7177105 6972203 6840859 6789428 6805818 
991.064 6863199 6926484 6965089 6957858 6898675 6795615 6667191 6535108 
991.546 6416453 6320918 6248150 6190296 6134915 6070154 5987211 5881771 
992.028 5754579 5610970 5460386 5314438 5186498 5088740 5028406 5005782 
992.510 5012267 5032494 5046873 5039385 5002852 4942314 4873438 4817707 
992.992 4794468 4811733 4862800 4926145 4973944 4978046 4921008 4800992 
993.474 4631560 4436291 4240365 4064871 3919821 3804749 3711814 3631897 
993.956 3559067 3493385 3439702 3404428 3390408 3393622 3401648 3396717 
994.438 3361253 3282178 3156597 2992419 2807283 2622070 2456601 2323862 
994.920 2226335 2156902 2102621 2051810 1998566 1946691 1907713 1897082 
995.401 1925911 1995142 2091786 2191733 2264521 2281657 2227398 2102169 
995.883 1923843 1720408 1524520 1362944 1250214 1188598 1169808 1180920 
996.365 1208964 1246074 1289729 1341136 1401805 1470198 1539540 1599122 
996.847 1635563 1637328 1598744 1521744 1416444 1298307 1185772 1093799 
997.329 1030457 994676 976861 961614 932301 877230 791933 681273 557306 
997.871 437297 338270 272469 245766 256257 296345 354950 421582 487861 
998.414 548544 601590 646710 684097 713428 733444 742472 739338 724208 
998.956 699102 667263 632654 598295 565694 534839 505051 476195 449696 
999.498 428227 414607 409569 410269 409703 398998 371145 324471 265277 
1000.040 207090 167786 162145 197439 269425 364044 460584 538878 586293 
1000.582 599155 582717 546349 499363 446311 386276 314397 225561 117396 
1001.124 -7775 -143709 -281342 -410893 -523677 -611324 -666568 -684236 
1001.606 -662652 -606263 -526424 -441525 -371561 -333505 -336037 -375914 
1002.088 -438534 -502089 -546535 -558630 -537598 -494158 -447251 -416239 
1002.570 -414270 -445103 -501450 -567480 -621771 -644403 -620056 -542173 
1003.052 -414766 -252603 -79111 79528 196394 251435 235707 152807 18181 
1003.594 -145198 -310519 -455177 -562646 -623930 -637227 -605782 -536554 
1004.076 -438724 -324617 -208841 -106365 -32210 2620 -6947 -59233 -146361 
1004.618 -255986 -373118 -483992 -576427 -641455 -674617 -676039 -651122 
1005.100 -609259 -563111 -524607 -501460 -495400 -501787 -512457 -519840 
1005.582 -521900 -523645 -535988 -569979 -632476 -721412 -826503 -931929 
1006.064 -1023142 -1092320 -1139598 -1171159 -1193817 -1209567 -1212877 
1006.486 -1192195 -1135421 -1037437 -904209 -753168 -606426 -485617 -403225 
1006.968 -359532 -344157 -341873 -339864 -332154 -321759 -317647 -330036 
1007.450 -364734 -421411 -493906 -573890 -653442 -727695 -794973 -855219 
1007.932 -908473 -954110 -991299 -1020349 -1043561 -1065303 -1090026 
1008.353 -1120661 -1157114 -1196663 -1235638 -1272024 -1307238 -1346053 
1008.775 -1394361 -1455851 -1529485 -1608786 -1683767 -1743601 -1780925 
1009.197 -1793037 -1781199 -1747723 -1693035 -1614000 -1505568 -1364378 
1009.619 -1193807 -1006320 -824604 -675419 -582073 -558636 -604054 -703267 
1010.100 -831298 -963706 -1081947 -1178931 -1258864 -1333353 -1414616 
1010.522 -1509302 -1615838 -1724738 -1822980 -1897881 -1942323 -1955587 
1010.944 -1942428 -1909720 -1864213 -1810943 -1752869 -1692395 -1632081 
1011.366 -1574576 -1521801 -1473515 -1426879 -1377336 -1321507 -1260126 
1011.787 -1200405 -1154842 -1138452 -1163821 -1235078 -1345533 -1477474 
1012.209 -1608310 -1714072 -1777595 -1792583 -1763277 -1701406 -1620154 
1012.631 -1529878 -1434141 -1330525 -1213698 -1080283 -932361 -779208 
1013.052 -634514 -513914 -429614 -386815 -383531 -412048 -462983 -528283 
1013.534 -604600 -693110 -797478 -919958 -1058254 -1203692 -1343605 -1463826 
1014.016 -1553916 -1611002 -1640155 -1652242 -1658630 -1667241 -1678524 
1014.438 -1685941 -1678763 -1647952 -1590084 -1509773 -1417830 -1328417 
1014.860 -1254348 -1203041 -1176541 -1172297 -1186195 -1214478 -1255082 
1015.281 -1306900 -1368360 -1436615 -1507776 -1578088 -1645616 -1710371 
1015.703 -1772993 -1832307 -1882680 -1913550 -1912700 -1869644 -1781854 
1016.125 -1657081 -1513498 -1373516 -1257429 -1177973 -1135976 -1121901 
1016.546 -1119811 -1114851 -1096588 -1061817 -1013021 -955218 -892651 
1016.968 -827601 -761852 -699028 -646489 -616018 -619964 -667726 -761305 
1017.450 -893255 -1046763 -1198561 -1325669 -1407647 -1432233 -1397429 
1017.872 -1311703 -1192421 -1062293 -947808 -872333 -853081 -897702 -1001735 
1018.354 -1148986 -1313703 -1468141 -1584663 -1642177 -1629385 -1544180 
1018.775 -1393835 -1192633 -961820 -725551 -508547 -333893 -216688 -162212 
1019.257 -164173 -207640 -272334 -339180 -396075 -438061 -466606 -485352 
1019.739 -496910 -501296 -497709 -488065 -479499 -484631 -518252 -590318 
1020.221 -701340 -839618 -985948 -1118678 -1222974 -1295591 -1343650 
1020.643 -1378735 -1408564 -1431037 -1433407 -1397570 -1308765 -1165362 
1021.064 -982476 -789930 -620608 -503268 -451882 -463236 -519962 -598815 
1021.546 -679882 -750569 -808111 -855820 -898208 -936544 -967705 -985397 
1022.028 -983914 -960466 -916723 -857655 -790012 -720102 -652750 -592361 
1022.510 -543380 -510954 -501014 -518360 -565433 -640972 -740186 -855007 
1022.992 -975507 -1091978 -1194722 -1275592 -1328989 -1351870 -1344961 
1023.414 -1312642 -1262955 -1205526 -1149999 -1104354 -1072764 -1055505 
1023.836 -1049176 -1048322 -1046275 -1036852 -1015824 -981413 -935399 
1024.258 -883068 -833209 -795562 -778460 -786250 -817269 -864220 -916279 
1024.740 -963898 -1001188 -1027744 -1047022 -1063095 -1076708 -1083838 
1025.162 -1076931 -1049933 -1003775 -950463 -911088 -910952 -970819 -1096717 
1025.645 -1275647 -1475360 -1655141 -1772331 -1797192 -1721174 -1558219 
1026.067 -1339923 -1104758 -891220 -726326 -624011 -585529 -602152 -658400 
1026.549 -735208 -814749 -880873 -922640 -936084 -924262 -896475 -864980 
1027.031 -842498 -837216 -850670 -876853 -904796 -921758 -918018 -891379 
1027.514 -848847 -806196 -782811 -798744 -867491 -991775 -1161327 -1353974 
1027.996 -1540049 -1686410 -1767426 -1770232 -1699679 -1577315 -1438645 
1028.418 -1324927 -1270408 -1297360 -1408022 -1585529 -1796496 -2001245 
1028.841 -2163757 -2256212 -2266079 -2194844 -2055386 -1865968 -1647007 
1029.263 -1417958 -1194832 -992928 -827068 -710895 -656967 -672568 -756665 
1029.745 -897322 -1072952 -1255977 -1417188 -1535632 -1601991 -1621272 
1030.167 -1609370 -1588826 -1581730 -1602879 -1658854 -1747061 -1858902 
1030.589 -1981984 -2103871 -2213492 -2300503 -2356217 -2372910 -2344236 
1031.011 -2266812 -2140859 -1971216 -1766631 -1540378 -1309067 -1090624 
1031.434 -905211 -771211 -702282 -705047 -775729 -900223 -1055324 -1216018 
1031.916 -1359337 -1470030 -1543742 -1585146 -1604086 -1609549 -1606490 
1032.338 -1593917 -1567293 -1522117 -1457963 -1379836 -1297369 -1220638 
1032.760 -1157197 -1109832 -1076763 -1053956 -1038246 -1029329 -1029672 
1033.182 -1042575 -1069396 -1107920 -1152716 -1197569 -1238192 -1274768 
1033.604 -1311687 -1355358 -1410055 -1474969 -1542713 -1601984 -1640349 
1034.027 -1649885 -1630531 -1590940 -1546003 -1511981 -1503077 -1526171 
1034.449 -1579756 -1653987 -1734576 -1805426 -1852731 -1868682 -1851416 
1034.871 -1804666 -1734892 -1649371 -1553539 -1450564 -1343053 -1235133 
1035.293 -1134840 -1055729 -1013558 -1022945 -1091186 -1213340 -1370023 
1035.715 -1529897 -1659683 -1730017 -1726817 -1654982 -1537583 -1407460 
1036.137 -1296803 -1229915 -1214865 -1243904 -1296456 -1348221 -1376450 
1036.559 -1366533 -1315185 -1229612 -1125539 -1022559 -942938 -906068 
1036.981 -924911 -1003526 -1134123 -1297173 -1462528 -1598021 -1674194 
1037.404 -1672696 -1592208 -1449497 -1276290 -1108993 -983580 -924094 
1037.826 -937948 -1015513 -1133881 -1264027 -1377233 -1455601 -1495040 
1038.248 -1506425 -1509706 -1527674 -1576279 -1657840 -1759186 -1854671 
1038.670 -1915307 -1915215 -1842563 -1702948 -1518876 -1320942 -1139401 
1039.092 -995777 -896504 -834847 -796005 -766153 -737958 -714699 -707508 
1039.574 -730611 -792781 -891849 -1012299 -1129578 -1216698 -1251622 
1039.997 -1225853 -1145991 -1032571 -911873 -811230 -750996 -739906 -775504 
1040.479 -845776 -934216 -1022657 -1096663 -1147176 -1170649 -1168772 
1040.901 -1146872 -1112481 -1072945 -1034827 -1002694 -978621 -962689 
1041.323 -953497 -949108 -947279 -945649 -941314 -929883 -906032 -864103 
1041.806 -799925 -713372 -609863 -500847 -400514 -323870 -281562 -276753 
1042.288 -304725 -354662 -414011 -471476 -520842 -561030 -594309 -623358 
1042.771 -649160 -670238 -684191 -690019 -690433 -691522 -701695 -727578 
1043.253 -770694 -825570 -880948 -923497 -941910 -931968 -897611 -849900 
1043.735 -802130 -766582 -750380 -754044 -772546 -797911 -822566 -840905 
1044.218 -850985 -854169 -854523 -857574 -869647 -897241 -945415 -1016805 
1044.700 -1109500 -1216253 -1323114 -1411063 -1460561 -1453887 -1381704 
1045.122 -1245936 -1061061 -850725 -642951 -465242 -336001 -262402 -238462 
1045.605 -248492 -270487 -282994 -271613 -230266 -162166 -76277 16072 105866 
1046.147 188240 262080 328323 387530 438107 476738 499668 505306 495636 
1046.690 476370 454801 436657 424031 414149 400947 377391 339322 287222 
1047.233 226777 166426 115154 79332 61016 58378 67354 84182 106746 135367 
1047.836 171881 217931 273026 333335 391037 436155 457788 446776 398968 
1048.379 316613 209494 92655 -14477 -93235 -129969 -117678 -58035 40163 
1048.921 162930 295681 424978 540099 634234 703132 744892 759598 749538 
1049.464 719572 676749 630728 591818 569598 572355 605162 669696 763483 
1050.007 880080 1008530 1134212 1242177 1318468 1354366 1348627 1307597 
1050.489 1242975 1167381 1091434 1020204 954311 893279 839723 802496 796374 
1051.032 836220 931393 1078585 1260879 1449442 1613487 1730985 1793780 
1051.514 1810282 1799471 1782997 1773922 1772642 1767044 1740417 1679270 
1051.997 1582058 1461133 1340859 1248703 1204634 1216006 1273921 1357730 
1052.479 1440420 1499201 1520344 1501914 1452529 1388033 1326710 1283278 
1052.962 1267299 1280660 1318413 1370524 1425667 1474890 1513406 1541744 
1053.444 1563941 1584748 1606194 1626044 1638175 1635969 1615681 1580095 
1053.927 1538610 1505824 1495912 1517087 1569001 1642782 1725100 1802818 
1054.409 1868968 1924214 1975948 2033684 2105157 2192305 2290615 2390563 
1054.891 2481492 2555727 2610183 2647366 2673734 2698026 2728009 2769136 
1055.374 2823231 2888019 2957039 3020472 3067761 3088806 3077164 3031854 
1055.856 2957688 2864069 2762243 2663533 2576026 2504074 2448916 2409776 
1056.339 2385347 2374377 2375529 2386509 2403665 2422822 2440353 2455273 
1056.821 2469976 2489860 2520486 2564320 2617759 2670819 2708654 2715451 
1057.303 2680789 2602752 2490474 2361266 2238393 2144201 2094126 2094741 
1057.786 2141632 2221560 2314516 2399873 2459869 2482625 2465091 2412333 
1058.268 2336095 2250392 2169627 2105101 2063514 2048642 2062451 2107031 
1058.751 2185478 2300403 2451469 2631954 2828139 3019527 3182691 3298970 
1059.233 3358071 3362513 3326090 3271205 3221003 3192008 3191070 3213413 
1059.716 3246289 3273377 3281981 3266089 3227944 3175910 3121791 3077036 
1060.198 3049263 3042233 3055427 3085551 3127171 3173907 3219137 3255970 
1060.680 3278930 3285040 3275156 3254442 3232056 3219233 3225449 3256539 
1061.163 3312159 3386160 3467416 3543267 3602921 3638846 3648921 3635744 
1061.645 3605542 3565695 3523434 3484610 3452769 3429729 3415815 3410478 
1062.128 3412765 3421787 3436980 3458083 3484811 3516384 3550666 3584040 
1062.610 3611451 3627181 3626951 3609326 3577351 3538040 3501850 3479422 
1063.093 3478256 3501013 3544230 3599862 3657146 3706867 3743574 3767035 
1063.575 3781825 3795845 3818184 3856272 3915658 3999220 4107510 4239214 
1064.057 4391341 4559200 4735742 4912515 5080385 5230428 5356335 5454480 
1064.540 5524236 5566789 5583775 5576025 5543269 5485203 5403466 5303183 
1065.022 5194276 5089448 5001057 4937893 4901070 4883259 4870116 4846553 
1065.505 4801077 4731079 4643539 4553006 4475729 4423518 4401482 4407119 
1065.987 4434119 4476548 4533023 4606869 4703041 4822639 4958695 5094749 
1066.469 5210613 5287605 5317880 5308604 5281882 5266846 5288454 5360032 
1066.952 5476835 5618794 5756422 5863173 5921307 5926027 5883368 5805083 
1067.434 5702649 5583394 5452237 5314498 5178908 5059737 4973160 4932239 
1067.917 4942530 4999280 5089492 5196946 5309888 5423850 5542068 5670541 
1068.399 5812204 5961498 6104576 6221793 6296482 6321884 6304484 6262198 
1068.882 6218508 6195481 6205296 6248728 6315841 6391985 6461965 6515043 
1069.364 6546541 6555687 6543305 6509688 6454399 6378030 6284804 6185145 
1069.846 6094205 6029965 6008138 6035702 6108008 6207387 6308583 6382136 
1070.329 6404175 6363365 6263821 6124979 5975800 5849182 5770334 5752480 
1070.811 5794170 5882003 5994944 6110552 6211580 6286555 6331451 6348103 
1071.294 6342539 6323145 6299247 6280899 6276331 6290300 6321922 6363929 
1071.776 6403023 6422856 6409674 6355121 6259875 6133118 5991422 5854535 
1072.259 5741421 5670061 5654494 5704406 5823702 6007411 6238762 6487657 
1072.741 6717236 6887716 6968422 6948261 6839350 6676174 6504007 6370562 
1073.223 6308234 6326886 6413046 6537681 6666310 6769159 6830222 6846678 
1073.706 6827030 6785287 6738390 6702507 6690890 6713635 6774337 6867957 
1074.188 6978744 7083367 7155646 7173708 7129224 7030447 6901467 6772180 
1074.671 6670903 6613097 6597211 6607063 6620028 6617450 6590601 6544214 
1075.153 6492693 6454422 6443221 6465426 6519566 6599853 6699843 6815023 
1075.635 6943024 7080968 7223382 7361942 7486111 7587524 7662882 7714893 
1076.118 7750220 7775310 7791967 7795094 7773416 7713559 7606544 7451410 
1076.600 7257842 7043160 6830082 6639898 6488554 6385997 6334779 6331578 
1077.083 6368241 6433898 6515636 6600111 6676745 6738513 6784214 6818249 
1077.565 6849746 6889327 6945476 7022649 7119401 7229221 7341727 7445707 
1078.048 7529995 7584435 7601566 7576974 7511628 7413283 7298518 7190986 
1078.530 7116002 7096958 7146372 7262185 7426691 7612356 7788501 7929229 
1079.012 8021919 8067415 8077961 8069525 8056815 8047770 8043156 8039822 
1079.495 8035237 8031016 8033670 8051479 8090051 8148239 8217298 8282926 
1079.977 8330551 8352091 8348589 8330615 8313016 8310397 8330165 8370247 
1080.460 8419548 8462556 8484323 8473891 8427734 8349549 8249875 8143275 
1080.942 8048209 7984252 7967876 8010598 8113725 8266822 8446816 8623997 
1081.425 8769832 8863282 8898621 8885264 8844192 8798075 8765092 8752525 
1081.907 8756477 8765806 8769470 8763166 8752225 8750357 8774000 8837247 
1082.389 8945175 9092351 9263492 9439193 9599523 9728861 9819815 9873643 
1082.872 9900865 9918465 9948869 10013722 10127939 10295415 10505091 
1083.294 10732598 10943663 11106066 11196244 11206093 11144156 11032167 
1083.716 10897865 10765059 10650718 10560773 10491977 10435018 10379197 
1084.138 10315789 10239577 10150357 10053033 9957665 9877170 9826200 9816915 
1084.621 9854448 9934627 10043550 10162527 10272419 10362016 10431664 
1085.043 10493129 10563892 10659862 10788560 10945403 11115711 11280839 
1085.465 11427444 11551714 11661286 11769901 11891658 12032706 12187934 
1085.887 12341248 12471975 12562104 12601857 12593700 12550919 12493666 
1086.309 12440790 12406311 12395361 12404579 12424696 12444973 12457671 
1086.731 12459777 12454003 12446792 12445971 12457287 12483294 12523855 
1087.153 12578519 12649715 12745102 12876165 13055968 13292725 13584541 
1087.575 13915879 14259553 14583495 14856328 15058562 15186019 15250175 
1087.998 15272272 15277721 15289466 15322517 15385377 15480849 15608299 
1088.420 15764534 15943389 16135101 16325414 16499040 16643608 16753173 
1088.842 16830822 16886916 16934832 16984284 17038504 17093790 17144112 
1089.264 17186628 17227046 17279358 17363302 17495134 17680498 17910310 
1089.686 18163190 18411604 18630152 18805350 18937052 19037234 19122274 
1090.108 19207138 19298652 19394014 19482696 19551728 19591298 19598264 
1090.530 19578380 19545196 19518200 19516686 19556852 19647132 19785358 
1090.952 19958576 20146068 20327414 20487976 20626720 20756668 20902326 
1091.375 21088498 21330162 21624038 21947150 22261602 22525366 22708806 
1091.797 22801072 22814632 22777868 22727680 22695348 22697308 22734252 
1092.219 22793818 22859318 22917166 22963814 23006534 23061588 23146474 
1092.641 23275798 23456200 23684470 23947734 24225650 24495196 24731784 
1093.063 24915558 25034996 25088888 25087458 25050468 25004530 24974910 
1093.485 24982118 25037182 25139898 25280506 25443388 25613186 25777482 
1093.907 25931212 26076880 26223614 26383200 26565990 26777238 27014148 
1094.329 27265686 27514324 27742138 27934384 28084954 28198450 28289816 
1094.751 28380076 28489182 28631734 28810670 29016752 29229478 29423898 
1095.174 29575894 29667752 29693980 29662200 29592568 29511282 29447490 
1095.596 29424868 29455376 29537338 29654744 29782528 29891520 29959890 
1096.018 29979414 29959300 29922902 29901838 29925864 30011188 30156368 
1096.440 30340630 30532048 30693516 30796188 30827674 30794548 30720040 
1096.862 30636218 30576562 30563996 30607084 30697746 30815426 30931314 
1097.284 31016826 31052866 31032752 30965182 30870012 30774688 30705040 
1097.706 30679020 30703876 30774372 30875406 30985538 31084218 31153778 
1098.128 31182220 31164080 31098562 30988860 30840942 30664202 30470502 
1098.551 30272638 30083328 29910946 29757748 29618960 29485304 29346176 
1098.973 29194400 29029518 28858172 28691706 28540766 28412200 28305874 
1099.395 28216412 28136712 28063554 28001032 27961436 27960854 28014412 
1099.817 28130436 28306606 28529612 28777856 29028044 29257220 29447634 
1100.239 29588198 29672668 29699132 29668736 29585406 29455590 29288170 
1100.661 29093954 28882948 28663588 28441438 28219060 27997634 27778440 
1101.083 27564064 27359244 27170136 27003178 26864716 26759746 26691694 
1101.505 26662046 26669424 26708398 26768446 26835594 26892888 26924652 
1101.927 26921192 26880646 26810194 26723290 26637632 26570412 26537004 
1102.350 26552158 26629176 26780766 27016578 27338212 27734170 28176486 
1102.772 28626272 29037586 29373298 29618352 29786354 29918004 30067826 
1103.194 30290630 30618868 31052930 31556586 32069380 32518610 32842308 
1103.616 33011972 33042026 32995572 32971826 33107838 33554588 34457040 
1104.038 35944412 38094840 40911220 44277368 47956988 51573788 54670096 
1104.460 56868176 58005612 58230732 57899760 57449336 57208252 57312076 
1104.882 57697032 58131952 58309960 57949716 56933344 55331844 53360744 
1105.304 51261640 49235284 47394632 45765416 44323940 43029248 41853992 
1105.727 40797012 39880948 39136316 38586280 38228668 38029336 37918068 
1106.149 37803140 37577496 37141512 36434592 35448228 34239300 32913176 
1106.571 31609220 30460014 29561162 28961092 28644720 28540686 28530688 
1106.993 28487336 28296516 27887926 27252886 26436034 25516742 24577436 
1107.415 23692792 22913550 22265976 21760734 21396472 21165298 21053960 
1107.837 21044950 21115542 21238362 21387244 21538194 21673780 21785338 
1108.259 21871040 21934374 21981106 22017872 22050660 22084414 22123270 
1108.681 22169808 22224790 22287286 22355662 22429206 22510080 22603750 
1109.104 22718620 22862824 23040562 23249476 23479774 23716912 23944076 
1109.526 24148626 24324940 24475994 24611556 24744862 24887536 25044278 
1109.948 25210482 25371716 25508460 25599816 25632110 25604740 25533620 
1110.370 25448794 25387350 25385692 25465110 25625622 25842554 26075268 
1110.792 26275900 26406032 26450812 26422408 26356638 26297488 26286200 
1111.214 26344558 26470714 26641644 26824728 26988646 27112052 27188874 
1111.636 27224890 27232400 27223012 27205476 27184904 27165010 27151108 
1112.058 27150298 27169272 27211506 27274108 27348096 27420660 27481222 
1112.480 27524974 27555122 27580440 27611292 27653662 27705914 27758550 
1112.903 27798048 27812936 27797682 27755752 27697542 27636858 27584368 
1113.325 27544538 27514270 27485008 27445328 27384380 27294790 27172360 
1113.747 27016076 26827148 26608732 26366156 26107418 25844428 25591022 
1114.169 25361564 25168600 25018898 24912814 24844086 24802902 24778234 
1114.591 24761462 24748292 24737748 24730214 24724324 24714122 24689180 
1115.013 24636428 24543874 24406572 24229894 24031236 23834498 23666382 
1115.435 23546732 23481318 23459314 23454892 23435622 23368020 23229480 
1115.857 23012764 22726772 22391884 22033588 21675790 21333746 21014652 
1116.280 20718846 20443780 20187106 19948208 19727034 19521258 19323922 
1116.702 19123042 18902328 18647048 18348182 18006722 17634658 17253974 
1117.124 16892234 16574061 16317873 16129990 16003755 15920627 15855177 
1117.546 15781948 15678911 15534538 15348892 15133631 14907350 14691393 
1117.968 14504112 14354700 14241971 14153934 14072542 13976721 13849360 
1118.390 13681710 13474564 13237764 12986211 12736367 12499914 12281673 
1118.812 12078716 11882979 11684535 11476122 11256138 11028665 10801356 
1119.234 10581179 10371250 10168464 9964825 9750456 9519549 9273902 9024865 
1119.717 8789522 8586346 8428024 8315825 8238430 8174569 8101126 7998120 
1120.199 7856327 7678693 7478600 7274011 7081943 6915005 6778422 6671513 
1120.682 6589506 6526070 6473651 6423482 6365712 6288121 6178502 6027810 
1121.164 5832766 5598902 5340288 5078348 4834822 4627355 4464278 4341919 
1121.646 4245637 4153953 4046668 3908947 3737554 3541635 3342101 3165416 
1122.129 3036011 2970970 2972858 3029004 3112834 3192643 3236764 3221545 
1122.611 3137766 2990900 2800073 2591175 2393749 2232718 2123824 2072636 
1123.094 2073334 2110948 2163184 2206676 2219381 2184652 2095402 1954696 
1123.576 1776369 1580968 1393941 1238713 1131192 1078280 1076140 1112970 
1124.059 1171599 1235321 1290077 1326034 1338470 1326102 1290125 1233262 
1124.541 1160030 1076867 991665 913926 852278 812299 795044 796087 806509 
1125.084 814723 810624 787529 744114 684009 614416 543128 475462 413095 
1125.626 353520 291715 222111 141703 51640 -42006 -130269 -203515 -254935 
1126.169 -283617 -295393 -301850 -315914 -349032 -406012 -483294 -569066 
1126.652 -647355 -703352 -727633 -720112 -689445 -650279 -616773 -598855 
1127.134 -598717 -611216 -626480 -634573 -629743 -611281 -582848 -549159 
1127.616 -513000 -473469 -426934 -370237 -304416 -237200 -182720 -156560 
1128.099 -171883 -233344 -335054 -461033 -590556 -705269 -793142 -852834 
1128.581 -891849 -923227 -959111 -1007356 -1069289 -1140472 -1212654 
1129.003 -1276699 -1325187 -1352281 -1354224 -1329127 -1276905 -1200083 
1129.426 -1104009 -997050 -888172 -785183 -692725 -611278 -538599 -472532 
1129.908 -413919 -368673 -346774 -358399 -410299 -500991 -620004 -748501 
1130.390 -865620 -953374 -1000842 -1007052 -979469 -931252 -876058 -826711 
1130.873 -792823 -780341 -792550 -829718 -889009 -963878 -1045250 -1123496 
1131.355 -1190809 -1244629 -1288087 -1328514 -1372777 -1423307 -1474566 
1131.777 -1514496 -1527265 -1500741 -1432493 -1332505 -1220834 -1120761 
1132.199 -1052466 -1024744 -1033849 -1065662 -1103372 -1133094 -1149338 
1132.622 -1155488 -1160708 -1174164 -1199970 -1235542 -1272819 -1302424 
1133.044 -1317223 -1315648 -1301395 -1281493 -1262395 -1247858 -1237905 
1133.466 -1230015 -1220844 -1208323 -1192305 -1174093 -1155045 -1135515 
1133.888 -1114328 -1089412 -1058717 -1021123 -976852 -927220 -874496 -821389 
1134.370 -771713 -730526 -703511 -696557 -713359 -753292 -809942 -872063 
1134.853 -926539 -961425 -971000 -957118 -928887 -898279 -876275 -868001 
1135.335 -870816 -875194 -869228 -844558 -800149 -744407 -692282 -661327 
1135.818 -663667 -701565 -765094 -835494 -889626 -907687 -880945 -814157 
1136.300 -725336 -638644 -579442 -564592 -597910 -669250 -758352 -841552 
1136.782 -897773 -916285 -898114 -855335 -805509 -767663 -756506 -778567 
1137.265 -832299 -908927 -995836 -1078082 -1142154 -1177815 -1178886 
1137.687 -1144946 -1081411 -999317 -912136 -834249 -777174 -746430 -740919 
1138.169 -753142 -772220 -785870 -784734 -764538 -726965 -679337 -633054 
1138.652 -602149 -599126 -633074 -706573 -814225 -942124 -1070233 -1178344 
1139.134 -1249226 -1275254 -1260187 -1218505 -1169723 -1132025 -1117180 
1139.556 -1126527 -1152458 -1182258 -1204695 -1213202 -1207705 -1192414 
1139.979 -1172258 -1149012 -1120141 -1080021 -1023767 -950421 -864629 
1140.401 -774987 -691095 -619981 -563483 -518976 -481829 -449111 -421477 
1140.883 -403222 -399328 -412501 -440302 -475429 -507637 -528473 -534502 
1141.365 -528787 -519078 -514939 -523864 -548540 -586997 -634099 -684429 
1141.848 -733253 -777233 -813442 -837606 -844145 -827244 -782964 -712016 
1142.330 -621098 -522607 -430877 -360104 -320571 -316345 -345600 -401318 
1142.813 -473856 -551649 -624008 -682338 -720643 -736948 -733061 -714073 
1143.295 -686196 -655100 -623783 -591893 -556637 -515067 -466615 -414822 
1143.778 -367050 -332009 -317309 -325942 -355375 -398169 -445303 -488481 
1144.260 -522479 -545962 -560213 -567624 -570240 -569694 -567480 -565426 
1144.742 -565760 -569733 -576162 -580167 -574409 -551240 -506651 -443463 
1145.225 -372481 -310282 -272653 -270230 -302626 -358225 -415862 -452918 
1145.707 -452928 -410854 -335636 -247164 -170702 -126982 -128086 -173569 
1146.190 -252099 -344029 -427590 -485643 -508170 -495750 -458036 -411638 
1146.672 -373999 -359263 -374764 -418658 -480273 -542036 -585356 -593263 
1147.155 -555865 -472787 -353239 -213510 -72046 52970 148937 210020 236887 
1147.697 235084 212690 178072 137495 95228 53663 14230 -21253 -49973 -68367 
1148.300 -72367 -58849 -26538 23289 86881 158450 230627 296359 349121 384233 
1148.903 399897 397654 382736 362988 348366 348109 368505 411416 473425 
1149.446 546809 621292 687904 740737 778420 803350 820050 832843 844277 
1149.989 855434 866878 880060 897964 923933 959429 1001619 1042799 1071575 
1150.531 1076530 1051868 1000480 935361 875086 840267 845571 895305 983252 
1151.074 1095814 1218146 1338252 1450953 1556406 1656745 1751917 1837200 
1151.557 1903611 1942318 1948368 1924969 1883114 1839669 1810959 1806959 
1152.039 1828736 1868269 1912363 1947214 1964575 1963629 1951182 1938292 
1152.521 1937425 1958502 2006401 2080835 2176395 2283958 2390535 2481601 
1153.004 2542709 2561072 2529764 2449565 2330924 2191531 2054738 1943738 
1153.486 1874440 1853048 1873513 1920951 1975167 2018506 2040761 2041292 
1153.969 2028511 2016375 2020172 2050677 2112249 2201694 2310462 2426686 
1154.451 2538816 2638640 2721588 2787660 2840476 2886684 2933920 2989161 
1154.934 3056686 3135682 3219133 3294061 3345665 3360537 3332694 3267018 
1155.416 3180633 3099196 3049064 3051986 3116177 3234751 3387109 3547567 
1155.898 3692427 3807046 3889993 3951059 4006712 4072283 4158259 4266662 
1156.381 4392335 4525789 4657660 4781549 4894357 4995730 5086147 5165553 
1156.863 5233134 5287993 5330472 5362911 5390106 5418538 5454815 5505234 
1157.346 5574281 5663965 5773467 5898779 6032748 6165207 6285562 6384339 
1157.828 6456017 6501151 6526963 6546087 6572637 6620170 6697462 6806822 
1158.311 6944221 7100766 7264919 7423852 7566534 7684418 7772656 7831210 
1158.793 7865222 7884713 7901955 7930172 7979788 8055874 8158093 8281570 
1159.275 8419725 8566250 8717256 8870703 9024515 9174980 9315526 9437621 
1159.758 9534415 9603545 9650245 9686553 9729831 9796745 9897844 10035016 
1160.240 10200704 10381411 10561594 10729840 10880673 11015007 11137635 
1160.662 11254250 11368156 11478923 11583422 11677811 11760018 11831625 
1161.084 11897950 11966529 12045550 12140818 12254915 12386899 12533361 
1161.507 12689450 12850544 13013467 13176532 13339965 13505524 13676515 
1161.929 13857387 14053120 14268647 14506917 14767279 15043591 15324450 
1162.351 15593280 15831131 16022414 16157827 16239102 16278952 16300064 
1162.773 16328546 16386513 16488363 16636118 16820986 17026618 17236266 
1163.195 17436902 17622514 17794390 17958600 18122470 18291170 18466996 
1163.617 18649496 18837396 19029970 19227670 19431270 19640214 19851332 
1164.039 20058670 20254640 20433210 20592070 20734652 20869408 21008750 
1164.461 21165214 21347700 21559990 21799378 22058200 22325312 22589838 
1164.884 22843174 23080400 23301286 23509796 23713126 23919476 24137140 
1165.306 24372348 24627680 24901416 25187320 25475776 25754348 26011160 
1165.728 26236906 26426796 26582396 26711782 26828698 26948478 27086460 
1166.150 27254030 27456302 27692398 27956656 28241920 28542086 28855124 
1166.572 29183320 29532114 29906520 30307952 30731230 31164908 31592048 
1166.994 31994340 32358130 32676864 32954084 33201694 33437880 33680676 
1167.416 33942664 34228152 34531488 34839328 35134232 35401580 35632972 
1167.838 35829796 36002652 36169900 36352512 36567480 36825356 37126632 
1168.260 37462832 37818696 38177532 38525444 38854192 39163456 39459912 
1168.683 39755156 40061088 40387420 40738448 41112308 41501676 41896844 
1169.105 42289572 42675624 43056864 43439828 43832920 44240940 44661616 
1169.527 45083444 45489092 45858504 46176080 46437024 46649884 46836512 
1169.949 47025628 47249468 47534112 47894756 48334256 48843128 49402352 
1170.371 49985756 50566600 51118468 51618612 52051784 52409988 52694364 
1170.793 52914332 53088184 53240568 53399336 53595348 53855156 54197104 
1171.215 54626328 55131292 55683132 56239396 56757992 57205416 57570500 
1171.637 57867920 58135736 58420940 58761012 59173076 59644860 60140784 
1172.060 60612936 61023272 61355948 61623776 61859704 62105204 62393944 
1172.482 62740148 63139100 63572908 64022600 64475536 64930140 65391396 
1172.904 65863620 66343324 66817808 67268408 67679856 68045656 68370904 
1173.326 68667272 68946784 69214704 69468608 69703368 69920096 70132312 
1173.748 70368744 70664008 71046928 71528840 72096440 72713008 73327104 
1174.170 73892248 74376192 74772328 75097680 75386568 75676080 75993744 
1174.592 76354536 76759312 77200808 77668664 78154248 78650488 79149560 
1175.014 79641160 80110096 80537472 80906336 81205920 81438664 81621752 
1175.437 81788064 81976856 82222608 82546296 82945248 83393320 83845944 
1175.859 84258888 84601592 84872584 85100624 85338792 85645040 86059936 
1176.281 86597056 87236624 87936440 88643856 89319088 89946368 90535840 
1176.703 91113160 91706096 92332592 92995968 93689928 94406848 95144464 
1177.125 95905104 96689096 97486504 98270520 99003840 99652280 100200688 
1177.547 100665152 101090512 101535712 102045440 102633752 103272024 
1177.909 103900920 104445400 104846432 105084072 105183328 105203560 
1178.271 105214728 105282344 105448128 105731056 106133856 106650912 
1178.633 107274424 107995704 108803544 109678496 110591272 111507592 
1178.994 112390832 113213840 113966240 114657712 115313600 115965400 
1179.356 116638696 117338168 118040040 118689832 119217944 119551672 
1179.718 119643008 119488776 119137120 118675376 118198928 117792640 
1180.080 117502784 117336536 117275536 117300400 117413560 117654320 
1180.442 118088816 118794056 119825744 121191992 122834600 124631056 
1180.803 126425624 128047992 129368736 130326224 130931296 131250776 
1181.165 131382336 131436936 131511912 131689896 132025304 132531512 
1181.527 133173120 133867776 134515792 135030208 135387808 135645792 
1181.889 135931152 136380992 137083344 138028592 139096608 140076864 
1182.251 140736128 140928352 140649600 140051232 139358656 138811152 
1182.613 138584432 138772624 139421312 140558544 142230752 144511264 
1182.974 147476048 151143856 155383680 159868944 164016240 167095648 
1183.336 168531280 168164336 166339792 163640064 160634560 157681872 
1183.698 154937536 152449088 150229312 148316112 146788768 145729856 
1184.060 145198000 145193616 145655344 146472608 147523840 148720432 
1184.422 150012112 151380624 152801984 154200720 155444896 156376816 
1184.783 156878080 156945328 156709344 156393856 156209200 156294944 
1185.145 156670432 157252304 157898400 158483808 158958432 159350912 
1185.507 159727808 160124240 160484592 160656352 160434896 159649616 
1185.869 158262592 156384816 154231568 152020048 149924000 148034960 
1186.231 146376128 144944208 143738352 142777520 142098000 141725648 
1186.593 141649520 141799264 142050976 142238160 142188960 141782976 
1186.954 140970384 139790368 138348240 136796576 135298848 134003056 
1187.316 133042976 132508384 132433936 132780040 133423832 134156176 
1187.678 134710256 134856576 134469552 133601904 132460976 131358192 
1188.040 130602848 130421888 130950856 132205344 134096136 136425680 
1188.402 138936176 141335184 143345568 144786400 145600800 145864704 
1188.763 145735568 145412032 145072032 144831088 144739936 144777328 
1189.125 144874864 144944800 144929312 144832320 144735296 144769376 
1189.487 145083360 145792224 146930784 148431952 150120640 151762688 
1189.849 153100768 153955952 154288240 154208608 153925808 153670976 
1190.211 153648112 153978448 154704576 155794528 157162480 158674272 
1190.573 160163152 161461504 162411136 162914896 162971264 162691488 
1190.934 162271552 161931904 161869200 162181632 162843520 163685872 
1191.296 164441376 164787536 164459376 163362864 161599680 159425984 
1191.658 157137216 155007936 153224896 151883072 151015440 150607888 
1192.020 150624400 151017552 151736240 152713664 153853936 155036384 
1192.382 156103712 156887216 157251664 157117808 156497040 155482096 
1192.743 154228608 152905056 151660000 150607280 149802592 149250720 
1193.105 148906784 148691296 148496768 148207456 147728784 146997792 
1193.467 146004304 144790512 143442016 142062576 140748544 139577344 
1193.829 138584368 137761504 137054992 136381536 135641856 134751696 
1194.191 133674632 132432936 131107296 129804360 128631672 127654992 
1194.552 126877656 126236984 125622688 124908640 123988936 122822464 
1194.914 121438408 119924816 118385936 116915712 115569624 114358784 
1195.276 113264024 112254104 111305312 110409320 109571920 108800064 
1195.638 108086864 107404720 106705520 105932048 105041072 104013504 
1196.000 102863416 101629480 100363848 99113488 97908104 96760456 95668216 
1196.422 94622912 93617144 92649040 91721312 90837376 89996224 89189912 
1196.844 88403008 87617272 86814832 85984496 85125384 84248296 83373920 
1197.266 82527584 81735928 81017552 80378584 79808608 79281424 78757520 
1197.688 78191592 77546928 76801536 75957392 75039192 74090752 73162880 
1198.110 72300088 71536264 70885720 70344296 69891728 69498232 69128168 
1198.532 68743816 68312832 67807816 67211088 66517960 65736960 64889676 
1198.955 64005644 63119912 62264376 61462556 60728408 60064108 59462880 
1199.377 58912440 58399796 57913388 57444476 56987380 56537432 56089900 
1199.799 55639844 55181908 54711972 54228324 53732292 53227972 52721356 
1200.221 52219124 51726372 51246000 50777580 50317704 49860732 49400796 
1200.643 48934640 48463572 47994964 47540956 47116984 46736104 46404560 
1201.065 46118848 45865400 45623832 45372636 45098156 44798088 44482860 
1201.487 44169728 43876376 43611588 43370752 43135992 42883116 42591332 
1201.909 42250488 41866628 41459592 41057332 40684664 40358740 40085864 
1202.332 39863940 39687788 39554604 39466256 39428932 39450280 39536712 
1202.754 39693672 39926652 40243348 40653192 41161396 41759028 42409684 
1203.176 43047924 43574964 43878908 43870788 43507172 42816384 41888976 
1203.598 40859924 39860936 38989252 38294704 37772636 37380864 37059452 
1204.020 36757972 36446108 36120360 35796216 35496472 35237108 35019960 
1204.442 34832984 34656596 34472428 34268508 34042628 33799632 33547602 
1204.864 33293300 33041510 32795622 32559330 32338354 32139814 31969604 
1205.286 31830448 31719840 31631198 31555840 31487376 31424114 31369904 
1205.708 31332048 31318522 31334344 31379292 31447694 31529670 31614376 
1206.131 31690716 31749502 31783682 31787068 31754368 31681916 31567156 
1206.553 31410786 31217214 30994934 30754566 30508182 30266886 30038596 
1206.975 29828084 29636660 29463368 29306164 29163132 29032632 28912896 
1207.397 28801190 28693196 28582800 28463950 28332088 28186452 28031198 
1207.819 27875406 27731076 27609160 27517566 27457988 27425856 27411432 
1208.241 27403394 27391884 27370716 27339020 27300596 27262428 27231976 
1208.663 27215948 27218432 27239990 27277246 27322688 27365622 27391788 
1209.085 27386298 27335596 27228982 27061698 26835436 26558602 26244158 
1209.508 25908610 25569716 25243228 24943502 24681510 24464012 24293930 
1209.930 24169662 24086014 24034716 24006890 23994130 23989130 23986494 
1210.352 23981362 23968642 23943414 23901260 23840674 23764834 23683002 
1210.774 23608904 23556752 23537378 23552308 23591780 23634646 23655492 
1211.196 23630208 23544092 23397500 23206412 22998812 22804790 22651380 
1211.618 22553166 22509606 22505996 22519136 22524794 22503276 22446456 
1212.040 22358436 22254126 22152598 22072230 22024092 22008428 22014826 
1212.462 22025178 22019938 21981458 21900338 21777336 21623828 21458214 
1212.885 21301744 21173858 21085800 21039106 21024900 21027920 21029710 
1213.307 21015098 20976948 20917120 20845256 20773808 20713628 20668296 
1213.729 20632768 20594234 20537978 20452336 20334310 20191476 20041152 
1214.151 19905276 19802368 19743794 19729126 19747540 19780040 19805888 
1214.573 19807282 19771346 19693006 19574300 19424078 19255724 19087016 
1214.995 18937800 18825602 18764370 18759946 18808452 18895810 19000832 
1215.417 19100330 19172340 19202868 19187290 19130268 19042852 18939578 
1215.839 18834848 18739158 18658904 18595204 18544452 18498984 18449044 
1216.261 18385188 18299724 18189264 18055042 17902226 17737580 17567370 
1216.684 17395634 17223648 17051120 16878056 16706119 16539074 16381550 
1217.106 16236685 16104518 15981287 15860787 15736412 15604317 15464625 
1217.528 15321371 15180218 15046500 14923157 14810291 14706616 14611354 
1217.950 14525649 14452855 14396803 14359505 14339079 14329189 14319903 
1218.372 14299515 14258343 14189938 14092273 13967369 13820577 13659708 
1218.794 13493742 13333604 13190205 13072848 12987860 12936205 12913199 
1219.216 12909104 12912525 12912691 12901777 12876378 12836164 12782362 
1219.638 12715961 12637325 12546770 12445931 12338928 12231825 12130973 
1220.061 12040960 11962395 11891832 11823393 11752348 11677542 11603163 
1220.483 11536980 11488380 11464325 11466719 11491950 11532088 11577578 
1220.905 11618635 11647546 11658422 11646744 11609782 11547076 11462025 
1221.327 11362143 11259221 11166278 11092756 11041630 11006844 10975673 
1221.749 10932125 10864517 10770006 10656842 10541260 10442649 10376631 
1222.171 10348453 10352027 10371948 10390843 10393945 10374839 10335828 
1222.593 10285278 10232460 10182918 10136140 10085898 10023024 9939378 
1223.015 9831950 9704336 9566782 9432720 9317124 9232253 9184948 9176385 
1223.498 9201719 9251764 9313864 9375081 9423532 9449448 9447150 9414625 
1223.980 9353606 9268434 9165691 9053193 8938727 8830295 8734544 8655728 
1224.463 8595080 8550175 8515666 8484472 8450776 8411689 8368688 8326733 
1224.945 8292478 8270770 8261696 8259236 8252520 8229719 8180976 8102655 
1225.427 7998112 7876823 7750457 7629411 7519763 7421679 7330538 7239436 
1225.910 7142654 7037323 6924518 6808403 6695208 6591230 6501567 6430002 
1226.392 6378394 6346822 6333414 6334430 6343946 6354178 6357097 6344748 
1226.875 6311093 6253342 6172291 6072692 5962445 5852340 5753528 5675653 
1227.357 5624964 5601873 5600403 5608700 5613013 5600327 5563286 5502790 
1227.840 5428288 5354919 5297871 5268631 5270022 5295996 5332911 5364849 
1228.322 5377170 5359465 5307679 5223074 5111083 4979269 4837355 4696281 
1228.804 4567083 4461003 4386411 4346804 4339514 4356148 4384930 4413515 
1229.287 4433432 4440875 4436508 4422961 4402271 4373737 4334186 4279359 
1229.769 4206578 4116438 4013028 3902019 3788097 3672991 3555014 3430625 
1230.252 3297507 3157416 3017854 2891489 2792366 2733941 2724841 2767017 
1230.734 2855657 2980054 3125441 3273074 3403948 3499688 3544648 3530104 
1231.217 3455582 3330701 3172837 3006006 2854825 2738345 2668212 2645521 
1231.699 2662346 2703580 2751817 2790316 2805159 2788440 2738144 2658464 
1232.181 2558131 2449572 2346169 2259016 2195947 2159332 2146352 2149826 
1232.664 2160652 2169867 2169836 2156205 2128048 2088125 2042095 1997761 
1233.146 1962904 1942328 1936047 1937723 1936272 1917931 1872078 1795513 
1233.629 1695384 1587807 1494170 1435272 1423116 1458282 1529060 1616916 
1234.111 1700721 1763948 1798732 1805270 1789968 1761032 1725858 1688418 
1234.594 1649517 1607765 1560950 1506620 1442417 1366510 1278207 1179299 
1235.076 1074761 973655 887161 825332 794703 795203 820419 859395 901576 
1235.619 939881 973143 1005434 1043406 1092103 1151802 1217090 1278575 
1236.101 1326973 1355908 1365105 1360048 1350466 1345811 1352107 1369242 
1236.583 1390705 1404922 1398609 1361720 1289913 1187301 1065391 941767 
1237.066 834356 755967 710838 692351 685198 669511 629202 556413 455327 
1237.609 340404 233469 156601 124763 143425 206734 300966 407138 507113 
1238.151 586380 635132 649757 631915 588100 527654 462044 402382 356577 
1238.694 328537 317268 318439 326427 337278 350150 367068 391003 423523 
1239.237 462865 504223 541246 569179 587412 600250 615427 640394 679563 
1239.780 731300 788167 838153 868967 871205 840463 778586 693119 596064 
1240.322 500781 421278 369307 351736 369698 417424 483834 553927 613717 
1240.865 653363 669094 663640 643892 617555 589279 559585 525447 483422 
1241.408 432675 377498 326561 291411 281682 301790 349371 416233 491075 
1241.950 563035 625732 678022 723601 767971 815590 866709 916440 954741 
1242.493 969541 950500 891892 795793 672519 539968 418133 325786 275196 
1243.036 268481 297703 347170 399727 439887 459238 457473 441146 420067 
1243.579 403248 396232 399172 407827 415427 416052 406265 386801 362186 
1244.121 340234 329689 337682 368358 420866 489255 562606 627938 672553 
1244.664 686854 667458 617820 547705 469610 396848 339606 302874 286572 
1245.207 286191 294761 304139 307479 300312 281562 254004 224066 200728 
1245.750 192550 205895 242214 297523 362921 427792 483536 525669 555427 
1246.292 578250 601295 629568 664276 702314 738367 767013 785164 792868 
1246.835 792378 786328 775945 760653 739018 710696 678294 647641 626811 
1247.378 623850 643179 683959 739237 798301 848112 877091 878011 848619 
1247.920 792284 716635 632826 552477 485888 440366 418120 416146 426839 
1248.463 440848 448879 444574 426093 395845 359520 323853 295895 281322 
1249.006 284344 307883 353022 418488 499698 589215 676844 752069 807353 
1249.549 839544 851119 848450 839734 831414 826429 824612 824474 825855 
1250.091 831796 847859 880205 931932 1000453 1076432 1146012 1195805 1215993 
1250.634 1204494 1166854 1114504 1059928 1013220 980094 961258 954368 956150 
1251.177 964548 978972 999819 1027274 1060362 1096809 1133841 1168849 
1251.659 1200308 1227675 1250739 1268919 1280841 1284708 1279309 1264996 
1252.142 1244308 1221179 1200004 1183484 1171395 1160255 1144664 1119726 
1252.624 1083297 1038000 991103 953122 933533 938134 966184 1010836 1060760 
1253.167 1104802 1136569 1156491 1171926 1193479 1230722 1286418 1354171 
1253.649 1418494 1460688 1463885 1419569 1330991 1212694 1086178 971920 
1254.132 885781 834089 814233 817680 834839 858729 886187 917547 954162 
1254.674 995981 1040447 1082804 1117920 1142810 1157757 1166490 1174526 
1255.157 1187522 1208790 1238280 1272372 1305108 1329300 1337763 1325238 
1255.639 1288985 1229904 1152503 1065228 979212 905660 855012 833873 843916 
1256.182 881791 940169 1009547 1079543 1141793 1190352 1222662 1239763 
1256.664 1246074 1248690 1255350 1273542 1307823 1358332 1420089 1484054 
1257.147 1539358 1575494 1586267 1571114 1535771 1489986 1445585 1412846 
1257.629 1397380 1399539 1414468 1434375 1450135 1454242 1442310 1413294 
1258.112 1369242 1314250 1253389 1191221 1131811 1078718 1035105 1004495 
1258.594 990442 995815 1022250 1069069 1133273 1209700 1292545 1376489 
1259.076 1457378 1532798 1601281 1661509 1712008 1751220 1778772 1796473 
1259.559 1809229 1824050 1847527 1883450 1930126 1980366 2022911 2047357 
1260.041 2047839 2026310 1992297 1960911 1947474 1961140 2002514 2063239 
1260.524 2130532 2190865 2235271 2260870 2269733 2266392 2255125 2238435 
1261.006 2216961 2190949 2162090 2134124 2112816 2104033 2111477 2135600 
1261.489 2173145 2218704 2266029 2310536 2350031 2384748 2416572 2448075 
1261.971 2481699 2518990 2560457 2605204 2651029 2694360 2731104 2758119 
1262.453 2774367 2782318 2788013 2800486 2828751 2879577 2955248 3052459 
1262.936 3162662 3273817 3373864 3451560 3498987 3512346 3491734 3441212 
1263.418 3368092 3283196 3198805 3127605 3081098 3066513 3085875 3135070 
1263.901 3205155 3283257 3355633 3410962 3441129 3443410 3420289 3379257 
1264.383 3330830 3286824 3258996 3256067 3283061 3340380 3424297 3527657 
1264.865 3641675 3758356 3871059 3975902 4071807 4159641 4241286 4318278 
1265.348 4390770 4456832 4512336 4551553 4569247 4562273 4531787 4483767 
1265.830 4429095 4381008 4350972 4346467 4367907 4409132 4459071 4506168 
1266.313 4541292 4559796 4562129 4552495 4537257 4522708 4515071 4520061 
1266.795 4542730 4587690 4657682 4752392 4867366 4994507 5123552 5243754 
1267.278 5347209 5429238 5488353 5524989 5540254 5535700 5514420 5483470 
1267.760 5455044 5444837 5470284 5543642 5667566 5832170 6017351 6196869 
1268.242 6344825 6444732 6491936 6495152 6471467 6442441 6427385 6439078 
1268.725 6484245 6563333 6672507 6804524 6950415 7099969 7242524 7369625 
1269.207 7475903 7560365 7625793 7677107 7718558 7751491 7773856 7781509 
1269.690 7771063 7742616 7701502 7657752 7624482 7613335 7632697 7686416 
1270.172 7774201 7893184 8038945 8206057 8386699 8570617 8746109 8900732 
1270.655 9025551 9117698 9181816 9228765 9272671 9326877 9398849 9489007 
1271.137 9590498 9692583 9782796 9850877 9891086 9902696 9890591 9864344 
1271.619 9838420 9828734 9850328 9914301 10024104 10175374 10357124 10556269 
1272.102 10760110 10959529 11150230 11330686 11500408 11657771 11798861 
1272.524 11918719 12013547 12083096 12132129 12170092 12209356 12260935 
1272.946 12332854 12427996 12544267 12675686 12814128 12951323 13079008 
1273.368 13190770 13282824 13355194 13412502 13463888 13521707 13597128 
1273.790 13697413 13822393 13964482 14110190 14245375 14360727 14454487 
1274.212 14533667 14610878 14701103 14815734 14960353 15134382 15332939 
1274.635 15548997 15775426 16006000 16234533 16454366 16659097 16843136 
1275.057 17004322 17145298 17274008 17401228 17537210 17688360 17854304 
1275.479 18028094 18198494 18355090 18491340 18607616 18710544 18811200 
1275.901 18920884 19047404 19194060 19359208 19538238 19725474 19916602 
1276.323 20109246 20302666 20496726 20690724 20882516 21069142 21247540 
1276.745 21416516 21577998 21738200 21906732 22094508 22311818 22564184 
1277.167 22850298 23160618 23479578 23787688 24066182 24303020 24494884 
1277.589 24649056 24780324 24908390 25051364 25220940 25421252 25648638 
1278.011 25894884 26150578 26409460 26669532 26932902 27203438 27484360 
1278.434 27776152 28076378 28380648 28684778 28986562 29285836 29583538 
1278.856 29879794 30172182 30456030 30725848 30978256 31214696 31442446 
1279.278 31673250 31918630 32186816 32478872 32788900 33105800 33418432 
1279.700 33719988 34010092 34294596 34582440 34881708 35195480 35520704 
1280.122 35848944 36170192 36475388 36759516 37022448 37268312 37504052 
1280.544 37737664 37978060 38233468 38511036 38816144 39150936 39514036 
1280.966 39900520 40303792 40716840 41134068 41552296 41969744 42385148 
1281.388 42796828 43202756 43602172 43997468 44396012 44808884 45248796 
1281.811 45726268 46245088 46800528 47379148 47963096 48531984 49068092 
1282.233 49559672 50001080 50393724 50744980 51067848 51377584 51688772 
1282.655 52011716 52347880 52689208 53020252 53326164 53599268 53846412 
1283.077 54088336 54355968 54677420 55066008 55513204 55989628 56455832 
1283.499 56876208 57237088 57552756 57863236 58216720 58656616 59204172 
1283.921 59852492 60569120 61308704 62030072 62703848 63320176 63884084 
1284.343 64408440 64904832 65379804 65834188 66265340 66670144 67046900 
1284.765 67395952 67719808 68023744 68316184 68610408 68922440 69267272 
1285.188 69655200 70087040 70553928 71040312 71532296 72023768 72520752 
1285.610 73038216 73593504 74195608 74838360 75498128 76140968 76734816 
1286.032 77257832 77706952 78095672 78447976 78786576 79127440 79477360 
1286.454 79836408 80203888 80582816 80981040 81409768 81878856 82393008 
1286.876 82950168 83542672 84160528 84793520 85434800 86081040 86732056 
1287.298 87389512 88055240 88728256 89402016 90061760 90684528 91244784 
1287.720 91719520 92099328 92393632 92632456 92856168 93102928 93395048 
1288.142 93728312 94072920 94385224 94631264 94802216 94925032 95050992 
1288.564 95243144 95550736 95994480 96563176 97220104 97918248 98614168 
1288.987 99284280 99924624 100543688 101148704 101735224 102283440 102765944 
1289.409 103156432 103443232 103634128 103755584 103843168 103930672 
1289.771 104045304 104201888 104405776 104656424 104950808 105283896 
1290.132 105647024 106027176 106403456 106749616 107040856 107258800 
1290.494 107402064 107490136 107565104 107680344 107889888 108236920 
1290.856 108739064 109383336 110122360 110886952 111592600 112164128 
1291.218 112558664 112774552 112853584 112863480 112886168 112991056 
1291.580 113224104 113605880 114131864 114781936 115528832 116347944 
1291.941 117215536 118105472 118984760 119803736 120499336 121006904 
1292.303 121271096 121269872 121025584 120609440 120120784 119667176 
1292.665 119342112 119198536 119249176 119468024 119807992 120213272 
1293.027 120638880 121062064 121480488 121908000 122363088 122862016 
1293.389 123413576 124020400 124681376 125393976 126151208 126936376 
1293.750 127721048 128461072 129103984 129604472 129933880 130092896 
1294.112 130109296 130031776 129911040 129786304 129676936 129577080 
1294.474 129457912 129272272 128970352 128510368 127878312 127100896 
1294.836 126252592 125443504 124789240 124394640 124315536 124545416 
1295.198 125008760 125579928 126108552 126454464 126536056 126338016 
1295.560 125905832 125310744 124626312 123907896 123191216 122508184 
1295.921 121894208 121387168 121020440 120802056 120703600 120654656 
1296.283 120564104 120339776 119920288 119296920 118509912 117628576 
1296.645 116718256 115824880 114963880 114129528 113310160 112502800 
1297.007 111719856 110989872 110348584 109834536 109485088 109330056 
1297.369 109392928 109684744 110198368 110900080 111726936 112596224 
1297.730 113409520 114082352 114563488 114842568 114946016 114919528 
1298.092 114809976 114649544 114460000 114260528 114075136 113938224 
1298.454 113885704 113941120 114108360 114369360 114697000 115071992 
1298.816 115501416 116022792 116694200 117564944 118649880 119905840 
1299.178 121237064 122503504 123563528 124323104 124756456 124912168 
1299.540 124880480 124765312 124645304 124564720 124540520 124572968 
1299.901 124659344 124801456 125005352 125278440 125625624 126046840 
1300.263 126535320 127076408 127647408 128215960 128749824 129231456 
1300.625 129675672 130140712 130725848 131551896 132714152 134246704 
1300.987 136079104 138037392 139842272 141188736 141860944 141806800 
1301.349 141168224 140200400 139184944 138317728 137681904 137255568 
1301.710 136948960 136647152 136252016 135713744 135028992 134230752 
1302.072 133364224 132472488 131580320 130689040 129774784 128792616 
1302.434 127684608 126387456 124856088 123074016 121062968 118879256 
1302.796 116603184 114322184 112108968 110019656 108084664 106309152 
1303.158 104679776 103168952 101743296 100369072 99022368 97692944 96386400 
1303.580 95119920 93915504 92790976 91751400 90787792 89878728 88997880 
1304.002 88118128 87218360 86284664 85307408 84281328 83205976 82090200 
1304.424 80956128 79842096 78799248 77875152 77104440 76492464 76011328 
1304.846 75602016 75191440 74716880 74139696 73461136 72716696 71964672 
1305.268 71261088 70646560 70136944 69723192 69380200 69078544 68796656 
1305.690 68522472 68252096 67982920 67706064 67403576 67051476 66624780 
1306.113 66108960 65505956 64837676 64139252 63452716 62815516 62248940 
1306.535 61756456 61322980 60922708 60525532 60108544 59662556 59193368 
1306.957 58718516 58260196 57838904 57465772 57142240 56861280 56612484 
1307.379 56385164 56170964 55963604 55755060 55533572 55283912 54988808 
1307.801 54636008 54223632 53764300 53283108 52813488 52389728 52035896 
1308.223 51762724 51565092 51426272 51321320 51223372 51108968 50957392 
1308.645 50754412 50493304 50175952 49813360 49424460 49033212 48660988 
1309.067 48323232 48025372 47762876 47524516 47298096 47076056 46857284 
1309.490 46646260 46448348 46264752 46088640 45905268 45694924 45441152 
1309.912 45135720 44782860 44397536 44002584 43621688 43271820 42961460 
1310.334 42688356 42442788 42210560 41978548 41737488 41482596 41213936 
1310.756 40934736 40650376 40366772 40090256 39826640 39579772 39350640 
1311.178 39135824 38927856 38715328 38486384 38231948 37948084 37637976 
1311.600 37311032 36980872 36660276 36358932 36080936 35824832 35585124 
1312.022 35354456 35125928 34893120 34650504 34393036 34115664 33814700 
1312.444 33489534 33144354 32788464 32434696 32096214 31782376 31497804 
1312.866 31241990 31010898 30798444 30597568 30401060 30200896 29989112 
1313.289 29758548 29504036 29224586 28924490 28613264 28302342 28001928 
1313.711 27716908 27445736 27181662 26916572 26644998 26366020 26083610 
1314.133 25804174 25533828 25275022 25025952 24781936 24538558 24294294 
1314.555 24052232 23818764 23601172 23403500 23224022 23054528 22883076 
1314.977 22698280 22491704 22261018 22009836 21746834 21482598 21227766 
1315.399 20990620 20774728 20578784 20396834 20220714 20041438 19852092 
1315.821 19649486 19434064 19209350 18980136 18751136 18525376 18304168 
1316.243 18087572 17874770 17664232 17453054 17236738 17008782 16762267 
1316.666 16492461 16199800 15892258 15584792 15297207 15045793 14837258 
1317.088 14665081 14513600 14363992 14202118 14023502 13832630 13639472 
1317.510 13453038 13277505 13109657 12941441 12764297 12575035 12378161 
1317.932 12185293 12009497 11860347 11739282 11638863 11544923 11441638 
1318.354 11317342 11165956 10987876 10787154 10569597 10340704 10106014 
1318.776 9873223 9652190 9454160 9288184 9156775 9054254 8968791 8888277 
1319.259 8803305 8710343 8611168 8510821 8414207 8323430 8236864 8150026 
1319.741 8057917 7957607 7850062 7740157 7635265 7542052 7464723 7403463 
1320.223 7355086 7313674 7272800 7226959 7171300 7102354 7017804 6916427 
1320.706 6798296 6664880 6519101 6364946 6207632 6053334 5908409 5779584 
1321.188 5672471 5590053 5531620 5492023 5462892 5434454 5399789 5357183 
1321.671 5311472 5271878 5249008 5249871 5274171 5313184 5351804 5373964 
1322.153 5365913 5321269 5241294 5133172 5005686 4865669 4716151 4556528 
1322.635 4385121 4202639 4014274 3830765 3666494 3535053 3447216 3406740 
1323.118 3409729 3444730 3496079 3547455 3584659 3599595 3590345 3560268 
1323.600 3515220 3461287 3402339 3339167 3270308 3193616 3108410 3016671 
1324.083 2923162 2833939 2754790 2688635 2634897 2589783 2548344 2506464 
1324.565 2462881 2419742 2381850 2354490 2340773 2340182 2347971 2356701 
1325.048 2357912 2345575 2317798 2277631 2231622 2187991 2153590 2131169 
1325.530 2118716 2110155 2098445 2078023 2048076 2012915 1980938 1960571 
1326.012 1956467 1966440 1981392 1987229 1969384 1919095 1836222 1731010 
1326.495 1620551 1526157 1466575 1453105 1488529 1566631 1674962 1796622 
1326.977 1914766 2013862 2080811 2107226 2089046 2027309 1927480 1799164 
1327.460 1654242 1504222 1359897 1229270 1117359 1027169 959656 914095 
1327.942 887857 876560 874194 874386 872686 867727 862305 862271 875039 
1328.485 906407 958189 1027149 1105605 1183211 1248577 1292377 1308137 
1328.967 1293193 1249024 1181145 1098440 1010945 928827 859081 803377 757410 
1329.510 712451 659037 590716 508055 419301 338437 278924 249019 247092 
1330.053 262317 277637 276997 251961 204164 145117 91131 58763 57890 89637 
1330.656 146384 215517 282613 335372 366948 375967 366557 346332 325125 
1331.198 312148 313493 331058 361525 397774 431129 455468 469486 477730 
1331.741 488200 509332 545430 594431 648159 696108 730687 750650 762613 
1332.284 778218 809736 863275 935490 1012820 1076527 1107090 1090754 1023895 
1332.827 912836 771627 616681 464881 329575 219623 140004 91270 70018 69159 
1333.430 79923 93057 101126 100545 91728 78396 65094 55521 50598 48621 46176 
1334.093 40104 28796 12523 -7162 -28439 -50132 -71904 -93750 -115302 -135601 
1334.696 -153368 -167893 -179727 -190724 -203139 -218238 -235203 -250943 
1335.178 -260927 -260726 -248192 -224224 -192934 -160010 -131845 -113610 
1335.661 -108266 -116577 -137176 -167130 -202235 -238294 -272225 -303768 
1336.143 -336649 -378847 -441003 -532335 -657124 -809487 -971811 -1112678 
1336.626 -1195725 -1193949 -1101715 -939657 -744508 -556042 -401863 -295301 
1337.108 -236080 -214242 -214845 -222859 -228015 -225856 -218640 -213091 
1337.591 -218188 -241484 -286708 -352595 -433206 -519876 -604263 -682573 
1338.073 -757310 -837392 -934271 -1057840 -1209806 -1379804 -1541897 
1338.495 -1661616 -1710374 -1680188 -1590752 -1479315 -1385039 -1332119 
1338.917 -1327614 -1361893 -1415409 -1464377 -1490071 -1485614 -1455810 
1339.339 -1412548 -1366783 -1324477 -1285501 -1247707 -1211813 -1183887 
1339.761 -1174848 -1196995 -1258646 -1361915 -1501647 -1668251 -1848914 
1340.184 -2030729 -2201604 -2346895 -2448483 -2485801 -2440966 -2309166 
1340.606 -2103265 -1851683 -1587257 -1340341 -1132419 -972799 -861712 
1341.028 -791388 -750152 -724837 -704734 -682860 -655126 -619592 -575355 
1341.510 -522718 -464114 -405274 -355267 -323916 -319868 -347106 -403412 
1341.993 -480037 -563971 -641511 -700042 -731579 -733087 -706106 -655733 
1342.475 -589759 -517941 -449776 -394046 -356848 -340515 -343710 -362368 
1342.958 -391642 -427324 -466845 -509556 -555247 -602766 -649196 -689882 
1343.440 -720220 -737088 -740394 -732960 -719620 -705096 -692073 -680952 
1343.922 -670163 -657728 -642595 -625461 -608494 -594541 -585951 -584238 
1344.405 -590239 -604456 -627277 -658746 -697793 -741323 -784174 -820286 
1344.887 -843765 -851336 -843252 -823278 -796899 -769652 -745521 -726147 
1345.370 -711720 -702272 -698787 -703661 -719838 -749312 -791980 -844974 
1345.852 -903238 -960145 -1009324 -1045153 -1062839 -1058923 -1031044 
1346.274 -978903 -905140 -816446 -723276 -637475 -571012 -532054 -523288 
1346.757 -541672 -579896 -628871 -679755 -726558 -765866 -796268 -817211 
1347.239 -828053 -827696 -814977 -788866 -748752 -694369 -626000 -545043 
1347.721 -455049 -363370 -280473 -219237 -192053 -205942 -259978 -343464 
1348.204 -439199 -526388 -588017 -616325 -613957 -592426 -566649 -550343 
1348.686 -550605 -567372 -595204 -627705 -660877 -695220 -734553 -783218 
1349.169 -842267 -907376 -968567 -1013604 -1032779 -1022229 -985964 -934031 
1349.651 -879224 -831623 -796571 -773454 -757456 -741713 -720669 -692266 
1350.134 -658618 -625128 -598119 -582972 -581583 -591727 -607380 -621055 
1350.616 -625850 -617825 -597577 -569998 -542873 -523615 -517604 -525972 
1351.098 -545815 -571002 -594577 -610729 -615339 -606397 -583273 -546086 
1351.581 -495796 -435027 -369202 -306170 -255960 -227906 -227211 -253170 
1352.063 -298240 -350695 -397286 -428873 -442817 -443447 -438845 -436769 
1352.546 -440118 -444992 -441679 -418967 -370089 -296502 -209754 -128086 
1353.028 -72870 -60205 -96366 -175814 -283498 -398980 -501804 -578153 
1353.510 -621888 -635049 -624798 -600551 -570123 -537536 -503133 -464540 
1353.993 -418852 -364836 -304446 -243303 -190216 -154454 -144360 -164916 
1354.475 -216533 -294883 -391465 -495642 -594789 -676965 -732644 -755258 
1354.958 -742446 -695478 -618455 -517224 -399401 -274665 -153790 -49202 
1355.440 27267 67413 67948 32324 -30598 -107892 -187141 -259372 -320930 
1355.983 -374087 -425309 -482439 -550598 -630079 -714950 -794931 -857002 
1356.465 -889743 -886847 -848509 -781776 -698370 -612934 -538547 -484968 
1356.948 -457115 -454311 -470795 -496733 -520970 -532028 -521150 -484441 
1357.430 -423669 -346093 -262264 -184099 -120533 -75618 -47597 -30124 -14503 
1357.973 7058 38061 76756 116582 149276 167014 165208 143066 102820 48459 
1358.576 -15368 -83480 -150716 -211581 -260350 -292487 -305413 -299911 
1359.058 -280018 -252527 -224640 -201256 -183825 -169758 -154233 -132169 
1359.541 -101116 -62323 -20528 18317 49059 69454 80703 86771 92648 102378 
1360.144 118466 141543 170993 205352 242214 277280 302928 308857 282286 
1360.687 210046 81792 -107403 -352036 -632839 -908015 -1118697 -1210218 
1361.169 -1160017 -994828 -771787 -549735 -365437 -234880 -159053 -129846 
1361.651 -134910 -160413 -194540 -227632 -253707 -270329 -277668 -278188 
1362.134 -276160 -277694 -289114 -315582 -359085 -416860 -481062 -540969 
1362.616 -588696 -624472 -660502 -718082 -824441 -1004209 -1272050 -1620544 
1363.099 -2007099 -2344698 -2515739 -2440377 -2131572 -1688625 -1224297 
1363.521 -818989 -506978 -288080 -146107 -57158 2471 53614 109629 175726 
1364.063 249965 325699 394367 447791 480450 489584 475850 443071 398396 
1364.606 351108 310229 283203 272946 277124 288499 297790 296662 280532 
1365.149 250395 212347 175390 147551 134148 136102 150975 174549 203341 
1365.692 235844 272352 313653 359523 406974 450887 484839 503161 503107 
1366.234 485184 452766 410065 360770 306758 248255 185179 118705 52237 -8418 
1366.837 -57102 -89115 -103354 -102904 -94263 -84651 -78486 -75519 -69992 
1367.380 -53223 -16332 44926 127717 221468 311193 381476 420361 423426 
1367.923 393685 340083 273009 201514 130339 59748 -12267 -86979 -162163 
1368.466 -230128 -279077 -296756 -275844 -218831 -137814 -49513 32510 100422 
1369.008 152707 191701 220629 241538 254611 258797 253484 239905 221967 
1369.551 205166 195116 195652 207220 226800 248905 268011 279708 282253 
1370.094 276373 264747 250985 239049 233479 238839 259597 299238 358464 
1370.636 433883 516967 596161 658291 693169 697172 674582 636800 598382 
1371.179 573755 571226 590797 623897 657059 675615 668108 629958 563552 
1371.722 477113 380951 285328 197453 120818 56726 5742 -30691 -49536 -47243 
1372.325 -21097 28849 98958 181675 266331 341753 397068 424707 422228 393053 
1372.928 346045 293199 247626 218308 207150 206274 199613 164463 75621 
1373.471 -89115 -345005 -690736 -1099118 -1499329 -1787031 -1869447 -1720582 
1373.953 -1399049 -1000644 -608795 -268264 4095 207200 347060 429409 457443 
1374.496 431296 348536 205961 1504 -262824 -578470 -926507 -1270067 -1556870 
1375.039 -1724015 -1717553 -1521561 -1170268 -736495 -297012 85304 374734 
1375.521 561072 650682 662701 622741 560149 500107 460444 449706 466944 
1376.064 505058 554638 608273 661597 713879 766251 819419 871564 917706 
1376.606 949755 959073 938936 886681 805257 703099 592685 486645 396089 
1377.149 327659 282443 256744 243680 235921 226927 212653 191552 163818 
1377.692 130718 94232 57446 24572 1666 -4277 12161 52947 114748 190074 
1378.295 268808 341469 401075 443382 467617 475757 471968 461113 447771 
1378.838 435171 424376 414142 401081 380596 347561 298033 230774 148472 
1379.380 58023 -29985 -102326 -147299 -157230 -131224 -75225 -331 80703 
1379.923 157310 221554 269085 298404 309738 304543 285187 255391 219863 
1380.466 184194 154117 133642 124304 124390 129784 135131 136092 131143 
1381.009 122201 114124 112815 123440 147856 183915 225401 264377 292893 
1381.551 305490 301036 282926 258200 234978 220992 220872 235141 260310 
1382.094 290274 318132 337689 345287 339786 322261 295044 260994 222877 
1382.637 182803 142361 102405 63103 24015 -15580 -56109 -97030 -136479 
1383.179 -171032 -196233 -207914 -203185 -181486 -144782 -97387 -44807 7522 
1383.722 54294 90952 113612 118689 103780 68535 15923 -47733 -112665 -167342 
1384.325 -201777 -208758 -185999 -135977 -65003 18917 108314 196547 278701 
1384.868 350878 409489 451644 475529 481298 471482 450834 425106 399028 
1385.411 375433 354392 333859 310836 283020 249645 211461 169818 125411 
1385.953 77207 22361 -43294 -123559 -219965 -329780 -444457 -550268 -628522 
1386.496 -661611 -639385 -563608 -448412 -316003 -191892 -97381 -48616 
1386.979 -54792 -118107 -236271 -405467 -625118 -897530 -1226427 -1607189 
1387.461 -2000672 -2313916 -2424330 -2271196 -1917418 -1484032 -1063670 
1387.883 -696387 -394548 -159660 10219 116220 162062 155717 110486 42793 
1388.426 -30929 -95873 -142636 -167180 -170497 -157577 -134772 -107592 
1388.908 -79055 -49950 -19958 10657 39354 61205 70277 61570 33856 -8918 
1389.511 -57303 -99377 -123414 -121792 -93777 -45452 11936 65937 104597 
1390.054 119938 109048 73888 20428 -42847 -105351 -156732 -187355 -190186 
1390.597 -162981 -109079 -37349 40880 113526 171741 212191 237183 253461 
1391.139 268968 290137 318956 352822 385591 410723 423412 422804 412162 
1391.682 397868 386700 382859 386490 392779 393561 379206 342802 282693 
1392.225 204207 118400 40299 -15053 -38199 -27721 7846 53322 89584 100259 
1392.828 76351 17829 -66336 -161615 -251364 -322693 -368075 -385813 -378962 
1393.371 -353594 -317332 -277757 -243039 -221307 -220169 -247082 -307627 
1393.853 -404752 -538563 -707671 -911575 -1153145 -1441824 -1792608 -2221297 
1394.335 -2733237 -3288843 -3765788 -3980955 -3821561 -3368724 -2806940 
1394.758 -2278314 -1837532 -1489255 -1221711 -1019410 -869998 -764391 
1395.180 -696195 -661781 -660723 -695895 -773688 -902414 -1089490 -1335682 
1395.662 -1627885 -1931245 -2184300 -2320082 -2296427 -2122965 -1852451 
1396.084 -1551784 -1274350 -1047928 -882104 -771813 -704020 -661999 -630354 
1396.567 -598583 -562110 -522335 -483795 -450931 -424991 -403206 -379724 
1397.049 -349016 -309058 -264487 -226459 -211990 -238653 -319776 -460636 
1397.531 -654927 -882545 -1107249 -1285440 -1376546 -1362057 -1255253 
1397.954 -1094401 -922488 -768444 -645099 -550350 -474947 -408865 -346938 
1398.436 -291365 -251812 -241592 -274310 -360719 -507528 -719402 -1001858 
1398.918 -1365358 -1822573 -2380514 -3020729 -3655962 -4117472 -4231548 
1399.341 -3962240 -3443537 -2850623 -2297209 -1822402 -1429213 -1108289 
1399.763 -848802 -644625 -492579 -389790 -331381 -308591 -309354 -318835 
1400.245 -323597 -314184 -287129 -245774 -198716 -156943 -129473 -121425 
1400.728 -131812 -154269 -178282 -192809 -189803 -165757 -122836 -67726 
1401.210 -9790 42448 83113 110038 124374 128910 126148 117027 101066 77553 
1401.813 47188 13172 -19130 -44006 -57313 -58792 -52432 -45386 -44512 -53958 
1402.416 -73157 -97450 -120037 -135465 -142279 -143455 -144772 -151370 
1402.898 -164803 -181196 -192119 -187045 -158429 -104485 -30959 51059 127477 
1403.441 185795 218980 226274 213379 189621 166010 151344 150599 164516 
1403.984 190041 221741 253554 280859 300719 311510 311394 296035 257057 
1404.527 182354 56006 -138382 -414864 -778873 -1219671 -1695718 -2119602 
1405.009 -2377798 -2381007 -2132743 -1726400 -1282712 -886970 -574047 
1405.431 -348996 -199607 -108124 -55728 -25644 -4327 18393 47848 85317 
1405.974 128388 172546 212620 245130 270141 291765 316991 352752 403379 
1406.517 467768 539488 608290 664898 704156 727301 741148 755643 779510 
1407.059 816343 863322 912210 953312 978386 984618 975129 958592 945698 
1407.602 946355 967082 1008995 1067958 1135317 1200563 1252502 1282370 
1408.084 1286329 1266453 1230889 1191670 1163011 1156461 1178173 1227208 
1408.567 1296061 1372983 1445510 1504894 1546870 1572128 1584212 1587559 
1409.049 1585281 1578666 1568170 1554850 1541528 1533286 1535678 1552896 
1409.532 1585628 1630385 1680017 1725934 1761374 1782959 1792226 1794567 
1410.014 1797416 1806638 1824185 1847478 1870766 1887471 1892489 1884405 
1410.497 1865837 1843094 1824112 1817354 1829434 1863513 1918759 1990022 
1410.979 2068959 2144531 2205825 2243881 2253282 2234144 2192458 2140480 
1411.461 2092346 2062267 2059723 2086467 2136599 2199083 2262416 2317606 
1411.944 2361742 2398160 2435292 2482783 2548246 2634450 2738401 2852596 
1412.426 2967319 3073920 3165391 3237964 3291166 3327288 3350507 3365600 
1412.909 3377295 3388975 3402626 3418937 3437772 3458915 3482592 3509706 
1413.391 3541642 3579473 3623183 3670975 3719372 3764166 3801226 3828322 
1413.874 3845700 3856261 3864576 3875815 3894443 3922715 3960503 4005208 
1414.356 4052793 4098256 4136944 4165611 4182934 4190268 4191370 4192041 
1414.838 4198103 4214081 4241684 4279190 4321949 4364196 4401747 4433480 
1415.321 4462005 4492019 4528029 4570845 4615760 4651810 4665247 4643022 
1415.803 4577012 4467965 4328102 4182357 4062506 4002116 4022837 4125014 
1416.286 4287064 4474433 4652931 4795015 4887163 4929032 4931630 4912511 
1416.768 4891639 4885891 4903485 4942623 4991102 5030467 5037703 4991295 
1417.250 4876570 4692759 4461223 4228990 4063321 4019453 4114150 4319021 
1417.733 4583035 4855270 5099124 5296362 5440060 5532421 5580576 5593449 
1418.215 5578527 5539832 5477534 5388493 5267957 5110751 4911736 4665513 
1418.698 4366442 4008638 3590143 3117006 2604402 2078239 1563097 1068009 
1419.180 573469 30155 -626245 -1418580 -2192677 -2466074 -1752303 -306657 
1419.663 1195825 2398419 3277868 3907725 4361969 4695395 4945021 5138580 
1420.145 5297265 5437221 5569184 5698629 5826153 5948889 6061738 6158769 
1420.627 6234593 6284126 6303591 6291376 6248927 6181516 6097781 6009386 
1421.110 5927668 5861903 5817761 5796381 5795427 5810389 5836381 5868274 
1421.592 5900954 5929574 5949253 5956610 5951093 5935982 5917806 5904343 
1422.075 5901929 5912289 5931747 5952274 5965486 5965645 5952487 5930744 
1422.557 5907870 5889686 5876888 5864178 5842366 5802682 5740437 5657574 
1423.040 5561599 5462385 5366573 5274658 5179744 5070754 4935992 4768708 
1423.522 4570047 4351419 4131802 3931855 3767855 3645253 3560178 3506279 
1424.004 3483910 3504037 3584950 3739551 3965029 4237654 4522417 4783998 
1424.487 4998919 5158552 5265283 5329869 5366731 5391070 5414357 5443249 
1424.969 5479429 5521508 5568043 5620174 5682145 5760727 5861929 5987980 
1425.452 6135198 6293888 6450540 6590053 6700980 6777850 6822827 6844327 
1425.934 6854829 6867309 6891408 6933301 6995070 7075762 7172402 7280902 
1426.417 7396485 7513428 7626243 7730662 7825020 7911479 7995977 8086698 
1426.899 8190546 8311110 8446462 8590036 8732146 8864099 8981351 9084909 
1427.381 9180866 9277960 9385234 9508737 9650803 9809526 9979561 10152463 
1427.864 10317612 10464656 10584367 10672425 10732004 10776065 10825416 
1428.286 10903802 11032073 11218439 11454713 11715864 11968737 12178275 
1428.708 12317139 12372904 12348416 12261313 12137628 12008278 11899418 
1429.130 11826573 11791992 11783199 11775633 11735886 11631444 11434130 
1429.552 11124619 10691722 10130241 9439539 8623848 7712902 6780150 5947502 
1430.035 5344151 5021048 4921290 4932210 4964121 4969393 4935602 4870799 
1430.517 4790694 4710796 4640349 4581518 4529695 4477558 4418896 4352331 
1431.000 4281798 4215329 4161092 4124441 4105682 4100052 4099105 4093432 
1431.482 4076134 4044057 3999122 3947459 3898586 3862844 3849034 3863145 
1431.964 3906108 3973550 4056249 4143745 4226806 4300444 4364877 4424318 
1432.447 4484494 4549585 4620227 4692320 4758240 4808246 4834037 4830733 
1432.929 4797957 4739851 4664602 4583864 4510097 4455917 4431263 4440970 
1433.412 4484568 4556686 4649346 4752968 4858339 4957421 5043285 5111716 
1433.894 5161459 5194425 5214760 5227737 5238195 5248734 5260413 5272720 
1434.376 5284831 5296407 5307964 5320565 5335204 5352198 5371035 5390616 
1434.859 5409902 5428040 5444086 5456366 5461427 5453883 5427729 5377628 
1435.341 5301925 5204311 5095446 4991094 4909150 4865754 4868452 4912812 
1435.824 4981491 5050852 5096057 5097708 5044874 4932042 4756691 4514704 
1436.306 4200132 3801635 3300239 2670834 1876952 876131 -348759 -1682508 
1436.789 -2696178 -2757644 -1776298 -369741 920961 1932651 2688815 3250064 
1437.271 3668040 3977758 4205713 4372282 4494213 4586018 4659467 4722733 
1437.753 4779662 4830763 4874743 4910715 4939259 4962438 4982442 5000191 
1438.236 5014484 5022558 5021762 5011628 4994923 4977109 4963460 4956447 
1438.718 4952856 4944386 4918986 4865776 4779589 4663411 4528580 4391228 
1439.201 4268511 4171829 4104462 4061000 4030635 4000819 3961824 3910194 
1439.683 3848918 3786051 3730794 3691024 3669771 3664471 3667251 3667738 
1440.166 3656000 3625269 3574422 3508086 3435319 3365947 3308272 3265814 
1440.648 3236357 3212657 3185197 3145723 3089087 3015037 2927334 2832425 
1441.130 2736637 2644926 2560299 2484085 2417066 2360312 2315180 2282914 
1441.613 2263833 2256967 2260004 2269970 2283909 2298845 2311871 2319549 
1442.095 2317417 2300854 2265533 2209078 2132262 2039615 1938874 1838894 
1442.578 1748498 1673781 1617060 1576989 1549284 1528175 1507550 1482833 
1443.060 1451412 1413099 1369734 1324350 1279790 1237213 1195491 1151156 
1443.542 1099929 1038234 965642 885619 805618 734407 679792 646051 632439 
1444.085 633831 642637 652007 656901 655263 647251 633892 615958 593726 
1444.628 567621 539092 510972 487171 470772 462590 460015 457691 448828 
1445.171 427913 392758 344926 288900 229944 172789 120347 74453 37258 11893 
1445.774 2611 13129 44120 91237 144462 190806 216100 209976 168983 97848 
1446.377 8764 -81717 -155504 -198937 -204808 -173982 -114178 -38289 39003 
1446.919 105547 152827 178248 184424 177653 164703 149798 132539 107018 
1447.462 62595 -14974 -141024 -332548 -607570 -984882 -1474470 -2056792 
1447.945 -2654509 -3112212 -3270913 -3092067 -2682839 -2191574 -1721066 
1448.367 -1319241 -995016 -742166 -548236 -398560 -278883 -177530 -87604 
1448.849 -7086 62034 116712 155481 180783 198957 219057 249069 293686 352762 
1449.452 421743 493012 558108 610353 645180 660861 657910 638518 606082 
1449.995 564808 519934 476417 438297 407977 385995 371953 365878 369133 
1450.538 384738 416223 465752 532712 613001 700088 785910 863343 927172 
1451.080 974312 1003762 1015751 1011501 993150 964385 930510 896898 867237 
1451.623 840500 809814 762437 683753 562136 395751 198664 5030 -135891 
1452.166 -181582 -114806 46011 260307 482072 676864 827800 931698 996554 
1452.708 1035740 1064206 1093493 1130277 1176324 1229778 1287056 1344311 
1453.191 1398444 1446781 1487256 1518696 1541140 1556159 1566456 1575247 
1453.673 1584714 1595083 1604124 1607906 1601831 1582040 1546784 1496553 
1454.156 1433820 1362041 1285391 1208422 1135960 1074265 1030223 1010429 
1454.638 1019183 1055521 1111329 1171061 1215761 1224226 1176089 1054418 
1455.121 847362 555521 200675 -158168 -433413 -544873 -464501 -232042 78007 
1455.663 393671 669063 878180 1010093 1064797 1048304 970595 841274 667872 
1456.206 452109 188367 -134296 -533517 -1033121 -1661341 -2455845 -3468081 
1456.688 -4776987 -6479770 -8600578 -10717650 -11679710 -10769418 -8779786 
1457.111 -6747471 -5058445 -3734092 -2700070 -1884964 -1234511 -714246 
1457.533 -304949 6415 225238 354288 396784 355134 230567 20050 -283518 
1458.075 -690260 -1204195 -1792020 -2348973 -2685418 -2627629 -2189876 
1458.498 -1564436 -946514 -429794 -37120 239346 412232 485663 457085 320061 
1459.040 70460 -284423 -713046 -1141773 -1464540 -1572589 -1417724 -1046152 
1459.523 -565989 -83764 336731 667418 906665 1064967 1155875 1192886 1188077 
1460.065 1153225 1099365 1037895 980534 937216 915787 920403 951046 1004054 
1460.608 1073188 1151163 1229414 1299167 1352028 1380265 1379324 1349198 
1461.091 1295378 1227556 1158114 1099086 1058658 1040660 1044112 1065079 
1461.573 1098155 1138320 1181458 1223623 1260981 1289811 1307140 1312337 
1462.055 1307891 1299540 1294275 1298911 1317727 1351433 1397739 1452940 
1462.538 1514113 1580260 1653000 1735813 1833319 1949938 2089578 2255645 
1463.020 2450582 2675827 2930960 3213296 3517520 3836849 4165337 4499633 
1463.503 4841330 5197136 5578534 5998558 6469133 6998036 7585378 8220093 
1463.985 8875747 9511777 10068706 10475130 10663334 10578888 10201734 
1464.407 9550446 8681308 7662993 6555684 5400225 4196278 2909314 1492109 
1464.890 -39467 -1476062 -2403071 -2558479 -2129310 -1481951 -850101 -322384 
1465.372 92652 411978 655815 843831 991981 1112036 1211263 1293128 1358605 
1465.915 1407999 1442423 1464409 1477482 1485761 1493089 1502665 1517400 
1466.397 1539351 1569300 1605541 1643501 1675613 1693004 1688925 1660786 
1466.880 1612256 1551952 1491570 1441129 1405504 1383535 1369211 1355187 
1467.362 1336164 1311688 1286186 1267203 1261749 1274140 1304200 1347916 
1467.844 1398578 1449011 1493353 1527090 1547814 1555073 1550616 1538205 
1468.327 1523363 1512418 1510232 1519026 1537329 1560860 1583948 1601972 
1468.809 1613143 1618491 1620854 1622952 1626202 1630244 1634005 1637307 
1469.292 1641794 1650811 1667903 1694578 1729265 1767403 1803764 1834494 
1469.774 1859411 1881844 1907145 1939400 1979194 2022606 2062889 2092919 
1470.257 2108012 2107769 2095520 2076671 2056006 2036938 2020901 2008136 
1470.739 1998545 1991659 1985696 1975930 1954519 1910999 1834169 1715823 
1471.221 1552172 1345507 1102804 836528 562092 294033 43851 -185547 -401725 
1471.764 -624348 -883889 -1222075 -1687500 -2312276 -3034845 -3595251 
1472.186 -3654326 -3158383 -2382720 -1587493 -884354 -292405 198478 596790 
1472.669 908630 1136831 1282067 1347028 1335962 1255333 1112267 914663 
1473.151 669319 377545 35212 -371213 -864035 -1454768 -2094242 -2601991 
1473.634 -2720531 -2390203 -1812777 -1202455 -653152 -184267 208242 531746 
1474.116 787820 977491 1105271 1180491 1218174 1235686 1250023 1272608 
1474.598 1308164 1355067 1407565 1457984 1498542 1523092 1526874 1507419 
1475.081 1465098 1403287 1327899 1245713 1163280 1084897 1012010 943176 
1475.563 874623 800629 713731 605004 462630 270942 9543 -346593 -823258 
1476.106 -1438600 -2176888 -2959160 -3625407 -3972918 -3882556 -3404767 
1476.528 -2714493 -1986583 -1333369 -801128 -391895 -91519 120430 264067 
1477.010 356360 410744 436995 442301 431570 408666 377792 343540 311494 
1477.553 287529 276290 280728 300993 334684 377144 422770 466294 503184 
1478.096 530656 547568 554212 551866 542384 527745 509631 489329 467600 
1478.639 444838 421211 396945 372461 348503 326023 306014 289313 276223 
1479.181 266371 258344 249878 237920 219167 191196 153103 106231 53998 1451 
1479.784 -46399 -86155 -116703 -139264 -156224 -169556 -179453 -184195 
1480.267 -181361 -169975 -152351 -134894 -126335 -136268 -171626 -235012 
1480.749 -325120 -438606 -573030 -728529 -907859 -1113136 -1339959 -1573260 
1481.232 -1782560 -1927647 -1975728 -1917345 -1775439 -1592457 -1414119 
1481.654 -1270595 -1172204 -1112662 -1075244 -1040245 -991762 -923639 
1482.076 -839690 -751338 -671351 -610556 -574537 -563801 -575793 -606789 
1482.558 -653031 -710054 -772396 -833118 -884432 -920597 -939621 -944683 
1483.041 -942565 -941440 -946946 -959710 -975277 -986469 -987406 -976505 
1483.523 -958210 -941272 -935883 -948589 -979962 -1023595 -1069027 -1104613 
1484.006 -1122117 -1119695 -1102206 -1079546 -1062771 -1061504 -1080202 
1484.428 -1117102 -1164446 -1211291 -1246171 -1260187 -1249980 -1218061 
1484.850 -1172126 -1121917 -1077390 -1045764 -1030226 -1030533 -1044014 
1485.272 -1067123 -1095842 -1126033 -1152777 -1169959 -1172036 -1155939 
1485.694 -1124358 -1086733 -1059826 -1063981 -1116660 -1228118 -1395019 
1486.116 -1599340 -1807978 -1983187 -2093766 -2124887 -2083392 -1992568 
1486.538 -1883127 -1781253 -1706497 -1670101 -1676751 -1728569 -1827596 
1486.960 -1978150 -2187759 -2467489 -2830741 -3285108 -3820442 -4379358 
1487.383 -4826262 -4983908 -4752920 -4218371 -3569720 -2964607 -2474071 
1487.805 -2107527 -1852423 -1687786 -1591720 -1542601 -1520806 -1510051 
1488.227 -1498609 -1481310 -1458424 -1434516 -1416101 -1410867 -1426696 
1488.649 -1471078 -1552049 -1677204 -1852556 -2079776 -2353314 -2657426 
1489.071 -2962840 -3233067 -3432189 -3539129 -3557312 -3514399 -3451081 
1489.493 -3405168 -3409073 -3485854 -3650128 -3903568 -4222181 -4538721 
1489.915 -4735004 -4704985 -4436614 -4023470 -3582432 -3194681 -2896999 
1490.337 -2696498 -2592325 -2581695 -2664750 -2846859 -3138642 -3552174 
1490.760 -4079685 -4663191 -5161197 -5382774 -5235426 -4803536 -4256981 
1491.182 -3721539 -3256436 -2874561 -2567531 -2323358 -2129802 -1976624 
1491.604 -1855667 -1760423 -1685208 -1624023 -1570774 -1519302 -1464582 
1492.026 -1404708 -1341793 -1282152 -1234047 -1206039 -1203721 -1227838 
1492.448 -1273938 -1333600 -1397005 -1454412 -1498859 -1525995 -1533732 
1492.870 -1522002 -1492597 -1449673 -1399306 -1349728 -1309495 -1285189 
1493.292 -1280283 -1293693 -1320437 -1352879 -1383723 -1407730 -1422403 
1493.714 -1427748 -1424804 -1414482 -1397117 -1373047 -1343779 -1312607 
1494.136 -1285028 -1267245 -1264094 -1277523 -1305289 -1341575 -1378231 
1494.559 -1407980 -1425930 -1430710 -1424211 -1410633 -1395147 -1382442 
1494.981 -1376751 -1381406 -1398873 -1430941 -1478303 -1540519 -1615953 
1495.403 -1702725 -1799542 -1906707 -2026517 -2162868 -2320217 -2502807 
1495.825 -2714403 -2959649 -3247681 -3595034 -4031751 -4606008 -5373069 
1496.247 -6339583 -7309022 -7784652 -7437335 -6568254 -5642964 -4862363 
1496.669 -4245135 -3755925 -3358010 -3027441 -2748999 -2512509 -2311016 
1497.091 -2137768 -1986017 -1849416 -1723251 -1605072 -1495318 -1396697 
1497.513 -1313568 -1250810 -1212364 -1200882 -1216869 -1258472 -1321478 
1497.936 -1400297 -1489219 -1583369 -1680401 -1780871 -1888235 -2008048 
1498.358 -2147535 -2315251 -2521724 -2780901 -3111678 -3539000 -4084285 
1498.780 -4740557 -5421147 -5910067 -5971001 -5576905 -4933525 -4257309 
1499.202 -3657704 -3160248 -2753315 -2420310 -2146712 -1921089 -1735522 
1499.624 -1583475 -1459501 -1359318 -1280312 -1221514 -1182990 -1164698 
1500.046 -1165166 -1180579 -1205410 -1233107 -1257783 -1275985 -1286894 
1500.468 -1292201 -1294623 -1296562 -1298607 -1299279 -1295813 -1285877 
1500.890 -1269237 -1248772 -1229728 -1218605 -1220902 -1239039 -1272053 
1501.312 -1316339 -1368096 -1425366 -1489821 -1566069 -1659638 -1772910 
1501.735 -1901449 -2030571 -2137749 -2197103 -2189476 -2111791 -1977935 
1502.157 -1812459 -1639401 -1477913 -1338564 -1224816 -1136580 -1072047 
1502.579 -1029430 -1006436 -999569 -1002859 -1007777 -1005685 -990013 
1503.001 -959584 -919760 -881886 -859422 -862651 -895719 -954103 -1026462 
1503.483 -1097341 -1153477 -1187395 -1199461 -1196998 -1191769 -1196218 
1503.906 -1219133 -1264616 -1330914 -1411861 -1497790 -1578363 -1645049 
1504.328 -1692557 -1721034 -1736124 -1748614 -1770728 -1813714 -1884647 
1504.750 -1984592 -2109298 -2251670 -2405961 -2569848 -2746483 -2943601 
1505.172 -3171587 -3441731 -3766445 -4160165 -4647302 -5269776 -6091877 
1505.594 -7176214 -8436438 -9363820 -9300151 -8394357 -7303934 -6369598 
1506.016 -5640668 -5082091 -4659992 -4359886 -4176687 -4113488 -4179158 
1506.438 -4385109 -4745898 -5276206 -5993653 -6907890 -8018705 -9320743 
1506.860 -10796022 -12416578 -14105304 -15621258 -16404051 -15813050 
1507.222 -13985252 -11854279 -10080746 -8760010 -7769984 -6987941 -6338460 
1507.644 -5782886 -5305660 -4899244 -4555682 -4266110 -4019317 -3805838 
1508.066 -3622553 -3474263 -3373418 -3337377 -3382749 -3523143 -3761893 
1508.489 -4083748 -4429939 -4686764 -4723079 -4475036 -4012173 -3472308 
1508.911 -2968073 -2549443 -2226636 -1995151 -1846256 -1774071 -1775229 
1509.333 -1848003 -1992049 -2208240 -2499010 -2862862 -3287163 -3736387 
1509.755 -4133599 -4373169 -4366176 -4103291 -3668088 -3182593 -2745811 
1510.177 -2405713 -2176012 -2048040 -2002220 -2013593 -2055000 -2101390 
1510.599 -2130853 -2130430 -2096743 -2033682 -1948564 -1849238 -1743570 
1511.021 -1639296 -1545738 -1473025 -1429101 -1418009 -1437077 -1477698 
1511.443 -1526935 -1572579 -1607317 -1630840 -1650025 -1676582 -1724388 
1511.865 -1805645 -1931178 -2111273 -2358248 -2686785 -3110324 -3630188 
1512.288 -4199786 -4690283 -4912103 -4744098 -4262809 -3661575 -3097371 
1512.710 -2633533 -2277434 -2014074 -1822904 -1686244 -1589953 -1523784 
1513.132 -1479959 -1452676 -1437292 -1429252 -1424359 -1419087 -1410918 
1513.554 -1398860 -1383367 -1365865 -1348218 -1332823 -1322819 -1322006 
1513.976 -1334763 -1364494 -1411861 -1473528 -1542207 -1608531 -1663216 
1514.398 -1701460 -1725324 -1744744 -1774240 -1830023 -1925904 -2070397 
1514.820 -2264944 -2500486 -2755051 -2986541 -3140883 -3174051 -3076713 
1515.242 -2880171 -2633879 -2382023 -2150399 -1950880 -1786439 -1654421 
1515.665 -1550249 -1469217 -1408843 -1371163 -1363601 -1397249 -1484830 
1516.087 -1635908 -1853743 -2131588 -2453663 -2796767 -3136555 -3457899 
1516.509 -3757794 -4041446 -4308995 -4540216 -4687788 -4697245 -4546059 
1516.931 -4276203 -3972885 -3723224 -3580803 -3571139 -3704732 -3986487 
1517.353 -4414874 -4966161 -5574489 -6099945 -6372139 -6304954 -5955612 
1517.775 -5450947 -4892250 -4333655 -3798774 -3300754 -2851951 -2461462 
1518.197 -2136023 -1878107 -1684245 -1547583 -1458610 -1407050 -1382048 
1518.619 -1373240 -1371573 -1369082 -1360737 -1345240 -1325480 -1307604 
1519.042 -1299492 -1308395 -1338057 -1387622 -1451215 -1520191 -1584772 
1519.464 -1637583 -1676059 -1703627 -1729613 -1767611 -1834813 -1949002 
1519.886 -2128601 -2392611 -2761090 -3249015 -3847734 -4495871 -5040484 
1520.308 -5287942 -5159629 -4769020 -4300260 -3875444 -3545624 -3317180 
1520.730 -3183991 -3141435 -3188404 -3328291 -3567202 -3918424 -4402328 
1521.152 -5052081 -5917544 -7014504 -8155850 -8761524 -8385963 -7443321 
1521.574 -6505878 -5749069 -5141931 -4629701 -4179501 -3777833 -3425239 
1521.996 -3128485 -2893078 -2725016 -2627860 -2603595 -2655731 -2790786 
1522.418 -3020741 -3361944 -3833660 -4444664 -5154333 -5825583 -6205510 
1522.841 -6086927 -5533787 -4813968 -4144991 -3603132 -3185676 -2863076 
1523.263 -2607218 -2400284 -2233454 -2104171 -2012565 -1956969 -1931790 
1523.685 -1926785 -1929955 -1929378 -1916933 -1890145 -1851600 -1807355 
1524.107 -1764311 -1729256 -1707370 -1702295 -1716814 -1752904 -1812106 
1524.529 -1895341 -2002394 -2130711 -2273824 -2421614 -2559503 -2673019 
1524.951 -2754121 -2806530 -2846806 -2899451 -2993509 -3156963 -3418495 
1525.373 -3803755 -4329510 -4968257 -5587269 -5946376 -5859155 -5400459 
1525.795 -4798214 -4218910 -3715982 -3284662 -2909219 -2579116 -2294095 
1526.218 -2063545 -1897583 -1802193 -1773444 -1796919 -1850121 -1908883 
1526.640 -1955223 -1979670 -1984222 -1979936 -1984602 -2017316 -2095638 
1527.062 -2235116 -2447722 -2739720 -3102758 -3504255 -3870817 -4097596 
1527.484 -4102302 -3880311 -3509784 -3090401 -2698438 -2369852 -2112255 
1527.906 -1921089 -1786659 -1700485 -1658277 -1660971 -1714655 -1828895 
1528.328 -2014068 -2277843 -2618814 -3020049 -3433922 -3782407 -3980244 
1528.750 -3975322 -3783455 -3471217 -3115382 -2768576 -2458507 -2195802 
1529.172 -1981376 -1814156 -1692484 -1613850 -1574158 -1566824 -1583564 
1529.594 -1614597 -1651126 -1686588 -1716891 -1740717 -1758161 -1769589 
1530.017 -1774634 -1772083 -1760697 -1740313 -1712731 -1681549 -1650781 
1530.439 -1623579 -1600602 -1580031 -1558603 -1533816 -1505836 -1478332 
1530.861 -1457136 -1448465 -1456361 -1481272 -1520726 -1571681 -1633664 
1531.283 -1711017 -1812815 -1950025 -2131115 -2355442 -2606977 -2847722 
1531.705 -3025949 -3092092 -3025343 -2846452 -2606160 -2358737 -2140436 
1532.127 -1969465 -1848244 -1771014 -1730005 -1718872 -1733812 -1772389 
1532.549 -1831958 -1908391 -1996489 -2093052 -2199912 -2327168 -2493482 
1532.971 -2726071 -3056128 -3510997 -4093404 -4751782 -5361055 -5755295 
1533.394 -5846912 -5692990 -5438667 -5207681 -5075897 -5080599 -5238959 
1533.816 -5558175 -6020178 -6549285 -6951872 -6983898 -6570056 -5884900 
1534.238 -5155860 -4502885 -3952724 -3491706 -3102545 -2775048 -2504524 
1534.660 -2291263 -2135487 -2033574 -1977143 -1953380 -1948324 -1948457 
1535.082 -1944579 -1932940 -1914980 -1895969 -1882854 -1881791 -1895226 
1535.504 -1920281 -1948302 -1967736 -1967043 -1939674 -1886433 -1815046 
1535.926 -1737404 -1665901 -1611774 -1581986 -1578887 -1600282 -1640573 
1536.348 -1691910 -1745581 -1793918 -1830157 -1849397 -1849298 -1830220 
1536.771 -1795647 -1751393 -1705060 -1663784 -1632790 -1614750 -1609568 
1537.193 -1615609 -1631124 -1655706 -1690495 -1737544 -1798270 -1872148 
1537.615 -1955999 -2045091 -2134544 -2222352 -2311063 -2408704 -2526907 
1538.037 -2678808 -2875907 -3124532 -3422210 -3754069 -4094719 -4409660 
1538.459 -4667914 -4854802 -4978950 -5068158 -5158364 -5289473 -5502164 
1538.881 -5848323 -6408047 -7320890 -8794138 -10925321 -13065390 -13718270 
1539.303 -12662499 -11052097 -9589184 -8398197 -7434498 -6650816 -6018099 
1539.725 -5522861 -5163121 -4934231 -4830434 -4843333 -4966341 -5199431 
1540.147 -5558332 -6087387 -6850043 -7861655 -8890434 -9329691 -8834047 
1540.570 -7810731 -6761989 -5876916 -5164739 -4592354 -4126820 -3747838 
1540.992 -3444033 -3207436 -3033998 -2920240 -2862381 -2856425 -2897675 
1541.414 -2981198 -3101764 -3255683 -3441829 -3662415 -3925426 -4245159 
1541.836 -4644620 -5162897 -5862377 -6839014 -8210967 -9957831 -11478801 
1542.258 -11633586 -10360195 -8739138 -7391420 -6376047 -5599492 -4978894 
1542.680 -4462601 -4019562 -3633599 -3296635 -3004910 -2761323 -2574061 
1543.102 -2455191 -2421498 -2489465 -2671786 -2970462 -3368926 -3818970 
1543.524 -4229720 -4490801 -4513703 -4290022 -3895365 -3442879 -3025210 
1543.947 -2689906 -2453046 -2308895 -2242492 -2235597 -2270035 -2328832 
1544.369 -2396283 -2461043 -2516696 -2563589 -2608665 -2664594 -2746526 
1544.791 -2868417 -3042813 -3280997 -3596297 -4002719 -4511066 -5106948 
1545.213 -5698916 -6095719 -6109506 -5754343 -5222221 -4689120 -4229480 
1545.635 -3849535 -3534608 -3266665 -3030683 -2815934 -2615511 -2426289 
1546.057 -2249232 -2088293 -1949398 -1838628 -1759144 -1710125 -1686145 
1546.479 -1679222 -1680870 -1685253 -1690537 -1698076 -1710285 -1728081 
1546.901 -1749241 -1768705 -1780397 -1779370 -1764165 -1737194 -1703983 
1547.323 -1670703 -1642752 -1623120 -1612167 -1608639 -1610682 -1616736 
1547.746 -1625590 -1636131 -1646720 -1654685 -1656672 -1649113 -1629184 
1548.168 -1595798 -1550540 -1498001 -1444850 -1399290 -1368864 -1358418 
1548.590 -1369297 -1398497 -1439738 -1484564 -1525640 -1558561 -1583245 
1549.012 -1603811 -1627630 -1663644 -1720101 -1804745 -1924313 -2084873 
1549.434 -2291499 -2546078 -2843451 -3163069 -3467503 -3708602 -3847621 
1549.856 -3880590 -3843806 -3796606 -3791266 -3862875 -4018039 -4231043 
1550.278 -4434269 -4532910 -4451976 -4183422 -3794435 -3374019 -2987478 
1550.700 -2659720 -2390353 -2168114 -1980863 -1821639 -1689944 -1589343 
1551.123 -1524357 -1496103 -1500491 -1528023 -1566673 -1605108 -1634481 
1551.545 -1650657 -1653476 -1645546 -1630550 -1612483 -1595137 -1581372 
1551.967 -1572956 -1569514 -1568351 -1564475 -1552484 -1528839 -1493804 
1552.389 -1452285 -1412724 -1384875 -1375872 -1388601 -1421056 -1468118 
1552.811 -1523432 -1581801 -1640547 -1698532 -1755052 -1808426 -1855467 
1553.233 -1892673 -1917973 -1932582 -1941499 -1952876 -1976488 -2020821 
1553.655 -2092638 -2196485 -2335188 -2510814 -2725364 -2982024 -3284923 
1554.077 -3641643 -4066170 -4579412 -5212058 -5990674 -6878916 -7663493 
1554.500 -7930553 -7473149 -6601623 -5721622 -4996995 -4428353 -3977115 
1554.922 -3607316 -3293877 -3021705 -2780692 -2564389 -2369632 -2195695 
1555.344 -2044399 -1919063 -1822380 -1755173 -1715388 -1698768 -1700061 
1555.766 -1715212 -1742532 -1782223 -1834858 -1899071 -1969715 -2038339 
1556.188 -2094795 -2130178 -2140509 -2127626 -2098760 -2063279 -2030880 
1556.610 -2008962 -2002096 -2013638 -2047168 -2107842 -2203062 -2340767 
1557.032 -2527804 -2768060 -3063141 -3413016 -3819234 -4292178 -4853821 
1557.454 -5544091 -6420450 -7520223 -8745293 -9714109 -9962895 -9512107 
1557.876 -8793023 -8140447 -7659312 -7356713 -7219964 -7241982 -7433691 
1558.299 -7824572 -8474096 -9472854 -10944109 -12969619 -15153643 -15990302 
1558.721 -14287724 -11544178 -9368278 -7962471 -7065432 -6455432 -6009813 
1559.143 -5671251 -5416499 -5242348 -5152673 -5152917 -5251389 -5459865 
1559.565 -5798289 -6293598 -6977440 -7863164 -8899275 -9944443 -10811844 
1559.987 -11405808 -11783841 -12122523 -12617189 -13402244 -14392768 
1560.349 -14988048 -14302380 -12345400 -10119745 -8270540 -6879575 -5841980 
1560.771 -5053900 -4445920 -3972634 -3607410 -3331403 -3127751 -2980663 
1561.193 -2873457 -2789903 -2714652 -2636152 -2548003 -2449539 -2345448 
1561.615 -2244115 -2155242 -2086102 -2040094 -2015355 -2005798 -2002555 
1562.037 -1996891 -1982835 -1957767 -1922807 -1881420 -1838256 -1797320 
1562.459 -1761550 -1732778 -1711967 -1699743 -1696432 -1701830 -1714645 
1562.882 -1732221 -1750845 -1766029 -1773868 -1772293 -1761655 -1745072 
1563.304 -1727776 -1716228 -1715840 -1729753 -1757480 -1795037 -1835487 
1563.726 -1871113 -1896210 -1908331 -1909634 -1905667 -1903933 -1910582 
1564.148 -1928259 -1955451 -1987612 -2019850 -2050544 -2083995 -2131878 
1564.570 -2212355 -2346211 -2554670 -2852658 -3241248 -3689256 -4120420 
1564.992 -4420669 -4482383 -4282379 -3897141 -3447271 -3025729 -2682197 
1565.414 -2430406 -2261893 -2159533 -2103010 -2074330 -2059595 -2051827 
1565.836 -2050262 -2057708 -2076977 -2107880 -2145854 -2183338 -2211962 
1566.259 -2225575 -2222456 -2205034 -2178470 -2147857 -2116727 -2085805 
1566.681 -2053439 -2016570 -1972299 -1918835 -1855877 -1784802 -1708679 
1567.103 -1632452 -1562164 -1504876 -1467237 -1453378 -1463691 -1493468 
1567.525 -1533905 -1573116 -1600193 -1608540 -1597440 -1572365 -1543042 
1567.947 -1521078 -1515853 -1533272 -1574461 -1636424 -1712935 -1796213 
1568.369 -1879199 -1956433 -2026735 -2094362 -2170156 -2269696 -2410635 
1568.791 -2608556 -2870390 -3186008 -3519288 -3813089 -4003740 -4057519 
1569.213 -3991779 -3866673 -3749747 -3687786 -3705539 -3808281 -3993677 
1569.635 -4258276 -4606651 -5048632 -5577141 -6117851 -6483181 -6488720 
1570.058 -6157377 -5662067 -5142340 -4656411 -4219207 -3830081 -3484985 
1570.480 -3181845 -2917758 -2690186 -2497565 -2338745 -2213936 -2122300 
1570.902 -2061592 -2025568 -2003818 -1984323 -1955613 -1911305 -1851988 
1571.324 -1784830 -1720225 -1667795 -1633323 -1617016 -1614945 -1621843 
1571.746 -1634392 -1652242 -1677258 -1710769 -1750721 -1790128 -1818770 
1572.168 -1825353 -1802838 -1751479 -1680446 -1605379 -1544964 -1516262 
1572.590 -1528659 -1582510 -1668647 -1772207 -1875039 -1960845 -2019243 
1573.012 -2046539 -2046460 -2027655 -2001324 -1976681 -1958761 -1947446 
1573.435 -1938489 -1925660 -1903847 -1871637 -1832212 -1792745 -1761642 
1573.857 -1746775 -1752561 -1779093 -1822538 -1876892 -1935910 -1994157 
1574.279 -2048116 -2095723 -2135648 -2166881 -2188399 -2199582 -2200646 
1574.701 -2193165 -2180049 -2165009 -2152205 -2145221 -2146561 -2157528 
1575.123 -2178278 -2208180 -2246519 -2293482 -2351214 -2425001 -2523174 
1575.545 -2657538 -2841726 -3089225 -3411524 -3817010 -4312316 -4900266 
1575.967 -5587176 -6386173 -7318012 -8408570 -9632718 -10722690 -10953745 
1576.389 -9926533 -8476743 -7351634 -6591096 -6034866 -5568704 -5133315 
1576.812 -4706058 -4282550 -3868910 -3474759 -3112881 -2797512 -2539403 
1577.234 -2346889 -2222846 -2163533 -2158950 -2193449 -2248363 -2302149 
1577.656 -2335499 -2334811 -2294538 -2219081 -2120940 -2017430 -1924725 
1578.078 -1855683 -1817048 -1808629 -1824467 -1854617 -1888647 -1917047 
1578.500 -1933951 -1937297 -1927726 -1906882 -1875778 -1834064 -1780490 
1578.922 -1714432 -1637595 -1554875 -1474675 -1407165 -1361209 -1342837 
1579.344 -1352968 -1387754 -1439481 -1499486 -1560182 -1616132 -1664734 
1579.766 -1705105 -1736840 -1759119 -1770410 -1769271 -1755441 -1730883 
1580.188 -1699963 -1668401 -1642302 -1626015 -1621023 -1625778 -1636568 
1580.611 -1648762 -1658337 -1663248 -1663545 -1660987 -1657833 -1655891 
1581.033 -1655422 -1654982 -1651480 -1641252 -1621195 -1589573 -1546940 
1581.455 -1496090 -1441924 -1389959 -1345773 -1313989 -1297472 -1297546 
1581.877 -1314076 -1345738 -1389843 -1442209 -1497300 -1547691 -1585634 
1582.299 -1604344 -1599519 -1571173 -1524110 -1467468 -1411614 -1366433 
1582.721 -1338253 -1328433 -1333941 -1349050 -1368231 -1387491 -1405831 
1583.143 -1424593 -1446151 -1472189 -1502687 -1535664 -1567942 -1595722 
1583.565 -1615465 -1624332 -1619905 -1600292 -1564695 -1514154 -1452535 
1583.988 -1386480 -1325258 -1277864 -1250846 -1246322 -1261333 -1288798 
1584.410 -1320077 -1348610 -1371349 -1389728 -1407942 -1430701 -1460394 
1584.832 -1495827 -1532373 -1564177 -1586478 -1597325 -1598242 -1593218 
1585.254 -1586864 -1582155 -1579705 -1577692 -1573330 -1564142 -1549475 
1585.676 -1530729 -1510966 -1493548 -1480651 -1472468 -1466859 -1460052 
1586.098 -1447843 -1427604 -1399559 -1367682 -1338780 -1321549 -1323468 
1586.520 -1347855 -1392176 -1447600 -1501557 -1540234 -1554306 -1541731 
1586.942 -1509142 -1469175 -1436898 -1424590 -1436946 -1470181 -1513043 
1587.365 -1551861 -1573854 -1572186 -1547343 -1506368 -1459638 -1417519 
1587.787 -1388130 -1375275 -1379034 -1396739 -1424583 -1458280 -1493574 
1588.209 -1526810 -1554546 -1574234 -1584717 -1586439 -1581478 -1572886 
1588.631 -1564190 -1558203 -1556624 -1559693 -1566319 -1574254 -1580398 
1589.053 -1581765 -1575906 -1562269 -1543122 -1524360 -1514688 -1523531 
1589.475 -1559172 -1625130 -1718413 -1828610 -1940495 -2036531 -2101362 
1589.897 -2126815 -2112858 -2067377 -2002176 -1930557 -1863236 -1806729 
1590.319 -1763961 -1734647 -1716572 -1706452 -1700797 -1696133 -1689332 
1590.741 -1678326 -1662129 -1641175 -1616930 -1591700 -1568147 -1548967 
1591.164 -1537346 -1536819 -1550965 -1582769 -1632965 -1698554 -1771673 
1591.586 -1841175 -1894012 -1919206 -1912126 -1876229 -1822878 -1766726 
1592.008 -1722104 -1697089 -1691652 -1698468 -1706777 -1706768 -1692991 
1592.430 -1666437 -1633489 -1603109 -1582401 -1574538 -1577328 -1584896 
1592.852 -1589793 -1586487 -1573330 -1553079 -1531612 -1515741 -1511366 
1593.274 -1521366 -1545434 -1580315 -1621326 -1663041 -1700409 -1729597 
1593.696 -1747660 -1752860 -1744725 -1724448 -1695527 -1663991 -1639111 
1594.118 -1631373 -1651071 -1705946 -1798184 -1922554 -2064932 -2204923 
1594.541 -2316724 -2376838 -2372318 -2305546 -2194479 -2064957 -1943283 
1594.963 -1846583 -1781129 -1743853 -1726126 -1717815 -1710957 -1702336 
1595.385 -1693140 -1687458 -1689313 -1700670 -1720025 -1743159 -1764436 
1595.807 -1779545 -1787053 -1789060 -1790153 -1795851 -1810482 -1835369 
1596.229 -1868155 -1902918 -1932211 -1948346 -1946135 -1924332 -1885640 
1596.651 -1835681 -1781046 -1728225 -1681753 -1644028 -1615241 -1593716 
1597.073 -1576481 -1559932 -1540816 -1516598 -1486123 -1449936 -1410447 
1597.495 -1371493 -1337607 -1313471 -1302344 -1305350 -1321016 -1345738 
1597.917 -1374578 -1402642 -1426786 -1446020 -1461708 -1476427 -1492879 
1598.340 -1512291 -1533736 -1554210 -1569840 -1577590 -1576564 -1568914 
1598.762 -1559367 -1553987 -1557567 -1572250 -1596313 -1624897 -1651145 
1599.184 -1668844 -1674689 -1668899 -1654979 -1637710 -1621307 -1607314 
1599.606 -1594345 -1579021 -1558392 -1531887 -1502757 -1477202 -1462999 
1600.028 -1466267 -1488861 -1527364 -1573742 -1618124 -1651011 -1666727 
1600.450 -1664352 -1647358 -1621581 -1593563 -1568856 -1550869 -1541507 
1600.872 -1541526 -1551090 -1569895 -1596836 -1629749 -1665053 -1698564 
1601.294 -1726445 -1746231 -1757782 -1763051 -1765037 -1765982 -1766211 
1601.717 -1763526 -1754072 -1733303 -1697911 -1647183 -1584018 -1514698 
1602.139 -1447808 -1393460 -1360387 -1354645 -1378093 -1427655 -1495414 
1602.561 -1569984 -1640084 -1696094 -1733150 -1752239 -1760038 -1766949 
1602.983 -1783727 -1819266 -1877098 -1954691 -2043226 -2130159 -2200649 
1603.405 -2240560 -2240799 -2199238 -2122555 -2023939 -1920797 -1829299 
1603.827 -1760220 -1717821 -1698882 -1694832 -1694205 -1687535 -1670050 
1604.249 -1643578 -1615210 -1594738 -1590327 -1604603 -1633648 -1667843 
1604.671 -1696037 -1708345 -1700326 -1673770 -1635856 -1595977 -1562857 
1605.094 -1542521 -1536790 -1544065 -1560281 -1580593 -1599494 -1611640 
1605.516 -1612502 -1598746 -1569745 -1528458 -1482165 -1440927 -1415255 
1605.938 -1413526 -1438228 -1485028 -1542860 -1598002 -1636830 -1650593 
1606.360 -1638208 -1606490 -1568156 -1537378 -1527281 -1545453 -1592978 
1606.782 -1664594 -1751329 -1842877 -1930167 -2007820 -2073610 -2127603 
1607.204 -2170260 -2200804 -2216505 -2213602 -2188808 -2141493 -2074453 
1607.626 -1993432 -1905014 -1815004 -1727457 -1644168 -1565743 -1492882 
1608.048 -1427334 -1372642 -1333504 -1314034 -1316419 -1339172 -1377111 
1608.470 -1421713 -1463784 -1495645 -1512611 -1514288 -1503932 -1487564 
1608.893 -1472042 -1464851 -1473419 -1504447 -1564612 -1659492 -1792513 
1609.315 -1962869 -2163265 -2377701 -2578813 -2733927 -2812443 -2797637 
1609.737 -2694113 -2524840 -2321018 -2109998 -1912849 -1742417 -1604874 
1610.159 -1502985 -1436471 -1402620 -1396020 -1409270 -1433516 -1459469 
1610.581 -1479921 -1490535 -1490913 -1484096 -1475411 -1470232 -1471699 
1611.003 -1480084 -1492703 -1505615 -1515030 -1519257 -1518867 -1515936 
1611.425 -1512310 -1508243 -1501711 -1489581 -1469220 -1440773 -1408015 
1611.847 -1378286 -1359979 -1359417 -1378822 -1414969 -1460430 -1505580 
1612.270 -1542713 -1567907 -1581932 -1588771 -1593381 -1599136 -1606267 
1612.692 -1612129 -1612777 -1605264 -1588979 -1566312 -1541581 -1519913 
1613.114 -1505007 -1498411 -1499224 -1504918 -1512176 -1518032 -1520758 
1613.536 -1519916 -1516493 -1512288 -1509526 -1509888 -1513747 -1519702 
1613.958 -1524821 -1525512 -1518992 -1505145 -1487414 -1472660 -1468608 
1614.380 -1481810 -1514346 -1562499 -1616608 -1663759 -1692184 -1693838 
1614.802 -1667815 -1620333 -1563806 -1512598 -1480270 -1476699 -1505462 
1615.224 -1563781 -1642870 -1730619 -1812627 -1875940 -1912459 -1920509 
1615.646 -1906241 -1881982 -1864515 -1869821 -1910268 -1993043 -2119740 
1616.069 -2288610 -2497105 -2744990 -3034255 -3368108 -3749485 -4187500 
1616.491 -4682838 -5245349 -5894998 -6676347 -7665231 -8924576 -10266631 
1616.913 -10933456 -10337052 -9067927 -7842731 -6853369 -6062623 -5409675 
1617.335 -4853543 -4370107 -3947375 -3577349 -3253986 -2973912 -2734142 
1617.757 -2532987 -2369528 -2242187 -2148368 -2083995 -2043976 -2022371 
1618.179 -2012809 -2008880 -2003153 -1988068 -1957089 -1906152 -1836144 
1618.601 -1753859 -1671972 -1604980 -1566095 -1562534 -1592668 -1646306 
1619.023 -1707870 -1762431 -1798537 -1812036 -1805327 -1785218 -1759071 
1619.446 -1732170 -1706956 -1683589 -1661829 -1642646 -1628383 -1622105 
1619.868 -1625903 -1639705 -1661102 -1686410 -1712390 -1737219 -1761085 
1620.290 -1785486 -1812011 -1841105 -1871707 -1901484 -1927929 -1948821 
1620.712 -1962606 -1968246 -1964551 -1950209 -1924303 -1887325 -1842306 
1621.134 -1794951 -1753372 -1725330 -1716085 -1726400 -1751717 -1782703 
1621.556 -1807126 -1813880 -1794996 -1748808 -1680446 -1601390 -1526359 
1621.978 -1469467 -1442783 -1453147 -1502261 -1587637 -1705028 -1850473 
1622.400 -2021482 -2216996 -2433974 -2663204 -2887240 -3078435 -3206873 
1622.823 -3252609 -3215157 -3116295 -2991610 -2881538 -2817782 -2821048 
1623.245 -2901316 -3061684 -3303981 -3634327 -4069996 -4632039 -5321981 
1623.667 -6064592 -6633898 -6749093 -6354779 -5675153 -4956523 -4321571 
1624.089 -3801175 -3385998 -3061122 -2813773 -2632513 -2507277 -2426577 
1624.511 -2377356 -2344638 -2313935 -2273963 -2217576 -2144076 -2058637 
1624.933 -1971286 -1892994 -1833209 -1797018 -1783940 -1788757 -1803518 
1625.355 -1820934 -1835576 -1845284 -1850394 -1852264 -1851613 -1847923 
1625.777 -1839501 -1824731 -1803023 -1775429 -1744298 -1712546 -1682853 
1626.199 -1657122 -1637126 -1624942 -1623072 -1634421 -1660812 -1701680 
1626.622 -1753073 -1808149 -1858525 -1896143 -1916334 -1918680 -1907415 
1627.044 -1889352 -1872430 -1863312 -1866010 -1882696 -1914663 -1964145 
1627.466 -2036158 -2139335 -2286259 -2493351 -2778899 -3157989 -3628156 
1627.888 -4150860 -4623321 -4894816 -4856941 -4526781 -4029383 -3496793 
1628.310 -3015514 -2619535 -2312634 -2087040 -1929410 -1825897 -1763395 
1628.732 -1731052 -1719751 -1721687 -1729922 -1736601 -1733539 -1713922 
1629.154 -1673840 -1614606 -1542828 -1469505 -1406193 -1361970 -1341311 
1629.576 -1342988 -1361334 -1388466 -1417477 -1443488 -1464521 -1480795 
1629.999 -1493554 -1503980 -1512726 -1519980 -1525566 -1529133 -1530019 
1630.421 -1527249 -1519705 -1506793 -1489117 -1469076 -1450558 -1437436 
1630.843 -1432365 -1435157 -1442606 -1449308 -1450202 -1442821 -1428796 
1631.265 -1413494 -1404288 -1408003 -1427818 -1462538 -1506758 -1553561 
1631.687 -1596313 -1631041 -1657071 -1676018 -1690154 -1700670 -1706883 
1632.109 -1706417 -1696263 -1674013 -1639066 -1593013 -1539473 -1483283 
1632.531 -1430236 -1386303 -1356617 -1345247 -1353942 -1381630 -1423833 
1632.953 -1473471 -1522105 -1561304 -1585340 -1592148 -1583832 -1565526 
1633.375 -1544065 -1525905 -1515133 -1513354 -1519683 -1531983 -1548091 
1633.798 -1567012 -1589330 -1616857 -1651595 -1694648 -1745346 -1801236 
1634.220 -1858648 -1914187 -1966568 -2017879 -2074321 -2145126 -2242369 
1634.642 -2378886 -2567849 -2823551 -3163310 -3609264 -4185306 -4910295 
1635.064 -5768689 -6669292 -7441824 -7923376 -8090114 -8049988 -7952785 
1635.486 -7905894 -7970106 -8184301 -8569150 -9093509 -9548195 -9520070 
1635.908 -8811288 -7783934 -6835634 -6069035 -5444493 -4910715 -4436512 
1636.330 -4009194 -3625583 -3288843 -3000708 -2759588 -2561215 -2398590 
1636.752 -2264897 -2155841 -2070900 -2013135 -1987577 -1998711 -2049482 
1637.175 -2140751 -2272840 -2446704 -2665538 -2934020 -3252274 -3607462 
1637.597 -3959806 -4232287 -4337394 -4229955 -3947545 -3579329 -3210966 
1638.019 -2892219 -2638612 -2449103 -2313866 -2220296 -2154942 -2104938 
1638.441 -2059013 -2007994 -1946873 -1874852 -1795377 -1714505 -1639599 
1638.863 -1576998 -1530102 -1499201 -1481602 -1473105 -1469480 -1467619 
1639.285 -1465841 -1463704 -1461311 -1458799 -1456357 -1454589 -1455159 
1639.707 -1460888 -1474816 -1499592 -1536141 -1583535 -1639382 -1701106 
1640.129 -1766895 -1835318 -1904443 -1969725 -2022279 -2050272 -2041453 
1640.552 -1988409 -1893390 -1769624 -1638390 -1521196 -1435750 -1390036 
1640.974 -1381871 -1401089 -1434432 -1470393 -1502031 -1528419 -1552215 
1641.396 -1576225 -1600413 -1620927 -1631724 -1628057 -1608990 -1578970 
1641.818 -1546268 -1521062 -1511661 -1522572 -1554402 -1604724 -1669626 
1642.240 -1744337 -1823838 -1901319 -1967470 -2011806 -2023772 -1996904 
1642.662 -1931771 -1836767 -1725776 -1613773 -1514598 -1437587 -1387860 
1643.084 -1367143 -1374337 -1405975 -1456031 -1516752 -1578436 -1631383 
1643.506 -1668669 -1687605 -1691337 -1687525 -1686454 -1696451 -1721111 
1643.928 -1757897 -1799348 -1835576 -1857633 -1860985 -1846088 -1817826 
1644.351 -1782827 -1747787 -1717474 -1694093 -1677982 -1668261 -1663752 
1644.773 -1663660 -1668159 -1678769 -1698803 -1732813 -1786236 -1864118 
1645.195 -1969484 -2102672 -2261104 -2440675 -2636598 -2845779 -3068446 
1645.617 -3308492 -3574633 -3881093 -4249155 -4712673 -5323470 -6151861 
1646.039 -7258267 -8547324 -9524769 -9532116 -8617728 -7410510 -6314401 
1646.461 -5420383 -4700849 -4115649 -3638865 -3253670 -2950988 -2725551 
1646.883 -2571800 -2485469 -2463535 -2505209 -2613193 -2794045 -3058531 
1647.305 -3418342 -3880772 -4434981 -5018292 -5497513 -5696129 -5512972 
1647.728 -5020813 -4402188 -3818081 -3348557 -3024400 -2851799 -2829329 
1648.150 -2957489 -3234383 -3650805 -4168735 -4707239 -5133730 -5301155 
1648.572 -5148170 -4747142 -4244188 -3755691 -3339264 -3005151 -2741257 
1648.994 -2532133 -2364856 -2230848 -2124650 -2041816 -1977403 -1925597 
1649.416 -1881227 -1840972 -1804345 -1773273 -1750826 -1739103 -1737773 
1649.838 -1743671 -1751762 -1757108 -1755845 -1746580 -1730199 -1709294 
1650.260 -1686935 -1665981 -1648759 -1636724 -1630744 -1631044 -1637193 
1650.682 -1648165 -1662598 -1679241 -1697149 -1715856 -1735115 -1754441 
1651.104 -1772824 -1788904 -1801611 -1811204 -1820130 -1833473 -1857794 
1651.527 -1900549 -1968221 -2065099 -2193357 -2353462 -2545750 -2771072 
1651.949 -3031971 -3333047 -3680212 -4083202 -4557290 -5128003 -5844259 
1652.371 -6794856 -8134815 -10091581 -12791415 -15622441 -16976618 -16348569 
1652.793 -14948942 -13703980 -12852979 -12353299 -12138250 -12176142 
1653.155 -12481047 -13125588 -14252795 -16077599 -18597082 -20596456 
1653.517 -19614444 -16014086 -12518635 -10054015 -8391331 -7220421 -6350912 
1653.939 -5684922 -5171520 -4787734 -4524043 -4373427 -4333385 -4403565 
1654.361 -4588845 -4899641 -5350124 -5945787 -6627074 -7200470 -7357740 
1654.783 -6934976 -6126714 -5250100 -4486426 -3874108 -3397297 -3029870 
1655.205 -2748237 -2535218 -2375552 -2254363 -2156765 -2069974 -1985526 
1655.627 -1900349 -1816752 -1740342 -1677602 -1632851 -1607566 -1600573 
1656.049 -1609434 -1631529 -1664530 -1705761 -1750642 -1792207 -1822017 
1656.471 -1831567 -1816206 -1777328 -1723652 -1668669 -1627792 -1613894 
1656.894 -1632729 -1682072 -1751924 -1828390 -1895874 -1942054 -1960715 
1657.316 -1951840 -1920648 -1874582 -1821039 -1764757 -1707653 -1649397 
1657.738 -1588861 -1525726 -1461849 -1401426 -1351019 -1317901 -1307797 
1658.160 -1323397 -1362538 -1418340 -1479719 -1534980 -1574359 -1592384 
1658.582 -1589589 -1571998 -1549287 -1530898 -1523944 -1530438 -1547164 
1659.004 -1566434 -1578925 -1576918 -1556125 -1517667 -1467487 -1415152 
1659.426 -1370260 -1340463 -1329346 -1335512 -1353174 -1373917 -1389814 
1659.848 -1394807 -1386772 -1367284 -1340784 -1312388 -1286064 -1263712 
1660.271 -1244909 -1227895 -1211104 -1194551 -1180427 -1172778 -1175858 
1660.693 -1193030 -1225170 -1270408 -1324477 -1382343 -1439956 -1495379 
1661.115 -1549607 -1605912 -1668443 -1739934 -1819920 -1903292 -1981313 
1661.537 -2042923 -2078926 -2085745 -2066666 -2030548 -1988023 -1949059 
1661.959 -1919282 -1900825 -1893273 -1895889 -1909872 -1939690 -1992179 
1662.381 -2075452 -2196429 -2359920 -2569058 -2827947 -3145990 -3538408 
1662.803 -4025557 -4617553 -5266642 -5812853 -6017161 -5776125 -5239085 
1663.225 -4628667 -4074316 -3609798 -3230160 -2919177 -2660789 -2443344 
1663.647 -2258128 -2098959 -1962226 -1846291 -1751199 -1677876 -1626691 
1664.070 -1596412 -1583341 -1582002 -1585622 -1587800 -1584062 -1571985 
1664.492 -1551605 -1524872 -1495177 -1466609 -1443417 -1429915 -1429422 
1664.914 -1443824 -1472548 -1512211 -1556375 -1596606 -1624920 -1634998 
1665.336 -1624562 -1596003 -1556260 -1514653 -1480241 -1459731 -1455098 
1665.758 -1463585 -1478697 -1493129 -1500734 -1498936 -1489277 -1476667 
1666.180 -1467042 -1464646 -1470687 -1482678 -1495879 -1505177 -1507776 
1666.602 -1504291 -1498615 -1495850 -1500181 -1512678 -1530604 -1547954 
1667.024 -1557823 -1555316 -1538965 -1511651 -1479191 -1448971 -1426943 
1667.447 -1416092 -1415729 -1422178 -1430098 -1434416 -1432618 -1425917 
1667.869 -1420344 -1425625 -1455040 -1522556 -1639944 -1814693 -2046116 
1668.291 -2322014 -2612715 -2874977 -3059930 -3132591 -3091928 -2973875 
1668.713 -2835605 -2728594 -2690342 -2737810 -2871674 -3081685 -3352630 
1669.135 -3670990 -4026415 -4421187 -4873601 -5417064 -6077678 -6794984 
1669.557 -7309252 -7295904 -6760126 -6003387 -5258191 -4603674 -4044918 
1669.979 -3569406 -3169129 -2838874 -2575153 -2374357 -2228506 -2126499 
1670.401 -2055575 -2004982 -1967667 -1941401 -1927353 -1927555 -1942244 
1670.823 -1968911 -2002986 -2040596 -2081526 -2131459 -2201979 -2309517 
1671.246 -2473618 -2714054 -3050026 -3495797 -4055077 -4695241 -5316863 
1671.668 -5748715 -5811285 -5467006 -4857276 -4182778 -3575634 -3086778 
1672.090 -2720650 -2460088 -2284017 -2171048 -2101425 -2056697 -2021289 
1672.512 -1984323 -1939059 -1883362 -1818357 -1747096 -1673066 -1599554 
1672.934 -1529840 -1467295 -1416130 -1381435 -1367862 -1378806 -1414498 
1673.356 -1471469 -1542431 -1617923 -1688844 -1747335 -1788926 -1812761 
1673.778 -1821172 -1818376 -1809271 -1798477 -1789343 -1784353 -1785247 
1674.200 -1793085 -1808312 -1830490 -1858404 -1890383 -1925451 -1964478 
1674.623 -2011423 -2073221 -2159211 -2279880 -2445163 -2664329 -2946663 
1675.045 -3305719 -3761541 -4346763 -5115773 -6143737 -7507547 -9194954 
1675.467 -10899976 -11932781 -11733276 -10511890 -8919611 -7420145 -6182049 
1675.889 -5212598 -4468861 -3898740 -3453710 -3095946 -2796179 -2534003 
1676.311 -2298180 -2085508 -1899220 -1747036 -1636440 -1571886 -1552350 
1676.733 -1570723 -1614443 -1667783 -1716617 -1750037 -1763713 -1759937 
1677.155 -1746183 -1731727 -1724095 -1727180 -1740049 -1758416 -1776924 
1677.577 -1792220 -1804002 -1814868 -1828012 -1845024 -1863835 -1879189 
1678.000 -1884063 -1873354 -1846574 -1809008 -1770105 -1740364 -1728288 
1678.422 -1736955 -1763764 -1801532 -1841998 -1877844 -1904938 -1922658 
1678.844 -1932703 -1937589 -1939123 -1938118 -1934360 -1927340 -1916758 
1679.266 -1903089 -1887940 -1874776 -1869165 -1879545 -1916882 -1992075 
1679.688 -2113991 -2284347 -2494117 -2717712 -2915360 -3043489 -3070039 
1680.110 -2994697 -2851529 -2697794 -2587939 -2563286 -2644215 -2828158 
1680.532 -3086259 -3361868 -3583802 -3684504 -3637713 -3468809 -3236441 
1680.954 -2997498 -2788256 -2623727 -2501431 -2410303 -2336406 -2268413 
1681.376 -2199399 -2128077 -2057506 -1993261 -1941024 -1904805 -1886522 
1681.799 -1885491 -1898972 -1922554 -1951457 -1981145 -2008019 -2030299 
1682.221 -2048145 -2063703 -2080164 -2101103 -2129216 -2165532 -2209657 
1682.643 -2260493 -2317538 -2382293 -2459227 -2556379 -2685788 -2863386 
1683.065 -3109840 -3449918 -3910476 -4503324 -5187953 -5829144 -6209485 
1683.487 -6196488 -5869707 -5427194 -5019432 -4714317 -4535139 -4485554 
1683.909 -4570057 -4794624 -5161215 -5642719 -6155694 -6569418 -6768448 
1684.331 -6746398 -6593898 -6425165 -6314836 -6296961 -6384838 -6583894 
1684.753 -6912040 -7400720 -8121846 -9171710 -10512137 -11535902 -11275686 
1685.176 -9967386 -8543225 -7370194 -6443239 -5694836 -5075900 -4556875 
1685.598 -4120185 -3754983 -3450298 -3196159 -2982847 -2801060 -2643227 
1686.020 -2503918 -2379871 -2269617 -2172788 -2089367 -2019477 -1963046 
1686.442 -1919916 -1889862 -1872551 -1867352 -1873084 -1887896 -1908962 
1686.864 -1932614 -1955055 -1972575 -1982547 -1983972 -1977425 -1964680 
1687.286 -1947906 -1929042 -1909228 -1888984 -1868815 -1849724 -1833679 
1687.708 -1823371 -1821245 -1828937 -1846656 -1873998 -1911534 -1962897 
1688.130 -2035914 -2142767 -2296449 -2506132 -2769531 -3066402 -3350912 
1688.552 -3555092 -3615944 -3504613 -3249101 -2916305 -2581876 -2299211 
1688.975 -2091069 -1957776 -1883175 -1844183 -1816768 -1784360 -1740323 
1689.397 -1688609 -1639303 -1603757 -1589672 -1599027 -1629720 -1678763 
1689.819 -1745912 -1835585 -1956465 -2118731 -2329636 -2587905 -2876577 
1690.241 -3155694 -3369184 -3459545 -3398369 -3203570 -2928913 -2635136 
1690.663 -2365892 -2146608 -1985042 -1878174 -1817423 -1791384 -1787950 
1691.085 -1795129 -1803366 -1805467 -1797097 -1777004 -1746580 -1709460 
1691.507 -1670436 -1634864 -1607030 -1589100 -1580909 -1580459 -1585206 
1691.929 -1593502 -1605686 -1623962 -1651135 -1688290 -1732931 -1777904 
1692.352 -1813244 -1827895 -1814242 -1771205 -1705442 -1629749 -1559021 
1692.774 -1507017 -1481317 -1482255 -1503321 -1534436 -1564896 -1586788 
1693.196 -1597178 -1597542 -1592352 -1586459 -1583555 -1584692 -1588612 
1693.618 -1592633 -1594256 -1592288 -1587436 -1581925 -1578692 -1580200 
1694.040 -1587388 -1599359 -1613834 -1628418 -1641734 -1654535 -1669543 
1694.462 -1690712 -1721165 -1761527 -1808938 -1857925 -1902001 -1936474 
1694.884 -1961121 -1981268 -2007481 -2052446 -2129878 -2252019 -2429879 
1695.306 -2675247 -3003800 -3438385 -4007759 -4746079 -5681119 -6809358 
1695.729 -8075752 -9358385 -10510495 -11421695 -12083401 -12507454 -12540427 
1696.151 -11886346 -10599092 -9172396 -7936880 -6952530 -6170625 -5534230 
1696.573 -5000271 -4540356 -4136256 -3774917 -3449187 -3155617 -2892703 
1696.995 -2662070 -2466828 -2310828 -2199503 -2138395 -2133061 -2188758 
1697.417 -2308767 -2491802 -2726566 -2988786 -3234912 -3408608 -3462834 
1697.839 -3380162 -3184684 -2925633 -2656606 -2415390 -2220548 -2077145 
1698.261 -1980714 -1923219 -1896410 -1894259 -1912792 -1949287 -2001255 
1698.683 -2065475 -2138380 -2217286 -2300726 -2388559 -2480732 -2575597 
1699.105 -2669520 -2758276 -2840382 -2920865 -3013851 -3142153 -3331768 
1699.528 -3608468 -3991335 -4492046 -5110103 -5837603 -6669292 -7606296 
1699.950 -8671883 -9906507 -11317825 -12719677 -13641630 -13730049 -13187224 
1700.372 -12476125 -11884063 -11504059 -11373757 -11527462 -12020925 
1700.734 -12896024 -14054897 -15062393 -15262161 -14514104 -13264678 
1701.095 -11917040 -10627572 -9415127 -8272136 -7203193 -6223157 -5350935 
1701.518 -4598274 -3972383 -3469601 -3077111 -2778302 -2553261 -2382807 
1701.940 -2250742 -2145880 -2061823 -1995920 -1947294 -1914742 -1895563 
1702.362 -1886100 -1882610 -1883159 -1888330 -1900999 -1924560 -1960620 
1702.784 -2006947 -2056985 -2100759 -2127446 -2129948 -2107255 -2065731 
1703.206 -2016130 -1970706 -1938514 -1922950 -1922008 -1929727 -1939164 
1703.628 -1944576 -1943838 -1938400 -1932376 -1930329 -1936410 -1953931 
1704.050 -1985852 -2036512 -2112886 -2225182 -2388045 -2620115 -2943248 
1704.472 -3375074 -3913531 -4505140 -5011916 -5258757 -5156955 -4780225 
1704.895 -4278407 -3772578 -3321938 -2941499 -2630555 -2382073 -2187734 
1705.317 -2040024 -1931039 -1852918 -1798060 -1760665 -1737273 -1727244 
1705.739 -1732335 -1756246 -1803871 -1880519 -1992381 -2146640 -2352303 
1706.161 -2621004 -2967612 -3409738 -3959043 -4606964 -5290857 -5857713 
1706.583 -6107143 -5928125 -5408016 -4741172 -4088061 -3524628 -3067723 
1707.005 -2715586 -2460924 -2296556 -2215923 -2207751 -2253419 -2324953 
1707.427 -2391661 -2426132 -2413036 -2352454 -2258414 -2151877 -2051593 
1707.849 -1970877 -1914238 -1878603 -1855969 -1837259 -1815719 -1788691 
1708.271 -1758190 -1729419 -1708549 -1699797 -1704407 -1720057 -1742217 
1708.694 -1765419 -1785190 -1799039 -1806052 -1806176 -1799030 -1783352 
1709.116 -1757471 -1720658 -1674829 -1625156 -1580015 -1548753 -1537829 
1709.538 -1548583 -1575576 -1608875 -1636989 -1652896 -1658037 -1664148 
1709.960 -1690103 -1756589 -1880405 -2067535 -2309008 -2576593 -2827329 
1710.382 -3007303 -3071542 -3005442 -2831983 -2599791 -2357993 -2143968 
1710.804 -1975342 -1854893 -1776702 -1730667 -1705755 -1691872 -1681807 
1711.226 -1670856 -1656771 -1639217 -1618976 -1597549 -1576589 -1557919 
1711.648 -1543090 -1533141 -1528375 -1528128 -1530723 -1533672 -1534593 
1712.071 -1532018 -1526331 -1519951 -1517171 -1522760 -1539972 -1569489 
1712.493 -1608594 -1652347 -1694989 -1732743 -1765107 -1795012 -1827078 
1712.915 -1865394 -1910874 -1960180 -2006032 -2039758 -2055022 -2049741 
1713.337 -2026934 -1992878 -1954995 -1919301 -1890050 -1871523 -1869336 
1713.759 -1892460 -1953731 -2067361 -2246878 -2499779 -2822325 -3187015 
1714.181 -3534938 -3784916 -3860971 -3744008 -3483924 -3167684 -2868628 
1714.603 -2629594 -2468174 -2384247 -2370950 -2419141 -2521958 -2676593 
1715.025 -2886968 -3165479 -3529073 -3990295 -4533605 -5064529 -5399072 
1715.448 -5376284 -5026147 -4528590 -4040253 -3627056 -3292265 -3019730 
1715.870 -2791239 -2593377 -2419715 -2269274 -2143782 -2045281 -1973287 
1716.292 -1924392 -1892971 -1873760 -1863816 -1863950 -1878406 -1913620 
1716.714 -1975931 -2069061 -2193332 -2345639 -2521714 -2717366 -2931106 
1717.136 -3165460 -3426310 -3724647 -4077999 -4513443 -5074205 -5815464 
1717.558 -6751223 -7688027 -8118663 -7762311 -6980572 -6183765 -5504729 
1717.980 -4938052 -4457840 -4048697 -3709348 -3450374 -3282831 -3217344 
1718.402 -3260943 -3417601 -3691989 -4093088 -4639835 -5347247 -6196152 
1718.824 -7067622 -7667758 -7668114 -7045487 -6124564 -5228038 -4496719 
1719.247 -3943630 -3532806 -3225027 -2987821 -2797065 -2636168 -2494383 
1719.669 -2365302 -2245280 -2132238 -2024967 -1923089 -1827561 -1741224 
1720.091 -1668886 -1615819 -1586385 -1581855 -1599369 -1631565 -1668172 
1720.513 -1699160 -1716238 -1715671 -1698746 -1671188 -1640751 -1614712 
1720.935 -1598044 -1591726 -1593119 -1597050 -1598242 -1592863 -1580053 
1721.357 -1562074 -1543512 -1529424 -1523432 -1526756 -1537721 -1552618 
1721.779 -1566852 -1576775 -1580318 -1576890 -1566699 -1549811 -1525796 
1722.201 -1494207 -1455499 -1412121 -1368540 -1331043 -1305601 -1295928 
1722.624 -1302128 -1320337 -1343971 -1365464 -1379480 -1384076 -1381746 
1723.046 -1378405 -1382850 -1404824 -1453118 -1535491 -1657087 -1819440 
1723.468 -2017614 -2237684 -2454236 -2629581 -2725984 -2719433 -2613346 
1723.890 -2436452 -2230379 -2032806 -1866451 -1741243 -1655594 -1601604 
1724.312 -1568779 -1548046 -1533742 -1523720 -1518371 -1518425 -1523106 
1724.734 -1529673 -1533982 -1532146 -1522431 -1506096 -1487420 -1472145 
1725.156 -1466619 -1475821 -1502402 -1546368 -1604967 -1673024 -1743140 
1725.578 -1807244 -1856921 -1884840 -1886550 -1861023 -1811471 -1744388 
1726.000 -1669010 -1595125 -1531004 -1482931 -1453692 -1442837 -1446952 
1726.423 -1461102 -1479754 -1498055 -1513088 -1523896 -1531394 -1537366 
1726.845 -1543525 -1550470 -1557385 -1562368 -1563471 -1559801 -1552260 
1727.267 -1543490 -1537145 -1536899 -1544951 -1561639 -1585471 -1613913 
1727.689 -1644107 -1673697 -1701212 -1725738 -1746679 -1763500 -1775808 
1728.111 -1783609 -1787543 -1788805 -1788487 -1786824 -1782576 -1773203 
1728.533 -1755412 -1726852 -1687608 -1641156 -1594099 -1554351 -1529773 
1728.955 -1525291 -1541776 -1575727 -1620474 -1667760 -1709797 -1741933 
1729.377 -1763322 -1777665 -1792099 -1817022 -1864267 -1945393 -2071576 
1729.800 -2252151 -2494167 -2800870 -3170318 -3590416 -4030833 -4441888 
1730.222 -4757104 -4910937 -4875082 -4668045 -4342983 -3958568 -3563029 
1730.644 -3186369 -2844178 -2545272 -2293359 -2090033 -1935767 -1828949 
1731.066 -1766163 -1741717 -1748185 -1775996 -1814172 -1851962 -1878650 
1731.488 -1885891 -1869460 -1830439 -1776116 -1719228 -1676850 -1665162 
1731.910 -1696582 -1775741 -1897244 -2044658 -2192579 -2313866 -2384269 
1732.332 -2392084 -2341803 -2253224 -2153211 -2066423 -2010351 -1991074 
1732.754 -2005922 -2047010 -2106299 -2178139 -2261053 -2357523 -2472591 
1733.177 -2613096 -2788856 -3015487 -3320651 -3751683 -4375782 -5248641 
1733.599 -6298614 -7180163 -7480504 -7182789 -6598396 -5982788 -5449567 
1734.021 -5029732 -4722756 -4526826 -4439013 -4457197 -4581207 -4815101 
1734.443 -5173482 -5687622 -6426205 -7511433 -9102502 -11200666 -13006783 
1734.865 -12963942 -11121352 -8990008 -7309711 -6095543 -5211014 -4542804 
1735.287 -4018553 -3595565 -3246051 -2952075 -2701826 -2486373 -2299620 
1735.709 -2137440 -1997182 -1877676 -1778804 -1700807 -1643938 -1607432 
1736.131 -1589126 -1584976 -1589918 -1598660 -1606659 -1611375 -1612279 
1736.553 -1610660 -1608652 -1608652 -1612627 -1621741 -1636546 -1656972 
1736.976 -1682365 -1711221 -1741259 -1769786 -1794334 -1814029 -1830370 
1737.398 -1847711 -1871865 -1908753 -1961628 -2028907 -2102593 -2169113 
1737.820 -2213228 -2221335 -2187517 -2115392 -2017421 -1909748 -1807835 
1738.242 -1723200 -1660927 -1620901 -1599011 -1589448 -1585960 -1583369 
1738.664 -1578462 -1569770 -1557637 -1543950 -1531941 -1525636 -1529309 
1739.086 -1547154 -1582347 -1637337 -1714037 -1814369 -1940511 -2094994 
1739.508 -2280723 -2500877 -2760063 -3066599 -3433610 -3881714 -4436521 
1739.930 -5109311 -5853587 -6488113 -6713515 -6382781 -5688081 -4928697 
1740.353 -4264749 -3731778 -3312323 -2979438 -2712638 -2496808 -2320870 
1740.775 -2176548 -2057285 -1958508 -1878003 -1815605 -1772265 -1748220 
1741.197 -1741656 -1747882 -1760010 -1771027 -1774784 -1767929 -1750110 
1741.619 -1723378 -1691133 -1657186 -1625271 -1598437 -1579165 -1569000 
1742.041 -1568083 -1574909 -1586430 -1599174 -1610156 -1618303 -1624872 
1742.463 -1633125 -1646899 -1669501 -1703512 -1751129 -1815894 -1904129 
1742.885 -2024686 -2187857 -2401412 -2665775 -2965675 -3265399 -3514570 
1743.307 -3662650 -3690096 -3621246 -3513897 -3425756 -3395128 -3432988 
1743.729 -3522924 -3625001 -3685935 -3662422 -3536777 -3326551 -3069594 
1744.152 -2806530 -2565775 -2361480 -2199774 -2082012 -2008696 -1980376 
1744.574 -1995945 -2050104 -2130351 -2218048 -2288987 -2320581 -2300440 
1744.996 -2229545 -2121246 -1993736 -1864883 -1747026 -1647282 -1570093 
1745.418 -1518697 -1497050 -1509942 -1561211 -1652019 -1778168 -1929425 
1745.840 -2087608 -2229538 -2333404 -2383607 -2377738 -2326094 -2248121 
1746.262 -2163713 -2088164 -2029334 -1986900 -1955078 -1926120 -1895052 
1746.684 -1862566 -1837005 -1832167 -1865737 -1953915 -2107738 -2329583 
1747.106 -2609293 -2919031 -3207036 -3409585 -3471128 -3377094 -3163784 
1747.529 -2899528 -2650260 -2456168 -2334538 -2281537 -2279959 -2303563 
1747.951 -2325512 -2325773 -2296260 -2243068 -2181946 -2132194 -2109411 
1748.373 -2125165 -2187217 -2302074 -2477577 -2723027 -3046585 -3442496 
1748.795 -3875223 -4265887 -4501857 -4505412 -4293801 -3967947 -3635927 
1749.217 -3371502 -3206737 -3142289 -3161924 -3235140 -3322503 -3375785 
1749.639 -3354044 -3239729 -3045738 -2807350 -2563111 -2342101 -2157509 
1750.061 -2012072 -1902490 -1823098 -1767754 -1730406 -1705697 -1688848 
1750.483 -1676927 -1669731 -1670579 -1685896 -1724012 -1794252 -1905407 
1750.906 -2065958 -2283738 -2566281 -2916435 -3326928 -3777946 -4235933 
1751.328 -4668474 -5058188 -5405573 -5706139 -5920022 -5958533 -5738183 
1751.750 -5268529 -4665745 -4062767 -3536710 -3108656 -2769139 -2502657 
1752.172 -2293840 -2129424 -1999097 -1894751 -1810997 -1745740 -1700132 
1752.594 -1677360 -1680694 -1710705 -1763494 -1829969 -1898278 -1955385 
1753.016 -1990704 -1999005 -1980445 -1940378 -1886966 -1829890 -1777751 
1753.438 -1737200 -1712913 -1706484 -1716184 -1736420 -1759017 -1774396 
1753.860 -1774698 -1756624 -1722318 -1678827 -1635040 -1599420 -1576423 
1754.282 -1565673 -1562809 -1562189 -1559453 -1553139 -1544769 -1537580 
1754.705 -1534506 -1536576 -1542662 -1550220 -1556736 -1560434 -1560786 
1755.127 -1557903 -1551800 -1541958 -1527521 -1508006 -1484029 -1457472 
1755.549 -1431150 -1407605 -1388627 -1375021 -1367281 -1366767 -1376389 
1755.971 -1400027 -1441555 -1502591 -1581433 -1672910 -1770642 -1869425 
1756.393 -1967815 -2069405 -2182614 -2319020 -2490995 -2711082 -2990871 
1756.815 -3340525 -3759836 -4223317 -4657620 -4932566 -4932549 -4656141 
1757.237 -4218438 -3745482 -3311562 -2941350 -2632800 -2378297 -2170128 
1757.659 -2002008 -1869511 -1768654 -1695514 -1645951 -1615596 -1599564 
1758.082 -1591828 -1586216 -1577235 -1562243 -1543160 -1527246 -1525726 
1758.504 -1549846 -1607876 -1700284 -1818249 -1943185 -2052263 -2124922 
1758.926 -2148049 -2120741 -2052845 -1961298 -1863166 -1772904 -1699918 
1759.348 -1648121 -1617885 -1606985 -1611864 -1627770 -1649422 -1671622 
1759.770 -1689539 -1700045 -1702072 -1696706 -1686521 -1674545 -1663137 
1760.192 -1653094 -1643894 -1634446 -1624093 -1613486 -1604628 -1600298 
1760.614 -1603396 -1615918 -1638779 -1671864 -1714391 -1764897 -1820804 
1761.036 -1878396 -1932243 -1976048 -2004647 -2015858 -2012970 -2005131 
1761.458 -2007662 -2038304 -2114297 -2251670 -2465166 -2771377 -3190276 
1761.881 -3746601 -4450149 -5246321 -5954873 -6291609 -6110511 -5555326 
1762.303 -4878342 -4237754 -3685487 -3226497 -2850480 -2548350 -2314877 
1762.725 -2143972 -2027288 -1952094 -1903587 -1866841 -1831332 -1793282 
1763.147 -1755221 -1724025 -1707214 -1710514 -1735095 -1777443 -1829779 
1763.569 -1882486 -1925495 -1950120 -1951283 -1927917 -1883498 -1824772 
1763.991 -1760901 -1700715 -1650443 -1612911 -1586858 -1568486 -1553309 
1764.413 -1538795 -1525684 -1518013 -1521122 -1539675 -1575072 -1624582 
1764.835 -1681488 -1737057 -1783511 -1815170 -1830211 -1830255 -1819564 
1765.258 -1803242 -1786023 -1771558 -1761617 -1756281 -1754142 -1752876 
1765.680 -1749763 -1742535 -1730259 -1713572 -1694584 -1676037 -1660518 
1766.102 -1649291 -1642043 -1637088 -1632311 -1626088 -1617897 -1608406 
1766.524 -1598880 -1590442 -1583443 -1577590 -1572397 -1567933 -1565273 
1766.946 -1566290 -1572780 -1585570 -1603667 -1624119 -1642452 -1654207 
1767.368 -1655664 -1645029 -1622765 -1591860 -1557628 -1527079 -1509366 
1767.790 -1514432 -1552145 -1632464 -1764957 -1960300 -2231723 -2597990 
1768.212 -3080769 -3691623 -4402742 -5087375 -5516631 -5512254 -5116866 
1768.635 -4532348 -3932581 -3403740 -2966443 -2615710 -2341587 -2132257 
1769.057 -1976608 -1863137 -1780420 -1717725 -1666727 -1622638 -1583146 
1769.479 -1547407 -1514646 -1483616 -1453227 -1423862 -1398468 -1382083 
1769.901 -1380526 -1398061 -1435009 -1487081 -1546310 -1604424 -1654634 
1770.323 -1693743 -1721990 -1741558 -1754651 -1762345 -1764757 -1762221 
1770.745 -1756958 -1754502 -1762857 -1791924 -1851689 -1950630 -2096749 
1771.167 -2298957 -2569689 -2923929 -3373899 -3913455 -4481654 -4943624 
1771.589 -5135790 -4987863 -4586493 -4088697 -3617140 -3226863 -2933967 
1772.011 -2734954 -2618693 -2573817 -2589456 -2656659 -2767653 -2916562 
1772.434 -3099222 -3311829 -3553074 -3824729 -4132915 -4491820 -4920086 
1772.856 -5422621 -5937635 -6264151 -6170510 -5699052 -5110516 -4578174 
1773.278 -4139458 -3778930 -3474119 -3209165 -2975422 -2767379 -2581726 
1773.700 -2415810 -2267067 -2134279 -2018189 -1921282 -1847323 -1799004 
1774.122 -1776065 -1773992 -1784671 -1798394 -1806049 -1802651 -1788169 
1774.544 -1767401 -1747262 -1734462 -1732593 -1740912 -1754645 -1766857 
1774.966 -1771119 -1762994 -1741784 -1710661 -1676672 -1649467 -1640971 
1775.388 -1664903 -1734210 -1860683 -2051991 -2309175 -2620281 -2954294 
1775.811 -3260737 -3471385 -3529708 -3420780 -3182298 -2881142 -2580574 
1776.233 -2322614 -2122647 -1979610 -1882899 -1818849 -1773903 -1737384 
1776.655 -1702878 -1667158 -1629713 -1591566 -1554795 -1522137 -1496644 
1777.077 -1481346 -1477948 -1486130 -1502917 -1523499 -1541907 -1552708 
1777.499 -1552625 -1540816 -1518851 -1489645 -1456893 -1424147 -1394679 
1777.921 -1371811 -1358521 -1357294 -1369586 -1395279 -1432499 -1477785 
1778.343 -1527006 -1575557 -1619152 -1654440 -1678807 -1690980 -1691496 
1778.765 -1683515 -1672942 -1667987 -1677991 -1709896 -1766211 -1842604 
1779.188 -1928529 -2007798 -2063285 -2083180 -2064524 -2015140 -1949452 
1779.610 -1883613 -1828521 -1787559 -1757356 -1730922 -1701263 -1664779 
1780.032 -1622813 -1581008 -1547263 -1528704 -1531062 -1558248 -1613658 
1780.454 -1702649 -1833648 -2018291 -2269526 -2596710 -2996054 -3434338 
1780.876 -3842332 -4118744 -4175899 -3996941 -3644967 -3219529 -2802408 
1781.298 -2444603 -2164920 -1962112 -1825487 -1739715 -1689326 -1661166 
1781.720 -1647278 -1644337 -1652382 -1672237 -1703024 -1740603 -1778298 
1782.142 -1807542 -1820781 -1813517 -1784872 -1737499 -1675980 -1605577 
1782.564 -1530607 -1454595 -1380651 -1311755 -1251525 -1204134 -1173484 
1782.987 -1162995 -1174697 -1208658 -1262666 -1332225 -1410857 -1490132 
1783.409 -1561534 -1617549 -1653125 -1667435 -1664253 -1651579 -1638983 
1783.831 -1636121 -1649512 -1680867 -1726817 -1779901 -1831040 -1871135 
1784.253 -1894037 -1897158 -1881401 -1850264 -1809449 -1766701 -1730985 
1784.675 -1713416 -1726333 -1781949 -1892816 -2069968 -2320826 -2640037 
1785.097 -2997897 -3327610 -3529550 -3527803 -3325587 -3002888 -2651962 
1785.519 -2337678 -2089288 -1910744 -1795294 -1729734 -1698592 -1685581 
1785.941 -1677529 -1666565 -1650258 -1630655 -1611548 -1595786 -1583503 
1786.364 -1572010 -1557113 -1535460 -1505952 -1470722 -1434311 -1402815 
1786.786 -1381695 -1374309 -1381470 -1401462 -1430800 -1464924 -1499320 
1787.208 -1529648 -1552238 -1564931 -1567313 -1561269 -1550451 -1539962 
1787.630 -1534775 -1538344 -1551694 -1572924 -1597794 -1620557 -1636115 
1788.052 -1640920 -1633932 -1616866 -1593991 -1571378 -1555253 -1551544 
1788.474 -1564385 -1595348 -1643144 -1703611 -1770480 -1835846 -1892384 
1788.896 -1934287 -1957960 -1962609 -1949841 -1923406 -1888162 -1849917 
1789.318 -1814188 -1785094 -1765244 -1755151 -1753846 -1759498 -1770582 
1789.740 -1786430 -1807298 -1833571 -1864448 -1896549 -1924021 -1938777 
1790.163 -1933153 -1903149 -1850175 -1781784 -1709485 -1647384 -1608281 
1790.585 -1602080 -1635815 -1713515 -1838317 -2014090 -2246834 -2542513 
1791.007 -2901072 -3308016 -3714680 -4033237 -4166357 -4065899 -3775847 
1791.429 -3394879 -3015205 -2685798 -2421093 -2216965 -2061260 -1941452 
1791.851 -1847501 -1773413 -1717123 -1680073 -1665930 -1679878 -1727346 
1792.273 -1812980 -1940248 -2111324 -2328144 -2593826 -2917510 -3317266 
1792.695 -3823075 -4477090 -5307477 -6252337 -7058478 -7350193 -7013221 
1793.117 -6304507 -5523626 -4815460 -4213970 -3715577 -3307623 -2981353 
1793.540 -2731249 -2549778 -2426530 -2346437 -2292259 -2246076 -2193707 
1793.962 -2127433 -2046138 -1955024 -1863013 -1780808 -1717219 -1677497 
1794.384 -1662167 -1666756 -1682620 -1698733 -1705283 -1695068 -1666099 
1794.806 -1621875 -1570892 -1524085 -1491576 -1480702 -1493253 -1525240 
1795.228 -1567338 -1608087 -1636399 -1645049 -1633607 -1608789 -1582909 
1795.650 -1569594 -1581807 -1628083 -1711011 -1826722 -1965349 -2112735 
1796.072 -2251276 -2364439 -2438225 -2463109 -2435851 -2359669 -2244452 
1796.494 -2104389 -1956762 -1818030 -1700504 -1612244 -1555681 -1528698 
1796.917 -1525944 -1540621 -1565775 -1594987 -1623340 -1646551 -1660471 
1797.339 -1661287 -1645616 -1611924 -1561799 -1500779 -1437898 -1383736 
1797.761 -1349079 -1341295 -1362773 -1410203 -1475802 -1548935 -1618217 
1798.183 -1674405 -1710419 -1722413 -1709829 -1675007 -1622781 -1559616 
1798.605 -1493141 -1430935 -1379698 -1344543 -1327694 -1328372 -1342757 
1799.027 -1365390 -1390251 -1412894 -1432525 -1453448 -1485720 -1543726 
1799.449 -1646057 -1812265 -2060805 -2404738 -2844684 -3353995 -3857721 
1799.871 -4239389 -4380026 -4237914 -3877984 -3421163 -2970951 -2581505 
1800.293 -2272752 -2042490 -1879954 -1772770 -1708931 -1677379 -1667186 
1800.716 -1668302 -1671006 -1666807 -1650551 -1621565 -1585190 -1551598 
1801.138 -1534897 -1549073 -1604434 -1705716 -1849159 -2020609 -2191549 
1801.560 -2324649 -2383137 -2348678 -2232639 -2069440 -1898243 -1745919 
1801.982 -1626222 -1540932 -1485345 -1453291 -1440968 -1449186 -1483891 
1802.404 -1554086 -1668640 -1831186 -2035041 -2255888 -2449720 -2567121 
1802.826 -2573299 -2470109 -2291341 -2083733 -1885710 -1719987 -1597849 
1803.248 -1520655 -1483872 -1478675 -1493974 -1517373 -1537039 -1544449 
1803.670 -1534801 -1508051 -1468045 -1421418 -1375050 -1333755 -1299530 
1804.093 -1271277 -1246284 -1221888 -1197246 -1173655 -1153981 -1140999 
1804.515 -1136318 -1139814 -1150235 -1166330 -1187936 -1216092 -1252320 
1804.937 -1297019 -1348414 -1402033 -1452109 -1493234 -1521941 -1537903 
1805.359 -1543221 -1540839 -1532488 -1517865 -1495049 -1462438 -1420700 
1805.781 -1373933 -1328738 -1292876 -1271766 -1266804 -1274540 -1288415 
1806.203 -1300964 -1306646 -1303894 -1294893 -1284324 -1276799 -1275599 
1806.625 -1281525 -1293365 -1308794 -1325596 -1342159 -1357314 -1370045 
1807.047 -1379098 -1382978 -1380546 -1371509 -1357041 -1339850 -1324336 
1807.469 -1316069 -1321000 -1345533 -1395022 -1472628 -1577190 -1701272 
1807.892 -1829651 -1939481 -2007684 -2017389 -1965605 -1864016 -1735070 
1808.314 -1604079 -1491172 -1410078 -1365143 -1352779 -1363473 -1385475 
1808.736 -1407900 -1422374 -1424798 -1414527 -1393784 -1366456 -1337861 
1809.158 -1313854 -1299582 -1298813 -1312337 -1337540 -1368418 -1397522 
1809.580 -1418240 -1426622 -1422919 -1410938 -1396498 -1384525 -1377589 
1810.002 -1374986 -1373866 -1371012 -1365483 -1360271 -1363357 -1386541 
1810.424 -1443488 -1548683 -1714378 -1948900 -2252107 -2611161 -2989927 
1810.846 -3323466 -3534400 -3561552 -3400336 -3104106 -2754006 -2418217 
1811.269 -2134935 -1918642 -1765040 -1660614 -1588212 -1532882 -1484234 
1811.691 -1437834 -1394127 -1355801 -1325354 -1303948 -1292285 -1292195 
1812.113 -1307701 -1345125 -1410508 -1506086 -1626414 -1757003 -1875093 
1812.535 -1954884 -1978340 -1941119 -1855220 -1742198 -1626631 -1527396 
1812.957 -1453692 -1406437 -1380366 -1368328 -1363884 -1363646 -1366719 
1813.379 -1373098 -1382077 -1391229 -1396819 -1395529 -1385607 -1367791 
1813.801 -1344582 -1319132 -1293510 -1268014 -1241634 -1213431 -1184058 
1814.223 -1156746 -1136276 -1127596 -1133278 -1151825 -1177367 -1201311 
1814.646 -1215876 -1216350 -1203602 -1183584 -1165798 -1159233 -1169052 
1815.068 -1194800 -1230443 -1266473 -1293005 -1303987 -1298742 -1282529 
1815.490 -1263921 -1252555 -1255382 -1274527 -1307234 -1347129 -1386817 
1815.912 -1419748 -1442475 -1454653 -1458354 -1456441 -1451484 -1445020 
1816.334 -1437378 -1428290 -1417259 -1403986 -1388155 -1369342 -1346943 
1816.756 -1320334 -1289454 -1255353 -1220599 -1188894 -1164679 -1152384 
1817.178 -1155313 -1175674 -1214462 -1272001 -1348067 -1441529 -1549357 
1817.600 -1664042 -1772955 -1859299 -1905096 -1898972 -1840286 -1739661 
1818.022 -1613939 -1481823 -1359748 -1258739 -1185554 -1141886 -1125210 
1818.445 -1129872 -1148773 -1175187 -1203219 -1228987 -1250353 -1266473 
1818.867 -1277362 -1283313 -1284446 -1280470 -1270782 -1254925 -1233261 
1819.289 -1207614 -1181420 -1159007 -1144971 -1142354 -1151709 -1170536 
1819.711 -1194132 -1216698 -1233187 -1241151 -1241135 -1236421 -1231277 
1820.133 -1229783 -1233986 -1243450 -1255369 -1265829 -1271210 -1269163 
1820.555 -1259598 -1244664 -1228456 -1215635 -1210782 -1217046 -1235300 
1820.977 -1263856 -1298466 -1333533 -1362599 -1380401 -1384147 -1374138 
1821.399 -1353752 -1328337 -1304048 -1285485 -1274945 -1271696 -1272767 
1821.822 -1274128 -1272687 -1267879 -1262292 -1261066 -1269897 -1293098 
1822.244 -1330962 -1378986 -1427899 -1467068 -1487109 -1483523 -1458619 
1822.666 -1421322 -1384615 -1360515 -1357612 -1377387 -1414280 -1456998 
1823.088 -1493417 -1515066 -1519456 -1509942 -1492674 -1473128 -1453538 
1823.510 -1432983 -1408949 -1379884 -1347004 -1314674 -1288489 -1273369 
1823.932 -1270766 -1278137 -1289757 -1299636 -1303958 -1302524 -1298286 
1824.354 -1295372 -1296446 -1300929 -1304948 -1303228 -1292223 -1272606 
1824.776 -1250633 -1237132 -1246796 -1294716 -1395208 -1562394 -1811054 
1825.198 -2158458 -2622508 -3216686 -3924006 -4656075 -5232383 -5430352 
1825.621 -5162604 -4559939 -3850805 -3199979 -2674583 -2283958 -2008532 
1826.043 -1822284 -1699829 -1620148 -1567207 -1530652 -1505382 -1489219 
1826.465 -1481042 -1479328 -1481579 -1484923 -1487039 -1486450 -1482563 
1826.887 -1475130 -1463633 -1447398 -1426106 -1400788 -1374232 -1351083 
1827.309 -1336778 -1335609 -1349663 -1377625 -1415088 -1455220 -1490891 
1827.731 -1516086 -1526471 -1520201 -1497469 -1460321 -1412086 -1357532 
1828.153 -1302611 -1253724 -1217887 -1201330 -1208078 -1238962 -1290570 
1828.575 -1355795 -1424413 -1486453 -1534462 -1566370 -1587117 -1608840 
1828.998 -1648848 -1724563 -1850816 -2034023 -2268227 -2527901 -2768455 
1829.420 -2936749 -2989822 -2920218 -2758276 -2556048 -2360620 -2205553 
1829.842 -2109263 -2078257 -2114937 -2221543 -2404146 -2672786 -3038880 
1830.264 -3505636 -4038191 -4535653 -4838162 -4821823 -4513240 -4053888 
1830.686 -3579421 -3156002 -2799948 -2502848 -2249351 -2027361 -1830481 
1831.108 -1657903 -1513482 -1402228 -1327620 -1290094 -1286199 -1309038 
1831.530 -1348889 -1395539 -1438648 -1469060 -1480340 -1468768 -1434436 
1831.952 -1381268 -1317149 -1252082 -1195751 -1155962 -1136047 -1134643 
1832.375 -1146136 -1163021 -1177528 -1183661 -1178573 -1161998 -1135470 
1832.797 -1100995 -1060605 -1016452 -971448 -930697 -901272 -891496 -909657 
1833.279 -960790 -1044532 -1152832 -1270978 -1378482 -1454429 -1484609 
1833.701 -1464716 -1402357 -1313095 -1216798 -1130895 -1066939 -1030054 
1834.123 -1018737 -1027135 -1047255 -1072056 -1096255 -1116905 -1133100 
1834.545 -1144926 -1152955 -1157875 -1160691 -1162679 -1165317 -1170214 
1834.968 -1178608 -1191399 -1209126 -1232025 -1259946 -1291809 -1325274 
1835.390 -1356170 -1378902 -1388149 -1380122 -1354876 -1316798 -1274511 
1835.812 -1237915 -1215303 -1210953 -1223499 -1246747 -1271757 -1290776 
1836.234 -1298884 -1295375 -1282699 -1264635 -1243917 -1221047 -1194551 
1836.656 -1162375 -1123731 -1080567 -1037738 -1002632 -984218 -990777 
1837.078 -1029507 -1105314 -1219803 -1369631 -1544507 -1727110 -1891969 
1837.500 -2012350 -2068729 -2055082 -1981500 -1868939 -1742436 -1622034 
1837.922 -1520790 -1443799 -1389439 -1352252 -1325772 -1305074 -1287138 
1838.344 -1270962 -1256499 -1243885 -1233242 -1225032 -1220574 -1221817 
1838.767 -1230666 -1247733 -1271416 -1297681 -1321070 -1336932 -1342667 
1839.189 -1338902 -1328780 -1316683 -1306209 -1298984 -1294832 -1292487 
1839.611 -1290844 -1289576 -1288939 -1288747 -1287309 -1281483 -1267261 
1840.033 -1241882 -1205661 -1163059 -1121852 -1090646 -1076996 -1084303 
1840.455 -1111325 -1152771 -1201839 -1252208 -1299585 -1342150 -1379214 
1840.877 -1409789 -1431746 -1441568 -1435609 -1411816 -1370922 -1317085 
1841.299 -1257245 -1200379 -1154865 -1127299 -1121297 -1136751 -1170107 
1841.721 -1215106 -1264725 -1312147 -1353180 -1387462 -1418811 -1454002 
1842.144 -1500344 -1563282 -1643077 -1733020 -1818833 -1883279 -1910487 
1842.566 -1892470 -1832053 -1741516 -1638291 -1539003 -1457847 -1403066 
1842.988 -1376530 -1374504 -1389349 -1412253 -1435369 -1454695 -1470178 
1843.410 -1485262 -1504796 -1533397 -1573704 -1625912 -1688669 -1760831 
1843.832 -1843265 -1940149 -2058827 -2209250 -2403867 -2658536 -2995819 
1844.254 -3448657 -4068605 -4921645 -6048922 -7343613 -8357280 -8506933 
1844.676 -7767113 -6652301 -5576409 -4676159 -3954560 -3377903 -2916599 
1845.098 -2551865 -2269564 -2059570 -1911825 -1815030 -1756799 -1724738 
1845.521 -1708284 -1698245 -1687777 -1672323 -1649212 -1618102 -1580980 
1845.943 -1541763 -1504927 -1474300 -1451615 -1435811 -1423551 -1410569 
1846.365 -1393825 -1372591 -1349095 -1327578 -1313282 -1310408 -1321112 
1846.787 -1345195 -1380430 -1423195 -1468817 -1512486 -1548775 -1572077 
1847.209 -1577558 -1561770 -1524411 -1469377 -1405837 -1347087 -1308244 
1847.631 -1304833 -1348382 -1444959 -1592866 -1781959 -1990802 -2186543 
1848.053 -2332742 -2397057 -2366513 -2252654 -2086136 -1901874 -1727021 
1848.475 -1578833 -1463480 -1380099 -1324014 -1289178 -1269324 -1258391 
1848.897 -1251107 -1242323 -1227815 -1205458 -1176283 -1145088 -1119030 
1849.320 -1106095 -1111441 -1135492 -1173316 -1216440 -1255324 -1282410 
1849.742 -1294893 -1294722 -1287154 -1277523 -1269314 -1262781 -1255932 
1850.164 -1246364 -1233484 -1219314 -1207911 -1203048 -1206296 -1215731 
1850.586 -1226688 -1233442 -1231732 -1220754 -1203299 -1184551 -1169562 
1851.008 -1161882 -1162285 -1169385 -1180814 -1194661 -1209970 -1226246 
1851.430 -1242481 -1256177 -1263068 -1258633 -1239361 -1204840 -1158323 
1851.852 -1106754 -1058972 -1023155 -1005672 -1009107 -1032212 -1070320 
1852.274 -1116882 -1164466 -1205771 -1235416 -1250311 -1250746 -1240353 
1852.697 -1225882 -1215580 -1216582 -1233593 -1266911 -1312491 -1362744 
1853.119 -1409183 -1444529 -1464316 -1467968 -1458197 -1439731 -1417163 
1853.541 -1394095 -1372029 -1350604 -1328388 -1303971 -1276940 -1248286 
1853.963 -1220155 -1195016 -1174626 -1158978 -1145946 -1131602 -1111951 
1854.385 -1084274 -1049089 -1010613 -976661 -956414 -957341 -983331 -1032643 
1854.867 -1098378 -1169743 -1235947 -1288631 -1323915 -1342850 -1350113 
1855.290 -1351591 -1351626 -1352005 -1351494 -1347164 -1335875 -1316175 
1855.712 -1288988 -1257612 -1226433 -1199718 -1180591 -1170207 -1168120 
1856.134 -1172858 -1182939 -1197327 -1215725 -1238227 -1264671 -1293812 
1856.556 -1323159 -1348693 -1366067 -1371628 -1363527 -1342587 -1312192 
1856.978 -1277468 -1243260 -1213137 -1188133 -1167062 -1147421 -1127202 
1857.400 -1106234 -1086804 -1072945 -1068830 -1077212 -1097929 -1127854 
1857.822 -1161679 -1194103 -1220960 -1240230 -1251882 -1256946 -1256495 
1858.244 -1251148 -1241538 -1229245 -1217658 -1212483 -1220361 -1247063 
1858.667 -1295144 -1361967 -1439116 -1513696 -1572749 -1605826 -1608725 
1859.089 -1583944 -1539534 -1486094 -1433487 -1389760 -1359327 -1343470 
1859.511 -1341180 -1350399 -1368915 -1394920 -1427132 -1464220 -1504156 
1859.933 -1543957 -1579056 -1603881 -1613026 -1601905 -1568540 -1514422 
1860.355 -1444975 -1368405 -1294587 -1233281 -1191334 -1172136 -1174925 
1860.777 -1195744 -1228437 -1266370 -1304019 -1336907 -1362188 -1378466 
1861.199 -1385623 -1385045 -1379733 -1374276 -1373631 -1382182 -1402132 
1861.621 -1432410 -1468294 -1502425 -1527223 -1536521 -1528183 -1504358 
1862.043 -1470588 -1433233 -1397451 -1366241 -1340235 -1319013 -1302296 
1862.466 -1290812 -1286386 -1290943 -1305189 -1327704 -1354751 -1381489 
1862.888 -1403146 -1417092 -1423692 -1426135 -1428947 -1436234 -1450006 
1863.310 -1469211 -1489965 -1506732 -1514557 -1510272 -1493903 -1468541 
1863.732 -1439978 -1414918 -1399136 -1396392 -1407114 -1428431 -1454698 
1864.154 -1479370 -1496183 -1500891 -1492408 -1473003 -1447737 -1422714 
1864.576 -1404307 -1397339 -1404291 -1425154 -1457488 -1496954 -1537660 
1864.998 -1573631 -1599264 -1610421 -1605532 -1585951 -1555991 -1521612 
1865.420 -1489642 -1465725 -1453131 -1452477 -1461772 -1477263 -1494118 
1865.843 -1507721 -1514154 -1510742 -1497044 -1475610 -1453038 -1439260 
1866.265 -1447628 -1491858 -1582296 -1722999 -1907415 -2116932 -2319074 
1866.687 -2476704 -2558541 -2550931 -2463190 -2321976 -2160302 -2004836 
1867.109 -1873814 -1774962 -1707778 -1667215 -1646892 -1641804 -1649365 
1867.531 -1670021 -1706710 -1764515 -1849768 -1969984 -2132922 -2344798 
1867.953 -2606032 -2904357 -3210178 -3470271 -3622087 -3622365 -3469981 
1868.375 -3207128 -2893363 -2583287 -2310529 -2091180 -1929410 -1821461 
1868.797 -1760770 -1740170 -1753974 -1798035 -1870056 -1969459 -2097390 
1869.219 -2257609 -2457364 -2707318 -3020151 -3403891 -3843934 -4281833 
1869.642 -4597100 -4655019 -4420007 -3995131 -3529983 -3120856 -2804626 
1870.064 -2578554 -2423983 -2318263 -2239081 -2167430 -2089197 -1998043 
1870.486 -1895135 -1788370 -1688889 -1609319 -1560390 -1548091 -1572956 
1870.908 -1629101 -1705640 -1786834 -1856115 -1899677 -1909368 -1885684 
1871.330 -1836827 -1776005 -1716123 -1667534 -1635927 -1622038 -1622973 
1871.752 -1633888 -1649955 -1667030 -1682390 -1694307 -1701540 -1703292 
1872.174 -1699424 -1690954 -1680063 -1669878 -1663468 -1662486 -1666469 
1872.596 -1672632 -1677009 -1675514 -1665755 -1647894 -1624486 -1599414 
1873.019 -1576465 -1558353 -1545859 -1538220 -1533806 -1531222 -1529789 
1873.441 -1529747 -1531797 -1536550 -1544027 -1553539 -1563813 -1573378 
1873.863 -1580852 -1584986 -1584823 -1579711 -1569578 -1555253 -1538738 
1874.285 -1523250 -1512317 -1509277 -1515914 -1531788 -1554031 -1578187 
1874.707 -1599720 -1615130 -1623359 -1625734 -1625344 -1625316 -1627700 
1875.129 -1632442 -1637503 -1639599 -1635687 -1624313 -1606196 -1584162 
1875.551 -1561997 -1543621 -1531529 -1526359 -1527050 -1531577 -1537791 
1875.973 -1544101 -1549955 -1555620 -1561633 -1568252 -1574957 -1580408 
1876.396 -1582829 -1580443 -1572311 -1558747 -1541568 -1523631 -1508281 
1876.818 -1498670 -1496605 -1502191 -1513501 -1527210 -1539083 -1545248 
1877.240 -1543365 -1533061 -1516208 -1496279 -1477673 -1464136 -1457803 
1877.662 -1458645 -1464486 -1471648 -1476033 -1474777 -1466834 -1453541 
1878.084 -1437939 -1423952 -1414908 -1412342 -1415723 -1422704 -1430274 
1878.506 -1435904 -1438914 -1440709 -1444398 -1453211 -1469220 -1492011 
1878.928 -1518486 -1543355 -1560904 -1567063 -1560559 -1543800 -1522121 
1879.350 -1502812 -1492408 -1495184 -1511747 -1538885 -1570003 -1596584 
1879.772 -1610794 -1606410 -1580785 -1535280 -1475277 -1409064 -1346040 
1880.195 -1295957 -1266164 -1260496 -1278449 -1315255 -1362673 -1410456 
1880.617 -1449356 -1472122 -1475581 -1461122 -1434372 -1403649 -1377387 
1881.039 -1362885 -1363829 -1379900 -1407069 -1439372 -1470671 -1496516 
1881.461 -1515501 -1528970 -1539905 -1550981 -1563292 -1575532 -1584711 
1881.883 -1587414 -1581756 -1568594 -1551819 -1537027 -1529849 -1534247 
1882.305 -1550914 -1577417 -1608878 -1639989 -1665755 -1682792 -1689670 
1882.727 -1686578 -1675113 -1657814 -1638250 -1620289 -1607566 -1602713 
1883.149 -1606212 -1616078 -1628137 -1637742 -1641077 -1636964 -1627122 
1883.572 -1615503 -1606196 -1601170 -1599082 -1595278 -1583625 -1558561 
1883.994 -1517993 -1464284 -1404237 -1346670 -1300948 -1274608 -1271908 
1884.416 -1294150 -1339679 -1404522 -1482005 -1563333 -1638291 -1695785 
1884.838 -1727234 -1728798 -1703461 -1660404 -1613131 -1575152 -1555131 
1885.260 -1555480 -1571873 -1595933 -1617534 -1628775 -1625922 -1609584 
1885.682 -1583558 -1552733 -1521391 -1491874 -1464972 -1440789 -1419606 
1886.104 -1402434 -1390876 -1386541 -1390536 -1403008 -1423105 -1448846 
1886.526 -1477362 -1505036 -1527409 -1540199 -1540030 -1525704 -1499211 
1886.948 -1466081 -1434602 -1413058 -1408323 -1423140 -1455531 -1499115 
1887.371 -1545098 -1584781 -1611075 -1620496 -1613055 -1591816 -1561496 
1887.793 -1527885 -1497105 -1474425 -1464370 -1469701 -1490900 -1525985 
1888.215 -1570738 -1619640 -1666144 -1704273 -1729011 -1736359 -1723856 
1888.637 -1690336 -1636536 -1565446 -1482963 -1397541 -1318203 -1253830 
1889.059 -1210747 -1192140 -1198897 -1231017 -1289615 -1378546 -1504620 
1889.481 -1677166 -1906133 -2199651 -2559887 -2969320 -3389848 -3748242 
1889.903 -3955144 -3950957 -3745111 -3409876 -3031174 -2674210 -2370162 
1890.325 -2128427 -1947833 -1822008 -1743407 -1703639 -1694116 -1705468 
1890.748 -1728409 -1754900 -1777630 -1790961 -1791145 -1776110 -1746068 
1891.170 -1703550 -1653636 -1602732 -1558059 -1526020 -1510272 -1511146 
1891.592 -1525364 -1547554 -1571505 -1592512 -1608585 -1620493 -1631006 
1892.014 -1643339 -1659916 -1681118 -1705357 -1729403 -1749687 -1762778 
1892.436 -1766154 -1758622 -1740339 -1712929 -1679337 -1643906 -1611512 
1892.858 -1586455 -1571442 -1566264 -1567373 -1568402 -1562502 -1543979 
1893.280 -1510627 -1464556 -1412067 -1361925 -1322285 -1299308 -1294890 
1893.702 -1306797 -1329458 -1356267 -1381435 -1401211 -1414613 -1422874 
1894.125 -1428341 -1433060 -1438237 -1443959 -1449763 -1455460 -1461692 
1894.547 -1469906 -1481816 -1498241 -1518473 -1540142 -1560466 -1578152 
1894.969 -1595626 -1619714 -1661721 -1734901 -1850022 -2011683 -2213202 
1895.391 -2434989 -2642064 -2793340 -2855150 -2813673 -2681904 -2492143 
1895.813 -2283596 -2087128 -1922712 -1798518 -1713276 -1660369 -1630811 
1896.235 -1616209 -1609153 -1604399 -1598577 -1589679 -1577382 -1563094 
1896.657 -1549961 -1541888 -1542243 -1552084 -1569131 -1587586 -1599765 
1897.079 -1599209 -1582756 -1552762 -1516451 -1484654 -1467679 -1472237 
1897.501 -1499605 -1545194 -1600004 -1652995 -1695008 -1719961 -1726244 
1897.924 -1716075 -1694355 -1667017 -1639261 -1615411 -1598012 -1588037 
1898.346 -1585085 -1587797 -1594281 -1602585 -1611394 -1620298 -1629902 
1898.768 -1641421 -1656200 -1674883 -1697009 -1720722 -1743299 -1761776 
1899.190 -1773480 -1776810 -1771313 -1757630 -1737069 -1711441 -1682731 
1899.612 -1652880 -1623764 -1597079 -1574087 -1555591 -1541836 -1532667 
1900.034 -1527613 -1526359 -1528759 -1534932 -1544919 -1558321 -1573880 
1900.456 -1589535 -1602540 -1610242 -1611066 -1605037 -1594275 -1582350 
1900.878 -1573803 -1572480 -1580308 -1596546 -1617738 -1638508 -1652736 
1901.301 -1655824 -1645683 -1623704 -1594160 -1563461 -1538175 -1522984 
1901.723 -1520057 -1528429 -1544909 -1565005 -1584666 -1601202 -1613479 
1902.145 -1621753 -1626701 -1628731 -1627425 -1621798 -1610960 -1594907 
1902.567 -1575168 -1554827 -1537765 -1528144 -1528938 -1541207 -1563743 
1902.989 -1593355 -1625360 -1654290 -1675326 -1684724 -1680771 -1664176 
1903.411 -1638230 -1608256 -1580238 -1560102 -1551701 -1556004 -1570873 
1903.833 -1591784 -1613300 -1630441 -1640592 -1643817 -1642630 -1640671 
1904.255 -1641644 -1648044 -1660633 -1678645 -1700371 -1723792 -1746765 
1904.677 -1767292 -1783361 -1792821 -1793969 -1785861 -1769052 -1745600 
1905.100 -1718942 -1692930 -1670490 -1652960 -1639417 -1627346 -1613425 
1905.522 -1595179 -1572020 -1545760 -1520041 -1499470 -1488352 -1489181 
1905.944 -1502226 -1525355 -1554802 -1585570 -1612483 -1631220 -1638463 
1906.366 -1632755 -1614638 -1586820 -1553606 -1520358 -1492799 -1475501 
1906.788 -1471286 -1480500 -1500946 -1528288 -1557056 -1582206 -1599650 
1907.210 -1607403 -1605666 -1596574 -1583293 -1569115 -1556883 -1548408 
1907.632 -1544919 -1547618 -1558222 -1579494 -1614731 -1666593 -1735732 
1908.054 -1819018 -1909032 -1993378 -2057768 -2089841 -2083023 -2039872 
1908.477 -1971403 -1894085 -1823438 -1771542 -1744298 -1741128 -1756424 
1908.899 -1781647 -1808312 -1829026 -1839403 -1838117 -1826220 -1806176 
1909.321 -1780954 -1753487 -1726040 -1700396 -1678122 -1660869 -1651129 
1909.743 -1652612 -1670002 -1709106 -1775340 -1872180 -1998986 -2148797 
1910.165 -2306611 -2447982 -2545253 -2573983 -2522646 -2397791 -2221319 
1910.587 -2022212 -1826151 -1653307 -1515046 -1414863 -1350836 -1317184 
1911.009 -1306611 -1311562 -1326177 -1346336 -1369336 -1393498 -1417298 
1911.431 -1439097 -1457498 -1471603 -1481637 -1489056 -1496400 -1506432 
1911.854 -1521097 -1540612 -1562902 -1583654 -1596999 -1597558 -1581765 
1912.276 -1549757 -1505772 -1458213 -1417900 -1394621 -1395661 -1422739 
1912.698 -1471658 -1532623 -1593346 -1642168 -1670445 -1675441 -1660015 
1913.120 -1631498 -1598337 -1568230 -1545859 -1532229 -1525672 -1523432 
1913.542 -1523490 -1525355 -1530144 -1539528 -1554530 -1574452 -1596632 
1913.964 -1616895 -1631131 -1636016 -1629911 -1612984 -1586628 -1552922 
1914.386 -1514061 -1472628 -1431627 -1394599 -1365839 -1349300 -1347755 
1914.808 -1361755 -1389086 -1424849 -1462362 -1495382 -1518921 -1530755 
1915.230 -1531519 -1524146 -1512557 -1500145 -1488970 -1478870 -1467840 
1915.653 -1452705 -1430710 -1400688 -1364234 -1325640 -1291638 -1269684 
1916.075 -1265530 -1282152 -1318290 -1369034 -1426507 -1482428 -1530115 
1916.497 -1565405 -1587283 -1596820 -1595891 -1585960 -1567910 -1542623 
1916.919 -1511856 -1479280 -1450272 -1430428 -1424404 -1433596 -1455579 
1917.341 -1484269 -1512397 -1533892 -1546169 -1551426 -1556304 -1570678 
1917.763 -1604488 -1666938 -1765231 -1905176 -2092629 -2334337 -2636982 
1918.185 -2998330 -3394818 -3763589 -3999253 -4009484 -3786796 -3418103 
1918.607 -3010791 -2639997 -2338579 -2111081 -1951998 -1850349 -1792910 
1919.030 -1764553 -1750199 -1737009 -1715636 -1682483 -1639019 -1590662 
1919.452 -1544139 -1505820 -1479773 -1466773 -1464848 -1470216 -1479040 
1919.874 -1488086 -1495654 -1501304 -1505420 -1508442 -1510582 -1511763 
1920.296 -1511923 -1511408 -1511190 -1512656 -1517347 -1526321 -1539777 
1920.718 -1556915 -1576037 -1594923 -1610941 -1621613 -1624866 -1619181 
1921.140 -1604031 -1580053 -1549296 -1514867 -1480945 -1452060 -1432031 
1921.562 -1423753 -1428440 -1445622 -1473064 -1507216 -1543675 -1577443 
1921.984 -1604319 -1621680 -1629490 -1630677 -1631076 -1638489 -1660378 
1922.406 -1702754 -1767665 -1851975 -1946109 -2035405 -2103496 -2135743 
1922.829 -2125480 -2076232 -2001805 -1921691 -1858401 -1833886 -1864813 
1923.251 -1961365 -2121668 -2328989 -2546566 -2725066 -2819518 -2806194 
1923.673 -2695244 -2521952 -2330465 -2154264 -2011616 -1905543 -1828374 
1924.095 -1767910 -1713441 -1660289 -1610475 -1570809 -1548123 -1545738 
1924.517 -1560831 -1585545 -1609293 -1623490 -1623755 -1610826 -1589011 
1924.939 -1563947 -1540429 -1521126 -1507328 -1499755 -1499316 -1506985 
1925.361 -1522892 -1545284 -1569933 -1591241 -1603776 -1603987 -1591656 
1925.783 -1569575 -1542396 -1514512 -1489360 -1469015 -1454640 -1447497 
1926.206 -1448872 -1459331 -1477464 -1499019 -1517427 -1525064 -1516790 
1926.628 -1492037 -1455979 -1417403 -1386117 -1368690 -1365875 -1372617 
1927.050 -1380353 -1381248 -1370915 -1350495 -1325432 -1303157 -1289248 
1927.472 -1285800 -1291223 -1302148 -1315545 -1330782 -1349631 -1375146 
1927.894 -1409366 -1451583 -1497879 -1542316 -1579222 -1604715 -1618073 
1928.316 -1621221 -1617591 -1610386 -1602004 -1593991 -1587462 -1583992 
1928.738 -1585622 -1594170 -1610488 -1633332 -1659421 -1683595 -1700444 
1929.160 -1705681 -1696815 -1673726 -1638250 -1593671 -1543816 -1493042 
1929.583 -1445856 -1406312 -1378039 -1363457 -1363155 -1375699 -1397775 
1930.005 -1424974 -1452317 -1475722 -1492466 -1501464 -1503305 -1499995 
1930.427 -1494524 -1489930 -1488870 -1492501 -1500030 -1508467 -1513523 
1930.849 -1511146 -1498916 -1477634 -1451554 -1427636 -1412843 -1412333 
1931.271 -1427479 -1455569 -1490702 -1526004 -1556426 -1579746 -1597156 
1931.693 -1611857 -1627473 -1645935 -1666711 -1686830 -1702311 -1709463 
1932.115 -1706089 -1692254 -1670050 -1643045 -1615059 -1589864 -1570179 
1932.537 -1557279 -1550940 -1549392 -1549936 -1549395 -1545418 -1537251 
1932.959 -1526356 -1516032 -1510771 -1514806 -1530508 -1557698 -1593336 
1933.382 -1632547 -1669374 -1698717 -1717607 -1725502 -1724384 -1717980 
1933.804 -1710833 -1706768 -1708087 -1714789 -1724572 -1733045 -1734981 
1934.226 -1726101 -1704082 -1669842 -1627180 -1582222 -1541162 -1508698 
1934.648 -1487100 -1475876 -1472779 -1475101 -1481192 -1490686 -1504175 
1935.070 -1521887 -1542562 -1562841 -1578136 -1583654 -1576583 -1557199 
1935.492 -1529120 -1497966 -1469576 -1448295 -1435429 -1429479 -1427039 
1935.914 -1424808 -1420604 -1414312 -1407441 -1402302 -1400740 -1403306 
1936.336 -1409093 -1416236 -1422624 -1426443 -1426732 -1423310 -1416621 
1936.759 -1407486 -1397150 -1387343 -1380106 -1377878 -1382667 -1395333 
1937.181 -1414908 -1438324 -1460942 -1477189 -1482527 -1474435 -1453422 
1937.603 -1422865 -1388476 -1356765 -1332877 -1319871 -1317576 -1323031 
1938.025 -1330940 -1335380 -1331486 -1316451 -1290799 -1258256 -1225341 
1938.447 -1199151 -1186118 -1189974 -1210498 -1243528 -1282069 -1318933 
1938.869 -1348263 -1367897 -1379650 -1388627 -1400704 -1420203 -1448036 
1939.291 -1481016 -1512656 -1535108 -1542268 -1531183 -1503177 -1462890 
1939.713 -1417089 -1372286 -1333086 -1301781 -1278182 -1260380 -1245588 
1940.135 -1231087 -1214755 -1195431 -1173336 -1150241 -1129591 -1115604 
1940.558 -1112849 -1124529 -1151180 -1189877 -1234469 -1276969 -1308880 
1940.980 -1324345 -1321482 -1303280 -1276644 -1251354 -1237831 -1244201 
1941.402 -1275422 -1331502 -1407630 -1494287 -1579235 -1649939 -1694909 
1941.824 -1707185 -1685670 -1635936 -1568482 -1496954 -1435102 -1393184 
1942.246 -1377878 -1392112 -1436532 -1511533 -1618683 -1761152 -1942326 
1942.668 -2163376 -2419003 -2690220 -2943248 -3132536 -3216517 -3179200 
1943.090 -3036341 -2824662 -2581729 -2337668 -2111759 -1914669 -1753541 
1943.512 -1631909 -1549856 -1503682 -1485579 -1484567 -1488131 -1486280 
1943.935 -1473144 -1448689 -1417839 -1388797 -1369878 -1366542 -1380430 
1944.357 -1408859 -1446180 -1485028 -1518707 -1542476 -1554108 -1554297 
1944.779 -1546150 -1534452 -1523957 -1518563 -1519926 -1527156 -1537155 
1945.201 -1546019 -1550735 -1550272 -1546054 -1541123 -1538626 -1539809 
1945.623 -1543132 -1544414 -1539013 -1523890 -1499899 -1471747 -1447032 
1946.045 -1433246 -1434993 -1452951 -1483562 -1520815 -1557935 -1590103 
1946.467 -1615315 -1634226 -1648956 -1661644 -1673228 -1683098 -1689517 
1946.889 -1690502 -1684701 -1671446 -1650698 -1622762 -1588142 -1547762 
1947.312 -1503231 -1457091 -1412390 -1372296 -1339438 -1315169 -1299688 
1947.734 -1292050 -1290847 -1294365 -1300868 -1308620 -1315490 -1319212 
1948.156 -1317737 -1309729 -1295404 -1276760 -1257393 -1241309 -1232070 
1948.578 -1231635 -1239738 -1254129 -1271445 -1288576 -1303550 -1316339 
1949.000 -1328748 -1343779 -1364311 -1391829 -1425475 -1461756 -1494883 
1949.422 -1517980 -1525566 -1514838 -1487401 -1448991 -1408779 -1376292 
1949.844 -1358415 -1357718 -1371403 -1392535 -1412127 -1422961 -1421511 
1950.266 -1409125 -1390812 -1373455 -1362914 -1361755 -1368886 -1380115 
1950.688 -1390180 -1394156 -1389397 -1375776 -1355502 -1332032 -1309282 
1951.111 -1291017 -1279981 -1278060 -1285868 -1302778 -1326772 -1354680 
1951.533 -1382950 -1407826 -1426465 -1437321 -1440157 -1435994 -1426767 
1951.955 -1415088 -1403666 -1395276 -1392160 -1395394 -1404509 -1417156 
1952.377 -1429809 -1438279 -1439427 -1432224 -1418365 -1401715 -1387016 
1952.799 -1378581 -1378565 -1386804 -1401144 -1418911 -1437904 -1457271 
1953.221 -1477333 -1498740 -1521340 -1543506 -1562100 -1573458 -1574643 
1953.643 -1564375 -1543576 -1515082 -1483053 -1451545 -1424279 -1403993 
1954.065 -1392231 -1389522 -1395279 -1407826 -1424368 -1441408 -1455665 
1954.488 -1464610 -1467590 -1465969 -1462993 -1462563 -1468419 -1483117 
1954.910 -1507363 -1539972 -1578203 -1618443 -1656178 -1686853 -1706424 
1955.332 -1711795 -1701858 -1677963 -1643913 -1604788 -1565945 -1531714 
1955.754 -1504467 -1484977 -1473003 -1468243 -1470943 -1481871 -1501541 
1956.176 -1529190 -1561898 -1594738 -1621291 -1635930 -1635368 -1620059 
1956.598 -1594064 -1564337 -1538719 -1523397 -1521925 -1534135 -1556605 
1957.020 -1583261 -1607209 -1622366 -1624419 -1612416 -1589135 -1561115 
1957.442 -1536774 -1525045 -1532802 -1562403 -1610909 -1670289 -1730087 
1957.865 -1779138 -1809319 -1817404 -1805070 -1777974 -1743426 -1708752 
1958.287 -1678973 -1656599 -1641794 -1633151 -1628332 -1624837 -1620432 
1958.709 -1613310 -1602492 -1588206 -1572001 -1556439 -1544276 -1537714 
1959.131 -1537270 -1541542 -1547512 -1551928 -1552340 -1548283 -1541376 
1959.553 -1534855 -1532223 -1535837 -1546249 -1561953 -1580066 -1596974 
1959.975 -1609584 -1615714 -1614319 -1605433 -1589979 -1569569 -1546150 
1960.397 -1521996 -1499361 -1480004 -1465190 -1455499 -1450958 -1451448 
1960.819 -1456985 -1467798 -1484103 -1505651 -1531346 -1559005 -1585880 
1961.241 -1609009 -1626104 -1636134 -1639296 -1636830 -1630282 -1621141 
1961.664 -1610373 -1598443 -1585641 -1572362 -1559351 -1547768 -1538859 
1962.086 -1533848 -1533598 -1538431 -1547944 -1560971 -1575672 -1589468 
1962.508 -1599644 -1603945 -1601020 -1591097 -1575899 -1558453 -1541977 
1962.930 -1529264 -1521951 -1520211 -1522991 -1528490 -1534666 -1539297 
1963.352 -1540154 -1535200 -1522680 -1501996 -1474214 -1442686 -1412201 
1963.774 -1388133 -1374748 -1373471 -1382449 -1397175 -1412692 -1425404 
1964.196 -1434997 -1444235 -1457613 -1478448 -1506537 -1537110 -1562413 
1964.618 -1574369 -1568012 -1544312 -1510442 -1477974 -1458033 -1458424 
1965.041 -1480170 -1517721 -1560537 -1597430 -1620324 -1625890 -1616234 
1965.463 -1596996 -1575043 -1555550 -1541178 -1531919 -1526183 -1521986 
1965.885 -1518070 -1514323 -1511728 -1512083 -1517513 -1530633 -1553939 
1966.307 -1589439 -1637781 -1697363 -1763491 -1828197 -1882423 -1917504 
1966.729 -1928348 -1915129 -1882988 -1839835 -1793247 -1749165 -1710718 
1967.151 -1679305 -1656551 -1645652 -1652162 -1683506 -1746281 -1844192 
1967.573 -1974725 -2128029 -2284602 -2418254 -2503811 -2523999 -2477686 
1967.995 -2378441 -2248542 -2108963 -1975029 -1856093 -1755924 -1675734 
1968.417 -1615325 -1573599 -1548187 -1534961 -1528490 -1522252 -1510653 
1968.840 -1490731 -1462839 -1430521 -1398917 -1372970 -1355037 -1344437 
1969.262 -1337813 -1331300 -1322147 -1310485 -1299254 -1293455 -1298035 
1969.684 -1315950 -1347293 -1389022 -1435901 -1481227 -1518723 -1543090 
1970.106 -1550630 -1539995 -1512512 -1472503 -1426388 -1382266 -1347691 
1970.528 -1327379 -1322276 -1328915 -1341061 -1351584 -1355824 -1353084 
1970.950 -1346917 -1343078 -1347280 -1362545 -1387870 -1418837 -1449660 
1971.372 -1475998 -1496365 -1512682 -1528714 -1548168 -1572371 -1599573 
1971.794 -1625217 -1644053 -1651728 -1646245 -1628408 -1601212 -1568722 
1972.217 -1534762 -1502761 -1475431 -1454829 -1442565 -1439337 -1444539 
1972.639 -1455851 -1469720 -1482041 -1489216 -1489437 -1482928 -1471735 
1973.061 -1458543 -1445840 -1434987 -1426010 -1418064 -1410123 -1401632 
1973.483 -1392754 -1384368 -1377840 -1374909 -1377361 -1387080 -1405667 
1973.905 -1433772 -1470473 -1512541 -1554901 -1590768 -1613709 -1619510 
1974.327 -1607333 -1580395 -1545089 -1509818 -1482060 -1467189 -1467340 
1974.749 -1481362 -1505455 -1534132 -1561588 -1581762 -1589334 -1580590 
1975.171 -1553708 -1509782 -1453051 -1390998 -1332566 -1286698 -1260593 
1975.594 -1257471 -1276393 -1312362 -1358348 -1406184 -1448734 -1481256 
1976.016 -1501157 -1508083 -1503097 -1488131 -1465347 -1437205 -1406710 
1976.438 -1377288 -1352946 -1337887 -1335358 -1347213 -1372935 -1409671 
1976.860 -1452256 -1494454 -1530537 -1555924 -1568501 -1568501 -1558043 
1977.282 -1540087 -1517747 -1493858 -1470738 -1450862 -1437096 -1432480 
1977.704 -1439991 -1461276 -1495654 -1539425 -1586270 -1628676 -1658978 
1978.126 -1671985 -1665822 -1642468 -1606998 -1566843 -1530332 -1504646 
1978.548 -1495523 -1505852 -1535220 -1579714 -1632442 -1684905 -1727862 
1978.970 -1754028 -1759380 -1743770 -1710693 -1666140 -1616956 -1568840 
1979.393 -1526206 -1492127 -1468925 -1459244 -1465809 -1490593 -1533467 
1979.815 -1590825 -1655502 -1717200 -1765823 -1793606 -1797475 -1779863 
1980.237 -1747971 -1711425 -1678690 -1655706 -1644091 -1641673 -1643629 
1980.659 -1644535 -1640020 -1627464 -1606500 -1578861 -1547931 -1517897 
1981.081 -1493433 -1478768 -1476513 -1487119 -1508297 -1535581 -1562857 
1981.503 -1584248 -1595591 -1595125 -1583823 -1564727 -1541977 -1519337 
1981.925 -1499816 -1485428 -1477234 -1475652 -1480305 -1489757 -1501035 
1982.347 -1509773 -1511283 -1501506 -1479114 -1446433 -1409905 -1378035 
1982.770 -1359382 -1359844 -1380331 -1416460 -1459715 -1500882 -1532047 
1983.192 -1549565 -1554552 -1551880 -1547647 -1546643 -1550889 -1559137 
1983.614 -1568163 -1574404 -1576011 -1573343 -1568616 -1564315 -1561873 
1984.036 -1560572 -1557963 -1550726 -1536541 -1515238 -1489082 -1461843 
1984.458 -1437337 -1418215 -1405055 -1396822 -1392032 -1389975 -1391435 
1984.880 -1398276 -1412278 -1433711 -1460420 -1488246 -1511946 -1527549 
1985.302 -1533838 -1532878 -1528954 -1526929 -1530013 -1538373 -1549018 
1985.724 -1557059 -1558107 -1549680 -1532559 -1510154 -1487561 -1469300 
1986.146 -1457812 -1452958 -1452381 -1452637 -1450413 -1443843 -1432769 
1986.569 -1418686 -1403993 -1391663 -1384619 -1385293 -1395735 -1417243 
1986.991 -1450176 -1493654 -1545418 -1601921 -1658168 -1708873 -1748710 
1987.413 -1773292 -1780324 -1769914 -1745053 -1710778 -1673930 -1641290 
1987.835 -1617869 -1606040 -1604619 -1609610 -1615356 -1617115 -1612802 
1988.257 -1604249 -1596776 -1598037 -1615411 -1653078 -1710476 -1781227 
1988.679 -1854607 -1916644 -1954919 -1962150 -1938093 -1889282 -1826275 
1989.101 -1760805 -1701963 -1655955 -1625635 -1611015 -1610152 -1619829 
1989.523 -1636255 -1654918 -1671166 -1680720 -1680079 -1667907 -1645712 
1989.946 -1618230 -1592112 -1574723 -1571851 -1585481 -1612991 -1647397 
1990.368 -1679818 -1701352 -1706424 -1694415 -1669642 -1639794 -1613249 
1990.790 -1597015 -1594131 -1603543 -1620678 -1639816 -1655572 -1664584 
1991.212 -1666220 -1661941 -1654207 -1645055 -1635419 -1624961 -1612984 
1991.634 -1599813 -1588053 -1583360 -1594585 -1631568 -1704213 -1819577 
1992.056 -1979135 -2174316 -2382911 -2571609 -2701057 -2743727 -2695969 
1992.478 -2578079 -2422112 -2259204 -2113602 -1998147 -1917075 -1867146 
1992.900 -1840216 -1825366 -1812179 -1793797 -1767369 -1734379 -1698991 
1993.323 -1666746 -1642563 -1629481 -1628057 -1635965 -1648433 -1658994 
1993.745 -1661804 -1652784 -1631370 -1600624 -1566558 -1536006 -1514022 
1994.167 -1502751 -1500450 -1502617 -1503471 -1498731 -1486834 -1469476 
1994.589 -1450388 -1433791 -1422630 -1417503 -1417028 -1418882 -1421412 
1995.011 -1424416 -1429367 -1438359 -1453051 -1473375 -1497290 -1521270 
1995.433 -1541856 -1556729 -1565564 -1569914 -1572464 -1575746 -1580967 
1995.855 -1587653 -1593805 -1596900 -1594499 -1585280 -1569233 -1547487 
1996.277 -1521785 -1494143 -1466577 -1440892 -1418972 -1402677 -1393575 
1996.699 -1392722 -1400098 -1414437 -1433153 -1453025 -1471011 -1484807 
1997.122 -1493567 -1497764 -1498759 -1497844 -1495648 -1491806 -1485297 
1997.544 -1475110 -1461176 -1444779 -1428530 -1415463 -1407695 -1405626 
1997.966 -1407400 -1409536 -1408031 -1400271 -1386018 -1367846 -1350145 
1998.388 -1338031 -1335554 -1344418 -1363955 -1391618 -1424291 -1458988 
1998.810 -1493663 -1526980 -1557557 -1583535 -1602278 -1610737 -1606720 
1999.232 -1589787 -1562234 -1528640 -1495533 -1469502 -1455310 -1455223 
1999.654 -1468330 -1491272 -1518972 -1546454 -1569569 -1585510 -1593112 
2000.076 -1592333 -1583887 -1568744 -1548104 -1523365 -1496163 -1468576 
2000.499 -1442767 -1420485 -1402783 -1389660 -1380241 -1373291 -1368077 
2000.921 -1364882 -1365127 -1370626 -1382593 -1400339 -1420851 -1438911 
2001.343 -1448689 -1446106 -1430188 -1404063 -1373997 -1347807 -1331560 
2001.765 -1327970 -1335531 -1349628 -1364311 -1374784 -1379217 -1378687 
2002.187 -1376219 -1374784 -1376110 -1379990 -1385007 -1389699 -1393790 
2002.609 -1398369 -1405266 -1415611 -1428905 -1442712 -1453913 -1460071 
2003.031 -1461151 -1459795 -1460625 -1468016 -1483783 -1506083 -1529629 
2003.453 -1547627 -1553862 -1545514 -1523826 -1493657 -1461157 -1432153 
2003.875 -1410206 -1396062 -1388569 -1385909 -1386945 -1391695 -1401198 
2004.298 -1416778 -1439289 -1468624 -1503682 -1542540 -1582960 -1622229 
2004.720 -1657179 -1684395 -1700045 -1700638 -1684003 -1649786 -1600113 
2005.142 -1539253 -1473515 -1409687 -1354378 -1313478 -1290969 -1288862 
2005.564 -1306595 -1340945 -1385934 -1433775 -1476933 -1509216 -1528039 
2005.986 -1534961 -1535325 -1536090 -1543339 -1560236 -1585529 -1614054 
2006.408 -1638224 -1651314 -1648982 -1631000 -1600867 -1564855 -1529853 
2006.830 -1501157 -1481861 -1472093 -1469656 -1470828 -1471802 -1469467 
2007.252 -1462147 -1450096 -1435423 -1421858 -1413590 -1414783 -1428312 
2007.675 -1454948 -1493289 -1539979 -1590602 -1640033 -1683586 -1717130 
2008.097 -1737092 -1740912 -1727129 -1695909 -1649416 -1592109 -1530297 
2008.519 -1470572 -1419218 -1380250 -1354876 -1341732 -1337986 -1340855 
2008.941 -1348693 -1361726 -1381425 -1409331 -1445725 -1488790 -1534628 
2009.363 -1578612 -1616368 -1645412 -1665707 -1679330 -1689291 -1698134 
2009.785 -1706981 -1715095 -1720362 -1720308 -1713480 -1700221 -1683056 
2010.207 -1665866 -1653288 -1649017 -1654513 -1668312 -1685874 -1700718 
2010.629 -1705382 -1694096 -1664345 -1617913 -1560575 -1501010 -1448526 
2011.052 -1409821 -1387914 -1381200 -1384840 -1392340 -1398468 -1401038 
2011.474 -1401256 -1402854 -1410052 -1425619 -1449330 -1477897 -1505907 
2011.896 -1528215 -1541238 -1544289 -1539393 -1530435 -1521471 -1515248 
2012.318 -1512678 -1512717 -1513133 -1511341 -1505648 -1495622 -1482447 
2012.740 -1468496 -1456992 -1451173 -1453288 -1464005 -1481826 -1503330 
2013.162 -1523487 -1537119 -1540487 -1532223 -1514131 -1490737 -1468346 
2013.584 -1452682 -1447603 -1453724 -1468234 -1485454 -1498388 -1501080 
2014.006 -1489508 -1463220 -1425189 -1381553 -1339695 -1306479 -1286743 
2014.428 -1281570 -1288145 -1300395 -1311388 -1315075 -1308816 -1294301 
2014.851 -1277323 -1265662 -1265919 -1281560 -1311012 -1348244 -1384144 
2015.273 -1410181 -1420585 -1413875 -1392799 -1362866 -1330342 -1300013 
2015.695 -1274894 -1256067 -1243450 -1236562 -1234946 -1238037 -1244754 
2016.117 -1253473 -1262247 -1269639 -1275592 -1281882 -1291837 -1309112 
2016.539 -1336678 -1375683 -1425279 -1483257 -1547167 -1615331 -1686633 
2016.961 -1759870 -1832228 -1897590 -1947085 -1970409 -1959518 -1912751 
2017.383 -1836043 -1741208 -1641128 -1547554 -1468375 -1407400 -1365801 
2017.805 -1342641 -1335907 -1342564 -1358935 -1380392 -1401484 -1417198 
2018.228 -1423695 -1419837 -1407765 -1392844 -1382102 -1381640 -1394974 
2018.650 -1420960 -1453999 -1484753 -1503682 -1503702 -1482316 -1442295 
2019.072 -1390552 -1336039 -1286450 -1247069 -1219259 -1200853 -1187201 
2019.494 -1173507 -1156855 -1137348 -1118278 -1104820 -1102523 -1114793 
2019.916 -1142038 -1181217 -1227077 -1273198 -1313745 -1344903 -1364796 
2020.338 -1373339 -1371423 -1360281 -1341115 -1315255 -1284690 -1252072 
2020.760 -1220654 -1193807 -1173861 -1161740 -1156572 -1156281 -1158127 
2021.182 -1159798 -1160120 -1159214 -1158346 -1159411 -1164521 -1175367 
2021.604 -1193056 -1217945 -1249548 -1286492 -1326550 -1367040 -1404888 
2022.027 -1437141 -1461442 -1475946 -1479565 -1471757 -1452496 -1422287 
2022.449 -1382337 -1334969 -1283423 -1231944 -1185344 -1147873 -1122956 
2022.871 -1112407 -1116159 -1132319 -1157404 -1187076 -1216218 -1240134 
2023.293 -1255353 -1260181 -1255414 -1244104 -1231026 -1220744 -1216556 
2023.715 -1219195 -1226768 -1235513 -1241422 -1242198 -1237973 -1231542 
2024.137 -1227081 -1228878 -1239274 -1258105 -1282680 -1309138 -1333459 
2024.559 -1352567 -1364963 -1370296 -1368845 -1361090 -1347579 -1329182 
2024.981 -1307353 -1284491 -1263496 -1247053 -1237161 -1234202 -1236875 
2025.404 -1242233 -1246580 -1245740 -1236050 -1215274 -1183171 -1142283 
2025.826 -1097693 -1057168 -1029132 -1020634 -1035684 -1073450 -1128309 
2026.248 -1191096 -1252542 -1305199 -1345648 -1374703 -1395956 -1413298 
2026.670 -1428572 -1440552 -1445465 -1438885 -1417714 -1382121 -1335850 
2027.092 -1285572 -1238488 -1201062 -1177609 -1169543 -1175741 -1192849 
2027.514 -1216127 -1239551 -1257084 -1264004 -1257902 -1240034 -1215148 
2027.936 -1190702 -1173790 -1168898 -1175709 -1189190 -1200934 -1202500 
2028.358 -1189297 -1162098 -1127296 -1093981 -1071371 -1064637 -1073598 
2028.781 -1093109 -1115917 -1135592 -1148889 -1156749 -1163085 -1172574 
2029.203 -1187952 -1208939 -1231999 -1252127 -1264346 -1265903 -1257017 
2029.625 -1240678 -1221269 -1203183 -1189680 -1182013 -1179589 -1180482 
2030.047 -1182526 -1183977 -1184287 -1184261 -1185912 -1191679 -1203451 
2030.469 -1221843 -1245621 -1271892 -1296562 -1315818 -1327003 -1329400 
2030.891 -1324281 -1314371 -1302755 -1291567 -1281534 -1271776 -1260429 
2031.313 -1245508 -1225927 -1202074 -1175916 -1150331 -1128332 -1112119 
2031.735 -1102129 -1096798 -1092679 -1085612 -1071445 -1047591 -1013895 
2032.157 -973026 -930048 -891158 -863021 -850761 -857463 -883906 -928738 
2032.640 -988931 -1060165 -1137529 -1215116 -1286398 -1345096 -1385206 
2033.062 -1402543 -1395616 -1366099 -1318666 -1259968 -1197978 -1139759 
2033.484 -1091099 -1056104 -1036923 -1034526 -1048801 -1078709 -1121862 
2033.906 -1174232 -1230311 -1282837 -1324307 -1348488 -1351475 -1333305 
2034.328 -1298196 -1254236 -1211043 -1178315 -1163353 -1168962 -1193162 
2034.750 -1229612 -1270112 -1306003 -1331155 -1343168 -1343181 -1334783 
2035.173 -1322169 -1308639 -1295382 -1281779 -1266296 -1247858 -1226800 
2035.595 -1205088 -1185505 -1170801 -1162495 -1160420 -1163024 -1168243 
2036.017 -1174587 -1181736 -1190773 -1203812 -1223202 -1250427 -1285572 
2036.439 -1326727 -1370273 -1410918 -1442715 -1460577 -1461032 -1443811 
2036.861 -1412127 -1372642 -1333485 -1302485 -1285263 -1283429 -1294748 
2037.283 -1314040 -1335679 -1354831 -1368950 -1377634 -1381393 -1380292 
2037.705 -1373098 -1357246 -1330217 -1291095 -1241956 -1187862 -1136125 
2038.127 -1094559 -1068723 -1061061 -1069988 -1090928 -1117099 -1141638 
2038.550 -1159330 -1167214 -1165540 -1157556 -1149105 -1146827 -1156846 
2038.972 -1182855 -1224674 -1277899 -1334718 -1386689 -1426372 -1450061 
2039.394 -1458488 -1456104 -1448850 -1441715 -1437372 -1435570 -1434388 
2039.816 -1431938 -1428065 -1424862 -1425975 -1434676 -1452512 -1478018 
2040.238 -1507197 -1534180 -1553299 -1560546 -1554118 -1534705 -1504947 
2040.660 -1468916 -1431101 -1396062 -1367756 -1348513 -1338696 -1336322 
2041.082 -1337967 -1339760 -1339429 -1337662 -1338593 -1348549 -1373670 
2041.504 -1417544 -1478685 -1549750 -1618242 -1670678 -1695123 -1685100 
2041.927 -1641051 -1569505 -1480805 -1386002 -1296269 -1220825 -1166562 
2042.349 -1138249 -1137474 -1162482 -1207956 -1266260 -1328231 -1385090 
2042.771 -1430704 -1461871 -1478729 -1483747 -1480785 -1473810 -1466219 
2043.193 -1461115 -1461138 -1468515 -1484842 -1510333 -1543196 -1579369 
2043.615 -1613409 -1639038 -1650937 -1646306 -1625431 -1591889 -1551470 
2044.037 -1511546 -1479008 -1459091 -1454669 -1465472 -1488249 -1517283 
2044.459 -1546284 -1569316 -1582436 -1584593 -1577283 -1563688 -1547049 
2044.881 -1529728 -1512378 -1494310 -1474486 -1452846 -1431255 -1413744 
2045.303 -1405231 -1410363 -1431608 -1467945 -1514403 -1562637 -1603313 
2045.726 -1627132 -1627888 -1603980 -1559089 -1501435 -1442065 -1392978 
2046.148 -1363190 -1357320 -1374167 -1407566 -1447779 -1484388 -1509616 
2046.570 -1519241 -1513606 -1496375 -1473160 -1449276 -1428549 -1413215 
2046.992 -1403832 -1400066 -1401000 -1405330 -1411143 -1416005 -1417602 
2047.414 -1414280 -1406071 -1394958 -1384779 -1379724 -1382747 -1394352 
2047.836 -1411941 -1430540 -1443936 -1447148 -1437452 -1415267 -1383646 
2048.258 -1347444 -1311864 -1280930 -1257310 -1241802 -1233796 -1231783 
2048.680 -1234183 -1239854 -1248447 -1260451 -1276773 -1298093 -1324159 
2049.103 -1353351 -1382869 -1409780 -1431797 -1448484 -1461327 -1473240 
2049.525 -1486978 -1503801 -1522732 -1541056 -1555684 -1564925 -1569709 
2049.947 -1573455 -1580443 -1593186 -1610647 -1627531 -1636294 -1629414 
2050.369 -1603361 -1560422 -1508938 -1460202 -1424968 -1410020 -1415569 
2050.791 -1435689 -1460356 -1479530 -1485204 -1473804 -1446212 -1406562 
2051.213 -1360371 -1312658 -1267451 -1227016 -1192205 -1162879 -1138400 
2051.635 -1118184 -1102287 -1091858 -1089354 -1098126 -1121135 -1159914 
2052.057 -1213202 -1276770 -1343634 -1405998 -1457187 -1492703 -1511382 
2052.479 -1514794 -1506300 -1489581 -1468096 -1444853 -1422412 -1403444 
2052.902 -1390507 -1385437 -1388922 -1399938 -1416111 -1434105 -1450833 
2053.324 -1463995 -1472084 -1474146 -1469271 -1456482 -1435478 -1407711 
2053.746 -1377358 -1350807 -1336090 -1339740 -1364186 -1406007 -1456255 
2054.168 -1502671 -1532703 -1538459 -1518412 -1478073 -1427222 -1377394 
2054.590 -1337912 -1313121 -1302395 -1300907 -1302399 -1300951 -1293365 
2055.012 -1279604 -1262524 -1246464 -1235909 -1234244 -1242629 -1259894 
2055.434 -1282815 -1307469 -1329918 -1347739 -1360686 -1370549 -1380372 
2055.856 -1393062 -1410466 -1432570 -1457732 -1483482 -1507827 -1529773 
2056.279 -1549463 -1567428 -1583625 -1596635 -1603856 -1602163 -1589570 
2056.701 -1566344 -1535651 -1502636 -1472900 -1451029 -1438808 -1435243 
2057.123 -1437106 -1440747 -1443218 -1443292 -1441430 -1438965 -1436933 
2057.545 -1435288 -1432749 -1427395 -1417644 -1403059 -1384689 -1364805 
2057.967 -1346088 -1330477 -1318640 -1309790 -1302286 -1294365 -1285263 
2058.389 -1275663 -1267834 -1264980 -1270219 -1286019 -1313330 -1351539 
2058.811 -1398613 -1451881 -1508150 -1564212 -1617214 -1664377 -1703053 
2059.233 -1730950 -1745890 -1746116 -1730568 -1698927 -1652009 -1591959 
2059.656 -1522860 -1450359 -1381826 -1325692 -1289300 -1277799 -1292069 
2060.078 -1328131 -1377146 -1427623 -1468861 -1492703 -1496423 -1482662 
2060.500 -1458408 -1431932 -1410569 -1399084 -1398889 -1409019 -1427245 
2060.922 -1451240 -1478480 -1505968 -1529824 -1544756 -1545370 -1527799 
2061.344 -1491252 -1439154 -1378771 -1319932 -1271544 -1240021 -1227677 
2061.766 -1232865 -1251303 -1278005 -1309147 -1342365 -1376877 -1412564 
2062.188 -1449135 -1485729 -1520866 -1552788 -1579970 -1601272 -1615893 
2062.610 -1623474 -1624103 -1618549 -1608326 -1595856 -1583909 -1574768 
2063.032 -1569735 -1568652 -1570208 -1572605 -1574493 -1575340 -1575426 
2063.455 -1575145 -1574337 -1571876 -1566037 -1555205 -1538853 -1518016 
2063.877 -1495120 -1473048 -1454082 -1439552 -1429765 -1424840 -1425459 
2064.299 -1432894 -1448340 -1471453 -1499275 -1525716 -1542908 -1544296 
2064.721 -1526929 -1493922 -1453852 -1419408 -1402642 -1411646 -1448241 
2065.143 -1507350 -1578158 -1646944 -1702046 -1736035 -1747653 -1740686 
2065.565 -1721808 -1697790 -1673474 -1651620 -1632681 -1615570 -1598465 
2065.987 -1579871 -1559421 -1538744 -1521330 -1512234 -1516553 -1537235 
2066.409 -1573749 -1621157 -1671446 -1714502 -1741418 -1746600 -1728607 
2066.832 -1690483 -1638664 -1581932 -1529018 -1488032 -1465411 -1464620 
2067.254 -1485688 -1524306 -1572426 -1618456 -1650354 -1659029 -1640557 
2067.676 -1598392 -1542546 -1487715 -1447798 -1432820 -1445946 -1483008 
2068.098 -1533966 -1586021 -1627949 -1651403 -1653138 -1634596 -1601103 
2068.520 -1559977 -1518886 -1485019 -1463150 -1455149 -1459478 -1471847 
2068.942 -1486043 -1495930 -1497588 -1490321 -1476923 -1462298 -1451990 
2069.364 -1449782 -1456470 -1469826 -1485829 -1500174 -1509674 -1513232 
2069.786 -1511443 -1505872 -1497905 -1488361 -1477423 -1465222 -1452477 
2070.208 -1440773 -1432233 -1428905 -1431717 -1439783 -1450173 -1458754 
2070.631 -1461086 -1453877 -1436516 -1411682 -1385350 -1365082 -1358919 
2071.053 -1372565 -1407602 -1460606 -1523800 -1587069 -1639874 -1674944 
2071.475 -1689504 -1685737 -1669189 -1647004 -1625590 -1608700 -1597692 
2071.897 -1592010 -1590391 -1591809 -1595846 -1602448 -1611433 -1622184 
2072.319 -1633757 -1645339 -1656634 -1667878 -1679327 -1690546 -1699918 
2072.741 -1704866 -1703059 -1693504 -1677771 -1659702 -1644541 -1636396 
2073.163 -1636345 -1641351 -1645214 -1640512 -1621591 -1587311 -1541952 
2073.585 -1494409 -1454819 -1432422 -1432243 -1453922 -1492117 -1538498 
2074.008 -1584337 -1621980 -1646953 -1657859 -1655766 -1643055 -1622418 
2074.430 -1596118 -1565564 -1531717 -1495504 -1458267 -1422242 -1390405 
2074.852 -1365823 -1351433 -1349034 -1359157 -1381107 -1413369 -1453746 
2075.274 -1499451 -1547093 -1592049 -1628676 -1651550 -1656503 -1643064 
2075.696 -1615439 -1583059 -1557842 -1550764 -1568492 -1609923 -1666064 
2076.118 -1721818 -1761954 -1774558 -1755485 -1708937 -1645853 -1579609 
2076.540 -1521321 -1478377 -1453031 -1444129 -1449016 -1465328 -1491060 
2076.962 -1523637 -1559076 -1591161 -1612279 -1616075 -1599059 -1562538 
2077.385 -1512042 -1456146 -1403236 -1359003 -1325853 -1302961 -1288039 
2077.807 -1279147 -1276120 -1280598 -1295305 -1322455 -1362856 -1415178 
2078.229 -1476286 -1541488 -1605299 -1662359 -1707300 -1736000 -1746218 
2078.651 -1738340 -1715725 -1684462 -1652338 -1626238 -1611104 -1608272 
2079.073 -1615596 -1628268 -1640573 -1647840 -1646988 -1637072 -1618775 
2079.495 -1593761 -1564001 -1531689 -1499259 -1469166 -1443773 -1424833 
2079.917 -1412791 -1406659 -1404153 -1402453 -1398869 -1391608 -1379955 
2080.339 -1364089 -1344649 -1322462 -1298582 -1274427 -1252143 -1234711 
2080.761 -1225280 -1226804 -1241148 -1268523 -1307389 -1354802 -1407130 
2081.184 -1460196 -1510067 -1553123 -1585944 -1605791 -1610801 -1600199 
2081.606 -1574656 -1536186 -1487907 -1433400 -1376719 -1322009 -1273179 
2082.028 -1234118 -1207817 -1195770 -1197282 -1209335 -1227103 -1245102 
2082.450 -1259431 -1268816 -1275267 -1282882 -1296276 -1318184 -1348115 
2082.872 -1382308 -1415184 -1441754 -1459158 -1467856 -1470886 -1472449 
2083.294 -1475581 -1481192 -1487846 -1492908 -1493654 -1488521 -1477291 
2083.716 -1460526 -1438696 -1411836 -1379965 -1344125 -1307408 -1275621 
2084.138 -1255720 -1254219 -1274601 -1315355 -1369496 -1425850 -1472859 
2084.561 -1500606 -1504326 -1485259 -1450058 -1408381 -1369949 -1343020 
2084.983 -1331962 -1337279 -1355824 -1382243 -1409905 -1432394 -1445305 
2085.405 -1446702 -1437904 -1422855 -1407480 -1397615 -1397150 -1406970 
2085.827 -1424279 -1443478 -1457482 -1460452 -1449148 -1424198 -1389718 
2086.249 -1352599 -1320614 -1300112 -1295475 -1307852 -1335486 -1374219 
2086.671 -1418721 -1463499 -1503506 -1535200 -1556650 -1567571 -1569035 
2087.093 -1563138 -1552430 -1539278 -1525684 -1513053 -1502136 -1493442 
2087.515 -1487490 -1484977 -1486949 -1494348 -1507597 -1525880 -1546889 
2087.938 -1566600 -1579775 -1581561 -1568182 -1538619 -1495049 -1443081 
2088.360 -1390462 -1345186 -1314365 -1301913 -1307996 -1328854 -1358152 
2088.782 -1388043 -1410918 -1421601 -1417920 -1401500 -1377066 -1351880 
2089.204 -1333568 -1328006 -1338253 -1363197 -1398077 -1435259 -1467068 
2089.626 -1487529 -1494108 -1488352 -1475181 -1461218 -1452214 -1452009 
2090.048 -1461327 -1478275 -1499294 -1520802 -1540359 -1557020 -1571310 
2090.470 -1584558 -1598088 -1612601 -1627850 -1642822 -1656114 -1666255 
2090.892 -1672183 -1673519 -1670722 -1665114 -1658630 -1653623 -1652067 
2091.314 -1655052 -1662477 -1673034 -1684609 -1694832 -1701932 -1704844 
2091.737 -1703432 -1698099 -1689590 -1678779 -1666638 -1654599 -1644427 
2092.159 -1638084 -1637232 -1642493 -1652988 -1666329 -1679490 -1689590 
2092.581 -1695001 -1695929 -1694237 -1692522 -1692927 -1696391 -1702187 
2093.003 -1708399 -1712400 -1711887 -1705149 -1691079 -1669160 -1639360 
2093.425 -1602553 -1560840 -1518192 -1480174 -1452451 -1439885 -1444360 
2093.847 -1464159 -1494092 -1527556 -1558657 -1583989 -1603610 -1620145 
2094.269 -1636759 -1654810 -1672556 -1685297 -1687592 -1675371 -1648593 
2094.691 -1611528 -1572116 -1538619 -1516742 -1507693 -1507741 -1509661 
2095.114 -1505222 -1488685 -1458062 -1415809 -1367477 -1320389 -1281560 
2095.536 -1256122 -1247494 -1256972 -1284047 -1326354 -1379810 -1438590 
2095.958 -1495344 -1543148 -1576446 -1592608 -1592732 -1581206 -1564430 
2096.380 -1548411 -1537813 -1534427 -1537394 -1544037 -1551234 -1556518 
2096.802 -1558552 -1557298 -1553549 -1548436 -1542981 -1537849 -1533272 
2097.224 -1528970 -1524130 -1517552 -1508061 -1495024 -1478998 -1462163 
2097.646 -1448286 -1441581 -1445641 -1462083 -1489680 -1524446 -1560565 
2098.068 -1592534 -1615960 -1628763 -1630926 -1623598 -1608045 -1585005 
2098.490 -1555006 -1519123 -1479965 -1442222 -1411541 -1393318 -1390610 
2098.913 -1402623 -1424538 -1448875 -1468471 -1478374 -1478070 -1471337 
2099.335 -1464940 -1465527 -1477093 -1499390 -1528023 -1555745 -1574848 
2099.757 -1580235 -1570438 -1548251 -1519232 -1490372 -1467689 -1454595 
2100.179 -1451660 -1456620 -1465607 -1474111 -1478749 -1477714 -1471219 
2100.601 -1460942 -1449487 -1439526 -1433105 -1431698 -1436199 -1447247 
2101.023 -1465293 -1490302 -1521318 -1555815 -1589854 -1618638 -1637576 
2101.445 -1644178 -1638904 -1625536 -1609648 -1597315 -1592694 -1596610 
2101.867 -1606589 -1618089 -1626726 -1629819 -1627728 -1623279 -1620601 
2102.290 -1622915 -1631440 -1644959 -1660723 -1675514 -1686881 -1693704 
2102.712 -1695616 -1692372 -1683280 -1667231 -1643728 -1613984 -1581925 
2103.134 -1553558 -1535731 -1534062 -1550345 -1581708 -1620681 -1657964 
2103.556 -1684226 -1693475 -1684759 -1661985 -1632417 -1603920 -1583264 
2103.978 -1573838 -1575576 -1585507 -1599369 -1612780 -1622287 -1626053 
2104.400 -1623404 -1614488 -1599650 -1579270 -1553641 -1523266 -1489127 
2104.822 -1452772 -1416191 -1381659 -1351118 -1326184 -1308138 -1298090 
2105.244 -1297314 -1307173 -1328459 -1360609 -1400663 -1443318 -1480840 
2105.667 -1505532 -1511952 -1499041 -1471299 -1438119 -1411720 -1402302 
2106.089 -1415723 -1450868 -1500411 -1552353 -1594230 -1617294 -1618044 
2106.511 -1599375 -1568664 -1535805 -1509373 -1495097 -1494899 -1507088 
2106.933 -1527354 -1549952 -1569409 -1580999 -1581765 -1571052 -1550502 
2107.355 -1523557 -1494332 -1466718 -1442911 -1423105 -1405921 -1389628 
2107.777 -1373374 -1358229 -1346837 -1342635 -1348067 -1363200 -1385337 
2108.199 -1409687 -1431300 -1446228 -1453096 -1452980 -1448721 -1443347 
2108.621 -1439234 -1437782 -1439481 -1444568 -1453208 -1465162 -1479066 
2109.043 -1491698 -1498439 -1493702 -1473285 -1436045 -1385177 -1327623 
2109.466 -1272542 -1229216 -1203924 -1199071 -1212922 -1240903 -1276889 
2109.888 -1314918 -1350604 -1380908 -1404573 -1421787 -1434035 -1443728 
2110.310 -1453621 -1466196 -1482582 -1501970 -1521589 -1537791 -1546978 
2110.732 -1547138 -1538565 -1523515 -1505187 -1486184 -1467843 -1449962 
2111.154 -1431727 -1412852 -1394377 -1378642 -1368495 -1365724 -1370273 
2111.576 -1380051 -1392061 -1403547 -1413404 -1422380 -1432268 -1444414 
2111.998 -1458392 -1471632 -1480510 -1482012 -1475562 -1463589 -1451029 
2112.420 -1443337 -1443773 -1452179 -1464691 -1475738 -1479905 -1474672 
2112.843 -1461211 -1443773 -1427414 -1415534 -1408381 -1402790 -1393569 
2113.265 -1375792 -1347338 -1309810 -1268359 -1229377 -1198884 -1179937 
2113.687 -1171929 -1171049 -1172204 -1171226 -1166382 -1159211 -1153842 
2114.109 -1155468 -1167824 -1191795 -1224526 -1260532 -1292918 -1316088 
2114.531 -1327765 -1329603 -1326691 -1325326 -1331158 -1346589 -1370260 
2114.953 -1397499 -1422836 -1441965 -1453788 -1460773 -1468105 -1481416 
2115.375 -1504076 -1535917 -1572755 -1608128 -1635059 -1649126 -1649808 
2115.797 -1640687 -1627808 -1617878 -1616068 -1623943 -1639172 -1655802 
2116.219 -1666383 -1663105 -1640333 -1595987 -1531999 -1454012 -1370029 
2116.642 -1289441 -1220332 -1168588 -1137064 -1125452 -1130947 -1149334 
2117.064 -1176396 -1208178 -1241518 -1273932 -1302939 -1326013 -1340823 
2117.486 -1345542 -1339808 -1325309 -1306029 -1287280 -1274939 -1273823 
2117.908 -1286138 -1310880 -1343795 -1378787 -1408782 -1427924 -1433044 
2118.330 -1423952 -1403386 -1375968 -1347254 -1322015 -1303871 -1295070 
2118.752 -1296527 -1308328 -1329940 -1360230 -1397175 -1437837 -1478758 
2119.174 -1516211 -1547372 -1570969 -1587446 -1598478 -1605893 -1610421 
2119.596 -1610979 -1604705 -1588030 -1558558 -1516317 -1464604 -1409090 
2120.019 -1356720 -1313275 -1281747 -1261990 -1251309 -1246052 -1243138 
2120.441 -1241322 -1241042 -1243486 -1249275 -1257561 -1265935 -1271560 
2120.863 -1272294 -1268140 -1261555 -1256946 -1259054 -1271239 -1294436 
2121.285 -1326794 -1364253 -1401625 -1434355 -1458988 -1473563 -1477509 
2121.707 -1471011 -1454765 -1429774 -1397682 -1360869 -1322443 -1286173 
2122.129 -1255407 -1232521 -1218077 -1210672 -1207060 -1203028 -1194864 
2122.551 -1180279 -1159498 -1135389 -1113243 -1099237 -1098617 -1114454 
2122.973 -1146101 -1189232 -1236234 -1278610 -1308324 -1319695 -1310784 
2123.396 -1283127 -1241241 -1190870 -1138546 -1090307 -1051055 -1025068 
2123.818 -1015258 -1022925 -1047245 -1084982 -1130579 -1176980 -1217890 
2124.240 -1248875 -1268931 -1280318 -1287717 -1296060 -1308318 -1324676 
2124.662 -1342365 -1357176 -1365078 -1364163 -1355149 -1340788 -1324114 
2125.084 -1307067 -1289370 -1269076 -1243718 -1212348 -1176664 -1141383 
2125.506 -1112733 -1096233 -1095134 -1108993 -1134311 -1165772 -1198803 
2125.928 -1230604 -1260583 -1289425 -1317531 -1343640 -1364783 -1376889 
2126.350 -1376976 -1364722 -1343277 -1318248 -1295581 -1279337 -1269704 
2126.772 -1262955 -1252900 -1234050 -1203789 -1164062 -1120454 -1080628 
2127.195 -1050949 -1033927 -1027601 -1026346 -1023433 -1013316 -994190 
2127.617 -968198 -940578 -917161 -902606 -898873 -905056 -918245 -934991 
2128.099 -952719 -970038 -986722 -1002995 -1018838 -1033642 -1046476 
2128.521 -1056501 -1063641 -1068694 -1073113 -1078324 -1085072 -1092963 
2128.943 -1100636 -1106118 -1107662 -1104406 -1096579 -1085344 -1072315 
2129.365 -1059072 -1046728 -1036017 -1027673 -1022695 -1022660 -1029397 
2129.788 -1044166 -1066926 -1095512 -1125911 -1152600 -1170443 -1176261 
2130.210 -1169849 -1154229 -1134750 -1117412 -1106354 -1102797 -1104448 
2130.632 -1106900 -1105033 -1095425 -1077594 -1054015 -1029015 -1006682 
2131.054 -989689 -978281 -970926 -965605 -961425 -959396 -962271 -973032 
2131.536 -993494 -1022890 -1057911 -1093215 -1123405 -1144720 -1155555 
2131.958 -1156559 -1149525 -1136322 -1117955 -1094643 -1066509 -1034260 
2132.381 -999780 -965780 -934803 -908544 -887188 -869806 -855296 -843521 
2132.863 -835900 -835159 -843889 -863129 -891100 -923471 -954262 -977927 
2133.345 -991716 -996457 -996367 -997157 -1004290 -1020601 -1045434 -1074814 
2133.828 -1103098 -1124752 -1135744 -1134892 -1123880 -1106951 -1089364 
2134.250 -1076821 -1074012 -1083376 -1104703 -1134766 -1168046 -1197311 
2134.672 -1215928 -1219446 -1206770 -1180543 -1146433 -1111754 -1082875 
2135.094 -1064443 -1058280 -1063651 -1077901 -1097557 -1119298 -1139998 
2135.516 -1157262 -1169488 -1175916 -1176989 -1174300 -1170165 -1166633 
2135.938 -1164453 -1162127 -1156168 -1141715 -1114635 -1073589 -1021236 
2136.361 -964283 -911649 -872859 -854488 -858610 -882247 -918748 -959487 
2136.843 -996114 -1022786 -1036017 -1034684 -1019287 -991405 -953623 -909563 
2137.325 -864584 -825072 -797566 -787750 -798454 -828947 -874632 -928612 
2137.808 -982706 -1029614 -1064711 -1086152 -1094840 -1093196 -1084213 
2138.230 -1070214 -1052514 -1031811 -1008761 -984805 -962825 -946709 -940928 
2138.712 -949114 -972585 -1009386 -1054031 -1098985 -1135631 -1157230 
2139.135 -1160824 -1147947 -1124187 -1097289 -1075215 -1062923 -1061475 
2139.557 -1067618 -1075602 -1078828 -1072515 -1055405 -1030064 -1002085 
2139.979 -977940 -963671 -962666 -975080 -997986 -1026401 -1054471 -1076572 
2140.461 -1088927 -1089793 -1079785 -1061297 -1037939 -1013455 -990725 
2140.883 -971529 -956281 -944469 -935341 -928437 -924012 -922877 -925913 
2141.366 -933570 -945396 -960187 -976194 -991894 -1006356 -1019414 -1031342 
2141.848 -1042358 -1052126 -1059755 -1063971 -1063822 -1059260 -1051282 
2142.270 -1041750 -1032465 -1024699 -1018621 -1013623 -1009039 -1005090 
2142.692 -1003345 -1006734 -1018378 -1040184 -1071562 -1108983 -1146353 
2143.115 -1176315 -1192930 -1192714 -1175961 -1146198 -1109296 -1071591 
2143.537 -1038120 -1012484 -996399 -990421 -994628 -1008981 -1033222 
2143.959 -1066308 -1106166 -1149338 -1191302 -1227696 -1254789 -1270444 
2144.381 -1274402 -1267950 -1253325 -1233026 -1209635 -1185393 -1162233 
2144.803 -1141825 -1125045 -1111864 -1101004 -1090443 -1077939 -1062354 
2145.225 -1044603 -1028194 -1018611 -1021443 -1040922 -1077687 -1128196 
2145.647 -1184790 -1238153 -1279276 -1301672 -1303244 -1286180 -1256093 
2146.069 -1219742 -1184067 -1154416 -1133901 -1123809 -1123728 -1132125 
2146.491 -1146566 -1164401 -1183081 -1200579 -1216002 -1229406 -1241573 
2146.914 -1253070 -1263534 -1271229 -1273507 -1267602 -1252224 -1228582 
2147.336 -1200766 -1174616 -1156059 -1149399 -1155675 -1172616 -1195599 
2147.758 -1219829 -1241721 -1260110 -1275975 -1291259 -1307131 -1322799 
2148.180 -1335111 -1339570 -1332023 -1310173 -1274888 -1230408 -1183687 
2148.602 -1142093 -1112339 -1098591 -1101473 -1118068 -1142557 -1167959 
2149.024 -1187027 -1194542 -1188488 -1170555 -1145730 -1121067 -1104270 
2149.446 -1100988 -1113934 -1141931 -1180553 -1222857 -1261269 -1289657 
2149.868 -1303961 -1303460 -1290551 -1270544 -1250131 -1236050 -1233902 
2150.291 -1246239 -1272095 -1306755 -1343367 -1373955 -1391669 -1392616 
2150.713 -1375997 -1344068 -1300717 -1250820 -1198922 -1149141 -1105850 
2151.135 -1073391 -1056185 -1057659 -1078789 -1116957 -1165440 -1215438 
2151.557 -1257255 -1283716 -1292310 -1285536 -1269890 -1253215 -1242700 
2151.979 -1242304 -1252359 -1270096 -1291281 -1311308 -1326370 -1334082 
2152.401 -1333350 -1324567 -1309524 -1291722 -1275875 -1266798 -1268407 
2152.823 -1281895 -1305103 -1332665 -1358239 -1376299 -1384249 -1383255 
2153.245 -1377448 -1371904 -1370103 -1372784 -1377753 -1381611 -1381441 
2153.667 -1376745 -1369699 -1364199 -1363662 -1369352 -1379445 -1389930 
2154.090 -1395824 -1393219 -1380626 -1358865 -1330140 -1296530 -1259177 
2154.512 -1217961 -1172394 -1122698 -1070699 -1019935 -975209 -940853 
2154.934 -919993 -913541 -920259 -937030 -959736 -984283 -1006886 -1024880 
2155.416 -1037104 -1043943 -1047258 -1049872 -1055011 -1065170 -1081789 
2155.838 -1105210 -1135137 -1171436 -1214584 -1265366 -1323979 -1388614 
2156.260 -1454800 -1514982 -1560652 -1584753 -1583753 -1559475 -1518620 
2156.683 -1471184 -1426478 -1391258 -1367727 -1353759 -1344456 -1334567 
2157.105 -1320803 -1302424 -1281358 -1261066 -1245656 -1238649 -1242616 
2157.527 -1258932 -1287363 -1325640 -1368931 -1410642 -1442590 -1457133 
2157.949 -1449471 -1418785 -1369034 -1307771 -1244919 -1189732 -1149096 
2158.371 -1127041 -1124367 -1139575 -1169520 -1210228 -1256659 -1302939 
2158.793 -1343358 -1372716 -1388085 -1389603 -1380648 -1366648 -1353174 
2159.215 -1344383 -1341414 -1342529 -1344116 -1342735 -1336431 -1325657 
2159.637 -1312780 -1301321 -1294439 -1294099 -1301045 -1314944 -1334889 
2160.060 -1359343 -1385999 -1411370 -1430489 -1438112 -1429672 -1403159 
2160.482 -1360300 -1306993 -1252088 -1204617 -1172252 -1158659 -1162979 
2160.904 -1180324 -1203837 -1226775 -1243969 -1253357 -1255649 -1253679 
2161.326 -1250830 -1250247 -1253933 -1262508 -1275714 -1292847 -1313343 
2161.748 -1336903 -1363325 -1392067 -1421624 -1449513 -1472510 -1487314 
2162.170 -1491896 -1486130 -1472087 -1453208 -1433166 -1414241 -1396376 
2162.592 -1377349 -1354025 -1324435 -1289335 -1252797 -1221389 -1202368 
2163.014 -1200379 -1215921 -1244281 -1277388 -1305511 -1320640 -1319013 
2163.437 -1301434 -1272626 -1238810 -1206129 -1178260 -1155994 -1137710 
2163.859 -1120573 -1101770 -1079517 -1053682 -1025779 -998737 -976039 
2164.281 -961503 -958317 -968217 -991130 -1024789 -1065187 -1106884 -1144629 
2164.763 -1174142 -1192824 -1200289 -1198023 -1188945 -1176435 -1164098 
2165.185 -1155045 -1151361 -1153932 -1161998 -1173100 -1183158 -1187466 
2165.607 -1181755 -1163208 -1131689 -1089929 -1043412 -998730 -963006 
2166.030 -942218 -939913 -956929 -990903 -1036642 -1086135 -1130088 -1159407 
2166.512 -1166388 -1147472 -1104228 -1044069 -978144 -919974 -881750 -870709 
2166.994 -888298 -929620 -985786 -1045945 -1101282 -1147111 -1183342 
2167.417 -1213717 -1243521 -1277120 -1315641 -1356312 -1392959 -1418542 
2167.839 -1426863 -1415344 -1386024 -1345683 -1303868 -1270071 -1251850 
2168.261 -1252059 -1268603 -1294883 -1322443 -1342760 -1349477 -1340097 
2168.683 -1315693 -1280344 -1239345 -1198564 -1163085 -1136635 -1121649 
2169.105 -1118768 -1126753 -1142270 -1160585 -1176219 -1184199 -1181797 
2169.527 -1169088 -1149131 -1126618 -1106748 -1093260 -1087463 -1088394 
2169.949 -1093664 -1100827 -1108192 -1115332 -1122659 -1130660 -1139323 
2170.371 -1147966 -1155707 -1162046 -1167278 -1172349 -1178102 -1184551 
2170.793 -1190354 -1193246 -1190860 -1182307 -1168991 -1155020 -1145794 
2171.216 -1146701 -1161256 -1189722 -1228942 -1273134 -1315792 -1350707 
2171.638 -1373737 -1383470 -1381149 -1370299 -1355836 -1343464 -1337967 
2172.060 -1342410 -1357054 -1379207 -1403444 -1423079 -1432394 -1427780 
2172.482 -1409103 -1379284 -1343425 -1306736 -1273025 -1244146 -1220026 
2172.904 -1199689 -1182271 -1167633 -1156175 -1148082 -1142615 -1137800 
2173.326 -1130983 -1120131 -1104852 -1087166 -1071032 -1061549 -1062988 
2173.748 -1077745 -1105740 -1144771 -1191196 -1240804 -1289753 -1334346 
2174.170 -1371076 -1396883 -1409199 -1406944 -1391104 -1365229 -1334715 
2174.593 -1305604 -1283384 -1271139 -1269112 -1274878 -1284571 -1293819 
2175.015 -1299054 -1298331 -1291191 -1278552 -1262279 -1244960 -1229529 
2175.437 -1218889 -1215770 -1221978 -1238005 -1262785 -1293889 -1327790 
2175.859 -1360493 -1388502 -1408843 -1419655 -1420283 -1411476 -1395378 
2176.281 -1375378 -1355865 -1340974 -1333575 -1334314 -1341125 -1349708 
2176.703 -1354732 -1352111 -1340055 -1319961 -1295581 -1271837 -1252687 
2177.125 -1239754 -1232141 -1227184 -1221933 -1214433 -1204630 -1194049 
2177.547 -1185070 -1179576 -1178431 -1181214 -1186708 -1193368 -1199673 
2177.969 -1204276 -1205458 -1201266 -1189780 -1169778 -1141809 -1108631 
2178.392 -1075224 -1047106 -1029096 -1023566 -1029708 -1043894 -1061210 
2178.814 -1077616 -1090979 -1101903 -1112914 -1127215 -1146914 -1172204 
2179.236 -1201214 -1231004 -1258427 -1281103 -1297990 -1309016 -1314728 
2179.658 -1315741 -1312709 -1306308 -1297482 -1287531 -1277790 -1269131 
2180.080 -1261613 -1254245 -1245353 -1233155 -1216714 -1196376 -1174042 
2180.502 -1152539 -1135331 -1125523 -1125281 -1135725 -1156668 -1186714 
2180.924 -1223144 -1262382 -1300189 -1332199 -1355213 -1367718 -1370479 
2181.346 -1366250 -1359096 -1353020 -1350315 -1350993 -1352419 -1350441 
2181.769 -1340428 -1319383 -1286942 -1245962 -1201617 -1160385 -1128455 
2182.191 -1109710 -1105349 -1113505 -1130292 -1150690 -1170343 -1186718 
2182.613 -1199396 -1209905 -1220557 -1233323 -1248502 -1264436 -1277825 
2183.035 -1285305 -1284777 -1276915 -1265266 -1255835 -1254986 -1266965 
2183.457 -1292426 -1327463 -1364706 -1394602 -1409048 -1403319 -1377464 
2183.879 -1336029 -1286797 -1238475 -1197846 -1169098 -1153010 -1147792 
2184.301 -1150115 -1156472 -1164062 -1170826 -1175600 -1177821 -1177470 
2184.723 -1175125 -1172091 -1170404 -1172100 -1178818 -1190870 -1206880 
2185.146 -1223946 -1238549 -1247877 -1250588 -1247510 -1240903 -1233658 
2185.568 -1227538 -1222522 -1216582 -1206870 -1190915 -1168156 -1140308 
2185.990 -1111079 -1084633 -1063893 -1049817 -1041184 -1035784 -1031763 
2186.412 -1028951 -1029051 -1034704 -1047698 -1067440 -1090116 -1109978 
2186.834 -1120680 -1118106 -1102145 -1076992 -1049833 -1028016 -1017048 
2187.256 -1018326 -1029151 -1043826 -1056391 -1062367 -1060156 -1051039 
2187.678 -1038178 -1025103 -1014225 -1006602 -1001949 -999423 -998229 
2188.100 -997950 -998523 -999728 -1000945 -1001104 -998970 -993808 -986003 
2188.583 -977344 -970686 -969805 -978274 -998478 -1031119 -1074649 -1125468 
2189.065 -1178063 -1226411 -1264819 -1288856 -1296546 -1288328 -1267110 
2189.487 -1237155 -1203718 -1171849 -1145497 -1127425 -1118775 -1119020 
2189.909 -1125988 -1136318 -1146017 -1151157 -1149405 -1140656 -1127602 
2190.332 -1114793 -1107691 -1110572 -1124803 -1148250 -1175690 -1200856 
2190.754 -1217899 -1223814 -1218908 -1206296 -1190103 -1173806 -1158917 
2191.176 -1144746 -1129210 -1110281 -1087299 -1061556 -1036062 -1014549 
2191.598 -1000790 -997471 -1005915 -1026009 -1056104 -1093060 -1131977 
2192.020 -1167214 -1192956 -1204991 -1202555 -1189197 -1172529 -1161527 
2192.442 -1164488 -1185122 -1220947 -1263103 -1299331 -1317695 -1310057 
2192.864 -1275431 -1220064 -1155871 -1095619 -1050502 -1026563 -1023757 
2193.286 -1036716 -1056877 -1075370 -1084255 -1078663 -1057158 -1021605 
2193.708 -976518 -928443 -885143 -853666 -839839 -846969 -875100 -921181 
2194.191 -979596 -1043746 -1106502 -1161866 -1205645 -1235274 -1250035 
2194.613 -1250614 -1238791 -1216978 -1188059 -1155120 -1120858 -1087648 
2195.035 -1057320 -1031080 -1009988 -995036 -987380 -988248 -998659 -1018795 
2195.518 -1047591 -1082445 -1119143 -1152177 -1176138 -1186295 -1179988 
2195.940 -1157510 -1122320 -1080583 -1039411 -1006016 -985316 -979003 
2196.362 -985397 -1000447 -1019177 -1037382 -1053174 -1067065 -1081346 
2196.784 -1098562 -1120276 -1146020 -1173423 -1198700 -1218254 -1229645 
2197.206 -1232131 -1226729 -1215596 -1201346 -1186221 -1171891 -1159311 
2197.628 -1148708 -1139688 -1131331 -1122488 -1112048 -1099648 -1086045 
2198.050 -1073349 -1064521 -1062306 -1068255 -1081634 -1099244 -1115933 
2198.472 -1126534 -1126886 -1115513 -1093897 -1066101 -1037402 -1012678 
2198.895 -995797 -988672 -991460 -1002920 -1020870 -1042529 -1064744 
2199.317 -1084681 -1100213 -1110533 -1116534 -1120712 -1126259 -1135637 
2199.739 -1149544 -1166146 -1181594 -1191141 -1191389 -1181717 -1165037 
2200.161 -1146620 -1132545 -1127215 -1131412 -1142028 -1153145 -1158830 
2200.583 -1155052 -1141896 -1123344 -1106225 -1097112 -1099974 -1114670 
2201.005 -1137090 -1160524 -1178044 -1185273 -1181214 -1168346 -1150938 
2201.427 -1133423 -1118600 -1107000 -1097651 -1089509 -1082839 -1080031 
2201.849 -1084772 -1100736 -1129514 -1169281 -1214426 -1256669 -1287984 
2202.271 -1302090 -1296832 -1274411 -1240939 -1204472 -1172939 -1153277 
2202.694 -1149715 -1163737 -1193881 -1236224 -1284449 -1330612 -1367156 
2203.116 -1387748 -1389442 -1373516 -1345430 -1313272 -1285099 -1267432 
2203.538 -1262981 -1270785 -1287058 -1307254 -1327328 -1344549 -1357571 
2203.960 -1365573 -1367772 -1363502 -1352744 -1336964 -1319177 -1303585 
2204.382 -1293722 -1290959 -1293642 -1297852 -1299241 -1295449 -1287823 
2204.804 -1281303 -1282188 -1294456 -1317165 -1343114 -1361443 -1360531 
2205.226 -1333835 -1282972 -1218615 -1156814 -1114121 -1102523 -1124713 
2205.648 -1173900 -1235738 -1294349 -1335576 -1351671 -1342555 -1314683 
2206.071 -1278131 -1242903 -1217129 -1204604 -1204830 -1213656 -1225112 
2206.493 -1232830 -1231696 -1219507 -1197040 -1167978 -1137338 -1110598 
2206.915 -1092068 -1084103 -1087535 -1102145 -1127386 -1162688 -1207076 
2207.337 -1258340 -1312067 -1362179 -1401404 -1423307 -1424679 -1406434 
2207.759 -1373805 -1334314 -1296179 -1265411 -1244561 -1233062 -1228253 
2208.181 -1227116 -1227419 -1228359 -1230137 -1233136 -1237358 -1242285 
2208.603 -1247217 -1251886 -1256701 -1262611 -1270540 -1280926 -1293465 
2209.025 -1307434 -1322285 -1338179 -1356077 -1377166 -1401920 -1429303 
2209.448 -1456380 -1479219 -1493407 -1495683 -1484814 -1461772 -1429399 
2209.870 -1391631 -1353145 -1318521 -1292140 -1277944 -1278552 -1294732 
2210.292 -1324676 -1364231 -1407201 -1447113 -1479184 -1501042 -1513418 
2210.714 -1519030 -1521206 -1522025 -1521436 -1517401 -1507203 -1488736 
2211.136 -1461894 -1428796 -1393405 -1360262 -1332996 -1313905 -1303489 
2211.558 -1300984 -1304807 -1313201 -1324432 -1336723 -1348478 -1358274 
2211.980 -1365104 -1368658 -1369281 -1367727 -1364632 -1360271 -1354394 
2212.402 -1346625 -1337083 -1326881 -1318232 -1314089 -1316933 -1327700 
2212.824 -1344845 -1364561 -1381274 -1389333 -1385212 -1368639 -1343348 
2213.247 -1315969 -1294903 -1287273 -1296803 -1322597 -1359282 -1398584 
2213.669 -1431566 -1452157 -1458443 -1453313 -1442571 -1432971 -1429168 
2214.091 -1432031 -1438725 -1444440 -1445058 -1439020 -1428245 -1416877 
2214.513 -1409071 -1406171 -1405449 -1400464 -1384057 -1350993 -1301064 
2214.935 -1239606 -1176722 -1123980 -1090485 -1081414 -1096566 -1131593 
2215.357 -1179343 -1232395 -1283716 -1326945 -1357025 -1370068 -1364455 
2215.779 -1342018 -1309006 -1275602 -1253080 -1251837 -1276953 -1326389 
2216.201 -1390536 -1455371 -1506291 -1531967 -1528455 -1499451 -1455143 
2216.624 -1407942 -1369987 -1349622 -1349699 -1368174 -1399440 -1436795 
2217.046 -1473890 -1506777 -1534273 -1557628 -1579376 -1601946 -1626263 
2217.468 -1650807 -1671526 -1682808 -1679604 -1658844 -1621169 -1570857 
2217.890 -1515347 -1462788 -1419853 -1390591 -1375406 -1371744 -1375294 
2218.312 -1381865 -1388158 -1392391 -1394162 -1393745 -1391457 -1387160 
2218.734 -1380032 -1368851 -1352413 -1330095 -1302608 -1272355 -1243833 
2219.156 -1222526 -1214056 -1222384 -1248125 -1287827 -1334388 -1379499 
2219.578 -1415344 -1437558 -1446308 -1445831 -1442161 -1440382 -1442670 
2220.000 -1447372 -1450183 -1446302 -1433246 -1411897 -1386669 -1363232 
2220.423 -1346702 -1339294 -1339699 -1343830 -1346853 -1345266 -1338073 
2220.845 -1327051 -1315924 -1309051 -1309684 -1319454 -1337932 -1362982 
2221.267 -1390992 -1417660 -1438891 -1451240 -1453112 -1445267 -1431076 
2221.689 -1415588 -1404163 -1400958 -1407300 -1421441 -1439020 -1455095 
2222.111 -1465315 -1467442 -1461551 -1449401 -1433266 -1414982 -1395950 
2222.533 -1377333 -1360833 -1349166 -1345430 -1352307 -1370780 -1399360 
2222.955 -1434048 -1469361 -1500322 -1523285 -1536991 -1542128 -1540349 
2223.377 -1533147 -1521135 -1504297 -1482742 -1457479 -1431041 -1406864 
2223.800 -1388762 -1379804 -1381399 -1393325 -1414010 -1441340 -1472865 
2224.222 -1506153 -1538683 -1567488 -1589573 -1602435 -1604728 -1596891 
2224.644 -1581056 -1560367 -1537554 -1514246 -1490516 -1465475 -1438520 
2225.066 -1410617 -1384734 -1365711 -1358380 -1365823 -1388069 -1421742 
2225.488 -1460920 -1498769 -1530038 -1551713 -1563442 -1566584 -1563103 
2225.910 -1554536 -1541763 -1525636 -1507718 -1490727 -1478368 -1473794 
2226.332 -1478355 -1490372 -1505535 -1517996 -1522661 -1517641 -1505011 
2226.754 -1490500 -1480840 -1481791 -1495264 -1518726 -1545939 -1569700 
2227.177 -1584337 -1587497 -1580644 -1567818 -1553692 -1541258 -1531273 
2227.599 -1522527 -1513411 -1503452 -1494278 -1489200 -1492232 -1506086 
2228.021 -1531014 -1564417 -1601790 -1637902 -1667929 -1688676 -1698239 
2228.443 -1695725 -1680930 -1654309 -1617569 -1573944 -1528858 -1488845 
2228.865 -1460020 -1446863 -1450314 -1467708 -1493266 -1520361 -1542761 
2229.287 -1556154 -1558871 -1551346 -1535386 -1513357 -1488070 -1462512 
2229.709 -1439722 -1422765 -1413722 -1412977 -1418680 -1427203 -1434077 
2230.131 -1435651 -1430691 -1420886 -1410213 -1403059 -1402658 -1409289 
2230.553 -1420219 -1430246 -1433910 -1427318 -1409286 -1381762 -1349210 
2230.976 -1317409 -1291722 -1276564 -1274656 -1286726 -1311700 -1346727 
2231.398 -1387754 -1429582 -1467023 -1495920 -1513677 -1520131 -1517385 
2231.820 -1509382 -1500440 -1494582 -1494454 -1500699 -1511990 -1525294 
2232.242 -1536707 -1541961 -1537705 -1522271 -1496199 -1462144 -1424202 
2232.664 -1386961 -1353832 -1326524 -1305013 -1288380 -1276162 -1269488 
2233.086 -1271210 -1285218 -1314490 -1359192 -1415428 -1475655 -1530489 
2233.508 -1570512 -1589688 -1586200 -1562774 -1524971 -1479799 -1433795 
2233.930 -1391669 -1356723 -1330908 -1315284 -1310308 -1315606 -1329834 
2234.353 -1350495 -1374549 -1398844 -1420559 -1437718 -1448837 -1452570 
2234.775 -1447840 -1433881 -1411168 -1381874 -1350405 -1322301 -1302608 
2235.197 -1294401 -1297253 -1307408 -1318881 -1326335 -1327022 -1322186 
2235.619 -1316336 -1315651 -1325168 -1346461 -1376995 -1410835 -1441020 
2236.041 -1461208 -1468051 -1461577 -1444808 -1422252 -1398757 -1378661 
2236.463 -1364886 -1359273 -1362503 -1374312 -1393559 -1418359 -1446584 
2236.885 -1475677 -1503225 -1526903 -1544030 -1551768 -1547093 -1527364 
2237.307 -1491429 -1440606 -1379329 -1314256 -1253708 -1205368 -1174239 
2237.729 -1162153 -1167456 -1186295 -1213685 -1245408 -1278549 -1311542 
2238.152 -1343891 -1375406 -1405770 -1434336 -1460125 -1481925 -1498539 
2238.574 -1508867 -1512288 -1509232 -1501749 -1493548 -1489472 -1494713 
2238.996 -1512576 -1543320 -1583133 -1625252 -1661099 -1683021 -1686897 
2239.418 -1672891 -1645533 -1611640 -1578980 -1553779 -1539579 -1537471 
2239.840 -1546364 -1563842 -1586714 -1611723 -1635509 -1654873 -1667429 
2240.262 -1671564 -1666781 -1653502 -1632665 -1605321 -1572541 -1535821 
2240.684 -1497569 -1461276 -1431470 -1412057 -1405039 -1409093 -1419728 
2241.106 -1430213 -1434262 -1428998 -1416194 -1402138 -1394804 -1401224 
2241.529 -1423746 -1458998 -1498379 -1531749 -1550467 -1550335 -1532808 
2241.951 -1503935 -1472048 -1444440 -1426328 -1419863 -1424753 -1439302 
2242.373 -1461163 -1487660 -1515318 -1540154 -1558037 -1565670 -1562033 
2242.795 -1548862 -1530332 -1511238 -1495488 -1484337 -1476161 -1467282 
2243.217 -1454022 -1434506 -1409545 -1382282 -1356768 -1336511 -1323053 
2243.639 -1315937 -1313455 -1313986 -1316808 -1322308 -1331329 -1344215 
2244.061 -1360127 -1377146 -1392869 -1405671 -1415389 -1423381 -1431602 
2244.483 -1441475 -1452775 -1463531 -1470441 -1470293 -1461368 -1444180 
2244.906 -1421463 -1397108 -1375227 -1358579 -1348032 -1342574 -1339991 
2245.328 -1337732 -1333600 -1326409 -1315988 -1303048 -1288798 -1274830 
2245.750 -1262775 -1254165 -1250334 -1252179 -1259910 -1272748 -1288914 
2246.172 -1305701 -1319736 -1327925 -1328035 -1319434 -1303389 -1282989 
2246.594 -1262489 -1246036 -1237136 -1237690 -1247781 -1265964 -1289789 
2247.016 -1316348 -1342355 -1364539 -1379454 -1383575 -1374273 -1350457 
2247.438 -1313828 -1268915 -1223292 -1185757 -1163882 -1162708 -1182829 
2247.860 -1220638 -1269041 -1320035 -1366340 -1402588 -1426215 -1436696 
2248.282 -1434788 -1421723 -1398998 -1368584 -1333048 -1296009 -1261542 
2248.705 -1233216 -1213447 -1202555 -1198793 -1198851 -1199306 -1197533 
2249.127 -1192682 -1185741 -1179298 -1176615 -1180643 -1193488 -1215828 
2249.549 -1246767 -1283767 -1323031 -1360066 -1390154 -1409645 -1416656 
2249.971 -1411531 -1396671 -1375936 -1353556 -1332656 -1314924 -1300379 
2250.393 -1287962 -1276448 -1265314 -1255005 -1246757 -1241766 -1240427 
2250.815 -1241721 -1243344 -1242072 -1234727 -1219336 -1195654 -1165433 
2251.237 -1131919 -1099289 -1071416 -1050975 -1039168 -1035639 -1039194 
2251.659 -1048517 -1063150 -1083838 -1112303 -1150189 -1197817 -1252668 
2252.082 -1309308 -1359131 -1392651 -1402373 -1384715 -1341999 -1281927 
2252.504 -1216459 -1157769 -1116062 -1097199 -1101308 -1123318 -1154429 
2252.926 -1185257 -1207373 -1215857 -1210208 -1194194 -1174580 -1159049 
2253.348 -1154652 -1165359 -1191218 -1228169 -1269543 -1307521 -1335503 
2253.770 -1350254 -1352406 -1346178 -1337398 -1332129 -1334246 -1344434 
2254.192 -1360069 -1376318 -1387744 -1389805 -1380347 -1359844 -1331219 
2254.614 -1298803 -1267709 -1242726 -1227103 -1222165 -1226746 -1237696 
2255.036 -1250276 -1259853 -1263184 -1259093 -1248718 -1234569 -1219285 
2255.458 -1204079 -1188391 -1170333 -1148315 -1122682 -1097002 -1077425 
2255.881 -1071775 -1086252 -1122901 -1177883 -1241992 -1302942 -1348513 
2256.303 -1371288 -1369939 -1349496 -1318570 -1287122 -1263177 -1250801 
2256.725 -1250276 -1258687 -1271750 -1284870 -1294732 -1299591 -1299189 
2257.147 -1294475 -1287260 -1279920 -1274830 -1274244 -1279791 -1292124 
2257.569 -1310967 -1335413 -1364366 -1396883 -1432294 -1469777 -1507488 
2257.991 -1542153 -1568645 -1580564 -1572231 -1540084 -1484529 -1410142 
2258.413 -1325602 -1241802 -1169017 -1115959 -1087266 -1083056 -1099031 
2258.835 -1127980 -1161443 -1191221 -1211768 -1220580 -1218508 -1208955 
2259.258 -1196953 -1187798 -1185660 -1193543 -1212847 -1243656 -1285118 
2259.680 -1335441 -1391813 -1449740 -1503602 -1546838 -1573349 -1579759 
2260.102 -1566434 -1537951 -1501247 -1463870 -1430816 -1402969 -1377117 
2260.524 -1347755 -1310076 -1262579 -1208778 -1156578 -1115998 -1094553 
2260.946 -1094886 -1113072 -1140656 -1167208 -1184935 -1191621 -1190976 
2261.368 -1190641 -1198303 -1218695 -1251097 -1289737 -1325621 -1350531 
2261.790 -1359289 -1351362 -1330066 -1300630 -1267699 -1233751 -1199577 
2262.212 -1165379 -1132090 -1102019 -1078198 -1062985 -1056780 -1057549 
2262.635 -1061484 -1064731 -1065565 -1065157 -1067294 -1076349 -1095415 
2263.057 -1124332 -1159533 -1194890 -1224272 -1243718 -1252394 -1252597 
2263.479 -1248370 -1243782 -1241106 -1240491 -1240282 -1238466 -1233774 
2263.901 -1226446 -1217941 -1210218 -1204653 -1201517 -1199889 -1198233 
2264.323 -1195019 -1189387 -1181407 -1172016 -1162517 -1153958 -1146675 
2264.745 -1140069 -1132839 -1123434 -1111053 -1096465 -1082829 -1075441 
2265.167 -1080861 -1105708 -1154016 -1225576 -1314445 -1410107 -1498574 
2265.589 -1566165 -1603757 -1608000 -1581896 -1532472 -1468801 -1399094 
2266.011 -1329638 -1265266 -1209393 -1164950 -1134417 -1119130 -1118588 
2266.434 -1129807 -1148011 -1167320 -1182803 -1192369 -1197262 -1201820 
2266.856 -1211578 -1231693 -1264597 -1309324 -1361421 -1414472 -1461080 
2267.278 -1494483 -1510301 -1506787 -1485188 -1448975 -1403284 -1353553 
2267.700 -1304379 -1259302 -1219994 -1186647 -1158523 -1134918 -1115907 
2268.122 -1102772 -1097179 -1100232 -1110963 -1125862 -1139133 -1144810 
2268.544 -1139491 -1124248 -1105310 -1092346 -1096133 -1123883 -1176693 
2268.966 -1247923 -1325338 -1393806 -1440436 -1459286 -1451961 -1426215 
2269.388 -1391518 -1356170 -1324442 -1296752 -1271429 -1246998 -1223824 
2269.811 -1204488 -1192395 -1189790 -1195938 -1206793 -1215857 -1216840 
2270.233 -1206709 -1187443 -1166291 -1153371 -1159382 -1191192 -1249613 
2270.655 -1328253 -1415303 -1495782 -1555166 -1584286 -1580660 -1548801 
2271.077 -1497220 -1435878 -1372713 -1312131 -1255729 -1203190 -1153842 
2271.499 -1107782 -1066011 -1029883 -1000265 -976816 -958090 -942358 -928946 
2271.981 -919306 -917395 -928472 -957957 -1008884 -1080296 -1166120 -1256148 
2272.464 -1337536 -1397044 -1425401 -1419007 -1381354 -1321170 -1250472 
2272.886 -1180875 -1120509 -1073724 -1040553 -1018058 -1001777 -987703 
2273.308 -973622 -959620 -947756 -941132 -942533 -953183 -972494 -998368 
2273.791 -1028481 -1061303 -1097041 -1137577 -1185586 -1242835 -1308665 
2274.213 -1378681 -1445385 -1499451 -1531973 -1537676 -1515888 -1470873 
2274.635 -1409902 -1342089 -1275969 -1217819 -1171688 -1138855 -1118510 
2275.057 -1108589 -1106809 -1111341 -1121206 -1136302 -1157062 -1184029 
2275.479 -1217345 -1256540 -1300424 -1347383 -1395128 -1440924 -1481567 
2275.901 -1512966 -1530799 -1531154 -1511453 -1471699 -1415078 -1347900 
2276.323 -1277986 -1213879 -1162959 -1129649 -1115323 -1118032 -1133639 
2276.745 -1156584 -1181575 -1204392 -1221872 -1232331 -1235300 -1231715 
2277.167 -1223869 -1215615 -1211965 -1217664 -1236472 -1269414 -1314236 
2277.590 -1365258 -1414857 -1455745 -1482201 -1491806 -1485070 -1464479 
2278.012 -1433054 -1393716 -1349281 -1302662 -1257722 -1219053 -1190799 
2278.434 -1175709 -1173523 -1180859 -1191692 -1199689 -1200469 -1192924 
2278.856 -1179727 -1166079 -1157830 -1158736 -1169527 -1187575 -1208462 
2279.278 -1227409 -1241509 -1250459 -1256444 -1262717 -1272220 -1286591 
2279.700 -1305656 -1327620 -1349512 -1368013 -1379810 -1382128 -1373535 
2280.122 -1354356 -1327267 -1296990 -1270209 -1253817 -1253196 -1271107 
2280.544 -1306630 -1355570 -1411175 -1466328 -1514288 -1549607 -1568789 
2280.967 -1569773 -1551861 -1515798 -1464124 -1401401 -1333719 -1268674 
2281.389 -1213183 -1172078 -1147004 -1135989 -1134382 -1136483 -1138113 
2281.811 -1137735 -1137119 -1140253 -1151955 -1175638 -1211913 -1258018 
2282.233 -1308405 -1356206 -1394227 -1417019 -1421691 -1408278 -1379448 
2282.655 -1339891 -1295211 -1250241 -1208636 -1172081 -1140463 -1112623 
2283.077 -1087473 -1064928 -1046566 -1035254 -1034319 -1046391 -1072040 
2283.499 -1109374 -1154094 -1201108 -1245286 -1282921 -1312468 -1333976 
2283.921 -1348517 -1357086 -1359941 -1356533 -1345883 -1327267 -1300862 
2284.344 -1268001 -1231087 -1192914 -1156588 -1125139 -1101366 -1088100 
2284.766 -1087864 -1102290 -1131528 -1173458 -1223573 -1275010 -1320443 
2285.188 -1353527 -1370447 -1371153 -1359003 -1339548 -1318222 -1299270 
2285.610 -1284642 -1274334 -1267795 -1265279 -1268738 -1281882 -1308601 
2286.032 -1351083 -1408006 -1473880 -1539253 -1592652 -1624349 -1628169 
2286.454 -1603667 -1555655 -1492952 -1425606 -1362147 -1309202 -1270425 
2286.876 -1247295 -1240021 -1248241 -1271300 -1308051 -1356678 -1414151 
2287.298 -1476212 -1538194 -1595125 -1642937 -1679260 -1703480 -1716732 
2287.720 -1721159 -1719353 -1713282 -1703789 -1690416 -1671714 -1645958 
2288.143 -1612231 -1571362 -1526481 -1482838 -1446308 -1422448 -1414235 
2288.565 -1421110 -1438840 -1461022 -1481230 -1494979 -1501541 -1503951 
2288.987 -1508041 -1519830 -1544021 -1581983 -1631405 -1686499 -1739727 
2289.409 -1784080 -1814172 -1828012 -1827034 -1815745 -1800019 -1785775 
2289.831 -1777436 -1776241 -1780035 -1783768 -1781736 -1769300 -1745451 
2290.253 -1713441 -1680729 -1656398 -1648060 -1659472 -1688287 -1726311 
2290.675 -1761133 -1780741 -1776307 -1745263 -1691528 -1623940 -1553024 
2291.097 -1487401 -1433224 -1393344 -1368263 -1357384 -1359639 -1373801 
2291.520 -1398391 -1431884 -1472843 -1520438 -1574759 -1636673 -1706981 
2291.942 -1785288 -1868530 -1950551 -2023139 -2077056 -2105450 -2105851 
2292.364 -2080828 -2036736 -1981594 -1923089 -1866664 -1815875 -1772691 
2292.786 -1737872 -1711422 -1692395 -1678999 -1668612 -1658815 -1648523 
2293.208 -1638897 -1633527 -1637646 -1656519 -1692831 -1745123 -1806757 
2293.630 -1867809 -1916635 -1944078 -1946727 -1927853 -1896349 -1863077 
2294.052 -1838485 -1828797 -1835220 -1853896 -1877743 -1898551 -1909872 
2294.474 -1909764 -1901424 -1892410 -1891483 -1906609 -1941591 -1994679 
2294.896 -2057936 -2119037 -2164454 -2182403 -2167389 -2121022 -2051087 
2295.319 -1967945 -1882242 -1802749 -1735248 -1683812 -1650995 -1638125 
2295.741 -1645262 -1670649 -1710839 -1760945 -1816476 -1874671 -1935637 
2296.163 -2002179 -2078389 -2166988 -2266897 -2371367 -2468431 -2544419 
2296.585 -2586787 -2589437 -2554211 -2489699 -2406666 -2314151 -2217802 
2297.007 -2119810 -2021400 -1925223 -1836093 -1761069 -1707300 -1679346 
2297.429 -1678291 -1701008 -1741434 -1791196 -1841829 -1885957 -1917596 
2297.851 -1933153 -1931181 -1912564 -1880373 -1839984 -1798566 -1763265 
2298.273 -1740781 -1735786 -1750718 -1786799 -1844900 -1926196 -2031507 
2298.696 -2159558 -2304019 -2450337 -2577130 -2658589 -2672533 -2610104 
2299.118 -2479132 -2302325 -2107536 -1921919 -1764057 -1642228 -1556745 
2299.540 -1502261 -1471623 -1458668 -1460394 -1476651 -1508938 -1558372 
2299.962 -1623953 -1701336 -1783511 -1860696 -1922497 -1960215 -1968449 
2300.384 -1947639 -1904843 -1853861 -1811356 -1794229 -1816558 -1885843 
2300.806 -2001869 -2154122 -2322720 -2477104 -2583731 -2618175 -2574020 
2301.228 -2467417 -2328493 -2191017 -2079207 -2004463 -1965931 -1953741 
2301.650 -1953639 -1952372 -1943163 -1926918 -1911340 -1906099 -1918864 
2302.073 -1950823 -1995714 -2040337 -2069361 -2070249 -2037299 -1974069 
2302.495 -1892153 -1808337 -1739365 -1701256 -1707211 -1766427 -1884631 
2302.917 -2062202 -2292847 -2558213 -2826553 -3053908 -3190679 -3203580 
2303.339 -3091209 -2887327 -2642120 -2404416 -2207811 -2066499 -1982307 
2303.761 -1948571 -1955594 -1993138 -2052393 -2125632 -2203371 -2273809 
2304.183 -2322328 -2333816 -2299054 -2218640 -2104730 -1976013 -1853302 
2304.605 -1753223 -1684988 -1652366 -1655540 -1694638 -1772417 -1895023 
2305.027 -2070214 -2302768 -2588563 -2905237 -3204632 -3422636 -3498276 
2305.449 -3408651 -3181669 -2879582 -2566491 -2286639 -2065886 -1912970 
2305.872 -1826776 -1800861 -1825169 -1886560 -1968465 -2053543 -2123893 
2306.294 -2164816 -2168782 -2136654 -2077593 -2005140 -1934648 -1878663 
2306.716 -1845294 -1838981 -1861023 -1911559 -1991119 -2101810 -2247529 
2307.138 -2433335 -2663946 -2939820 -3251351 -3573965 -3860174 -4048202 
2307.560 -4086059 -3958375 -3699122 -3371315 -3039739 -2747652 -2518100 
2307.982 -2357928 -2261808 -2216933 -2205207 -2208356 -2210053 -2200646 
2308.404 -2177770 -2144016 -2104405 -2064104 -2028449 -2002501 -1991647 
2308.826 -2001290 -2035313 -2095051 -2178691 -2282810 -2404952 -2547806 
2309.249 -2720945 -2940341 -3222325 -3573922 -3975872 -4370604 -4663745 
2309.671 -4759536 -4625528 -4313045 -3921067 -3535387 -3209649 -2961822 
2310.093 -2784692 -2657516 -2554861 -2456086 -2350087 -2238370 -2130765 
2310.515 -2040078 -1975747 -1942298 -1939427 -1964050 -2012179 -2079987 
2310.937 -2163833 -2258424 -2356835 -2452598 -2543128 -2633810 -2738675 
2311.359 -2879300 -3078864 -3356237 -3713883 -4125235 -4518116 -4787013 
2311.781 -4850099 -4701132 -4409696 -4062782 -3725730 -3427256 -3170542 
2312.203 -2947722 -2748831 -2567902 -2405140 -2265309 -2155876 -2084472 
2312.625 -2056308 -2074207 -2136932 -2238766 -2367103 -2502867 -2623571 
2313.048 -2706773 -2740081 -2726709 -2687371 -2652984 -2659299 -2742069 
2313.470 -2932973 -3260423 -3741193 -4366484 -5059666 -5655474 -5957788 
2313.892 -5869739 -5469352 -4917139 -4346586 -3823861 -3372259 -2997199 
2314.314 -2696791 -2469862 -2315128 -2229293 -2207194 -2240799 -2319865 
2314.736 -2429522 -2550749 -2661555 -2738488 -2765296 -2738299 -2669452 
2315.158 -2581929 -2505166 -2468453 -2494602 -2602016 -2804918 -3117658 
2315.580 -3552036 -4109015 -4753573 -5362944 -5733628 -5710035 -5333388 
2316.002 -4783977 -4221631 -3726569 -3320124 -3005186 -2780062 -2641141 
2316.425 -2584399 -2600805 -2675552 -2785749 -2903858 -3001639 -3053723 
2316.847 -3046362 -2980199 -2870167 -2739148 -2614141 -2521661 -2483032 
2317.269 -2515964 -2632251 -2839442 -3142215 -3546024 -4058491 -4673163 
2317.691 -5341062 -5919591 -6179104 -5982158 -5441208 -4798113 -4217463 
2318.113 -3762383 -3439380 -3235589 -3137536 -3127862 -3183209 -3269760 
2318.535 -3348526 -3383534 -3351029 -3249058 -3095230 -2918895 -2748237 
2318.957 -2606662 -2510754 -2471445 -2498816 -2602312 -2791146 -3073685 
2319.379 -3459111 -3961194 -4597189 -5387448 -6325704 -7301234 -8025773 
2319.802 -8142612 -7610868 -6763866 -5940039 -5278938 -4786844 -4433601 
2320.224 -4183624 -4005949 -3872971 -3759599 -3644636 -3513873 -3364532 
2320.646 -3204066 -3046896 -2908156 -2802010 -2739761 -2729883 -2780910 
2321.068 -2901316 -3099241 -3380015 -3744978 -4191519 -4712495 -5303419 
2321.490 -5960529 -6671164 -7390878 -8000831 -8312142 -8198029 -7740816 
2321.912 -7145282 -6556818 -6022806 -5535773 -5076859 -4635041 -4211158 
2322.334 -3816858 -3470559 -3188490 -2981956 -2856726 -2810888 -2838101 
2322.756 -2928647 -3072126 -3257383 -3474994 -3718141 -3981299 -4261157 
2323.178 -4556121 -4867135 -5200857 -5572711 -6010650 -6556787 -7256510 
2323.601 -8110972 -8977660 -9490705 -9318944 -8553806 -7555634 -6584739 
2324.023 -5732940 -5011839 -4409229 -3916059 -3529761 -3247690 -3068856 
2324.445 -2990240 -3005813 -3106462 -3277940 -3500749 -3745762 -3979697 
2324.867 -4172711 -4307471 -4387952 -4438164 -4495449 -4598059 -4783656 
2325.289 -5089244 -5557810 -6235374 -7143036 -8184803 -8969934 -8966626 
2325.711 -8158491 -7069967 -6092470 -5319589 -4720592 -4247869 -3872565 
2326.133 -3584644 -3382596 -3270181 -3247232 -3304985 -3422204 -3565828 
2326.555 -3698191 -3784442 -3809334 -3783200 -3739379 -3718068 -3755752 
2326.978 -3878399 -4101017 -4432126 -4878612 -5455865 -6180859 -7053163 
2327.400 -7982500 -8662439 -8683380 -8027993 -7113073 -6265745 -5575640 
2327.822 -5027289 -4588055 -4238416 -3969913 -3776038 -3648456 -3570150 
2328.244 -3517140 -3462403 -3388315 -3294783 -3200376 -3133627 -3122241 
2328.666 -3186091 -3332842 -3560984 -3863436 -4236862 -4684019 -5221675 
2329.088 -5888821 -6740569 -7810466 -8975057 -9757351 -9626924 -8750660 
2329.510 -7724683 -6866660 -6215464 -5720539 -5325947 -4992784 -4696990 
2329.932 -4425095 -4171929 -3937266 -3723500 -3535439 -3379574 -3264213 
2330.354 -3200265 -3198218 -3266576 -3408988 -3623889 -3904225 -4240652 
2330.777 -4630553 -5081542 -5621703 -6306487 -7209300 -8353508 -9533496 
2331.199 -10212327 -10018425 -9218550 -8273257 -7412053 -6681145 -6062528 
2331.621 -5528810 -5063063 -4658486 -4313250 -4029365 -3806700 -3641598 
2332.043 -3529336 -3466157 -3452645 -3495586 -3606157 -3796224 -4071990 
2332.465 -4431301 -4860783 -5339515 -5850156 -6380596 -6932895 -7521678 
2332.887 -8151541 -8737071 -9018628 -8756725 -8081389 -7290506 -6538811 
2333.309 -5860611 -5254912 -4722128 -4265368 -3893345 -3612161 -3420333 
2333.731 -3310856 -3269600 -3279390 -3323202 -3389670 -3475040 -3583027 
2334.154 -3722308 -3902980 -4133460 -4421162 -4773538 -5203064 -5736296 
2334.576 -6414576 -7283544 -8317658 -9218228 -9411326 -8751554 -7752312 
2334.998 -6829615 -6080604 -5475989 -4974356 -4552144 -4200373 -3915193 
2335.420 -3696240 -3540258 -3440182 -3387236 -3373449 -3394821 -3452621 
2335.842 -3552494 -3701845 -3906993 -4172745 -4502586 -4901754 -5386000 
2336.264 -5986006 -6756879 -7776525 -9075911 -10418222 -11117987 -10692588 
2336.686 -9593374 -8458451 -7527286 -6792238 -6194241 -5683468 -5227853 
2337.108 -4813069 -4437242 -4104623 -3824365 -3605133 -3452890 -3372360 
2337.531 -3365912 -3434084 -3574557 -3782246 -4048422 -4360617 -4709008 
2337.953 -5086509 -5495102 -5952169 -6490036 -7128743 -7775428 -8144779 
2338.375 -8026754 -7571026 -7016009 -6473537 -5968985 -5503895 -5077610 
2338.797 -4694298 -4360593 -4080078 -3855390 -3685850 -3568618 -3502039 
2339.219 -3487016 -3527521 -3629594 -3798959 -4039215 -4349833 -4730565 
2339.641 -5183355 -5718047 -6362919 -7163205 -8151390 -9224889 -9957924 
2340.063 -9851896 -9031551 -8016661 -7098199 -6326160 -5675741 -5119558 
2340.485 -4644921 -4251336 -3939889 -3713040 -3570016 -3505606 -3513124 
2340.907 -3585599 -3718211 -3907950 -4154067 -4457733 -4820809 -5249395 
2341.330 -5756476 -6364785 -7114212 -8052518 -9184019 -10322385 -10908740 
2341.752 -10421546 -9171605 -7855434 -6793502 -5996611 -5402168 -4955269 
2342.174 -4622326 -4384924 -4227559 -4133822 -4083021 -4053713 -4028082 
2342.596 -3999731 -3976175 -3976495 -4023379 -4135801 -4327237 -4607200 
2343.018 -4988093 -5489823 -6149995 -7012076 -8053420 -9023390 -9397283 
2343.440 -8925204 -7986569 -7034378 -6245617 -5629202 -5156457 -4796772 
2343.862 -4525184 -4320791 -4162110 -4028571 -3904749 -3786261 -3681616 
2344.284 -3610179 -3593900 -3654198 -3806848 -4062933 -4430328 -4919527 
2344.707 -5550792 -6347225 -7317794 -8384516 -9263840 -9536973 -9084951 
2345.129 -8256638 -7419751 -6720943 -6156526 -5678235 -5243411 -4827427 
2345.551 -4425241 -4049285 -3720806 -3462030 -3293656 -3228462 -3273094 
2345.973 -3426947 -3682900 -4025844 -4435782 -4897859 -5406384 -5973323 
2346.395 -6627774 -7398387 -8267113 -9087013 -9533496 -9320391 -8514287 
2346.817 -7452191 -6412655 -5514781 -4782730 -4205727 -3774264 -3480303 
2347.239 -3312867 -3256928 -3287461 -3371073 -3466882 -3540359 -3574920 
2347.661 -3579781 -3585197 -3631554 -3758238 -3996019 -4365912 -4867635 
2348.083 -5460695 -6017458 -6332224 -6246165 -5794935 -5175073 -4571483 
2348.506 -4082433 -3730272 -3506156 -3389621 -3353256 -3361843 -3372872 
2348.928 -3347765 -3261044 -3114479 -2934621 -2762828 -2637459 -2583353 
2349.350 -2609773 -2707717 -2851315 -2998828 -3106336 -3139715 -3090863 
2349.772 -2979967 -2847166 -2736805 -2684293 -2717030 -2851175 -3093418 
2350.194 -3438027 -3865006 -4335301 -4785327 -5142019 -5343561 -5369222 
2350.616 -5245819 -5029455 -4773095 -4506723 -4240210 -3971700 -3699374 
2351.038 -3429339 -3176471 -2959915 -2799317 -2708501 -2696368 -2767006 
2351.460 -2919698 -3147451 -3436781 -3773514 -4147048 -4560515 -5035339 
2351.883 -5606441 -6301770 -7093182 -7810576 -8148704 -7890078 -7143345 
2352.305 -6213655 -5340427 -4628432 -4094068 -3728035 -3510401 -3415907 
2352.727 -3414434 -3470644 -3549832 -3622544 -3675999 -3715720 -3762024 
2353.149 -3840148 -3975975 -4195091 -4527360 -5008004 -5662568 -6455932 
2353.571 -7184387 -7516179 -7322111 -6816167 -6259139 -5773145 -5382241 
2353.993 -5069757 -4812571 -4590208 -4388036 -4199834 -4029701 -3889776 
2354.415 -3798601 -3775254 -3835110 -3989966 -4248548 -4622409 -5128439 
2354.837 -5801357 -6694916 -7845506 -9145466 -10170425 -10412826 -9876671 
2355.260 -8970360 -8007811 -7111425 -6316069 -5632825 -5067899 -4631726 
2355.682 -4329204 -4161209 -4126169 -4217873 -4426250 -4735064 -5126239 
2356.104 -5576404 -6062171 -6568809 -7089143 -7623905 -8159365 -8609758 
2356.526 -8762886 -8443987 -7796188 -7106406 -6511486 -6020922 -5611027 
2356.948 -5264525 -4974814 -4740477 -4565822 -4455341 -4411016 -4432357 
2357.370 -4515787 -4657215 -4853525 -5107588 -5431674 -5851467 -6416328 
2357.792 -7201087 -8271063 -9531945 -10486103 -10553032 -9858645 -8932860 
2358.214 -8066939 -7316932 -6666743 -6096677 -5601359 -5190844 -4877898 
2358.636 -4676023 -4594647 -4635723 -4796505 -5070202 -5452332 -5937594 
2359.059 -6525510 -7226167 -8049597 -8979347 -9867635 -10307907 -9921861 
2359.481 -8966424 -7971219 -7153801 -6507803 -5987127 -5561580 -5222762 
2359.903 -4972946 -4815457 -4754298 -4787532 -4908431 -5106872 -5375932 
2360.325 -5717396 -6145977 -6697944 -7433401 -8429549 -9736975 -11187003 
2360.747 -12124719 -11828250 -10571357 -9180070 -8046517 -7186606 -6515621 
2361.169 -5964605 -5499983 -5113102 -4812764 -4614747 -4529453 -4561201 
2361.591 -4705954 -4957806 -5311462 -5771202 -6361288 -7124542 -8115043 
2362.013 -9319233 -10425049 -10745359 -10017051 -8853495 -7803274 -6991687 
2362.436 -6369102 -5872943 -5468461 -5144989 -4904945 -4761169 -4725106 
2362.858 -4802177 -4988767 -5272972 -5637950 -6064629 -6545147 -7084812 
2363.280 -7700836 -8388206 -9019355 -9282382 -8995301 -8382021 -7723992 
2363.702 -7124683 -6585698 -6090892 -5634150 -5225811 -4883761 -4631277 
2364.124 -4489483 -4468293 -4567083 -4774992 -5081032 -5476634 -5968047 
2364.546 -6585935 -7372807 -8314384 -9157066 -9385814 -8837064 -7923514 
2364.968 -7025762 -6268023 -5657798 -5180887 -4824112 -4585065 -4463668 
2365.390 -4457849 -4564223 -4776138 -5087705 -5493942 -5999870 -6624170 
2365.812 -7396182 -8343582 -9410862 -10288946 -10437641 -9721429 -8655094 
2366.235 -7678149 -6892206 -6252957 -5707415 -5229898 -4818060 -4484684 
2366.657 -4251916 -4137202 -4152252 -4301004 -4585670 -5010883 -5591059 
2367.079 -6358620 -7332714 -8425818 -9267807 -9280252 -8407803 -7241475 
2367.501 -6237524 -5488418 -4945333 -4549646 -4261481 -4063110 -3950972 
2367.923 -3927351 -3998413 -4170162 -4450577 -4850816 -5392538 -6114141 
2368.345 -7055084 -8204519 -9349270 -9954499 -9598023 -8557551 -7408214 
2368.767 -6440557 -5700212 -5151449 -4753157 -4482120 -4325180 -4273659 
2369.189 -4320797 -4459195 -4683650 -4992648 -5395698 -5911119 -6551151 
2369.612 -7280860 -7916280 -8101146 -7631605 -6766844 -5901315 -5210018 
2370.034 -4702080 -4335826 -4074210 -3897307 -3796545 -3771439 -3825084 
2370.456 -3961336 -4184867 -4502670 -4930513 -5488339 -6185751 -6973231 
2370.878 -7645382 -7876375 -7533226 -6839045 -6083669 -5410816 -4854322 
2371.300 -4407149 -4062163 -3818946 -3677877 -3640303 -3703701 -3864130 
2371.722 -4118518 -4470822 -4935509 -5521320 -6193543 -6800302 -7061748 
2372.144 -6809370 -6189423 -5477931 -4839258 -4323929 -3931652 -3649150 
2372.566 -3468965 -3386443 -3397622 -3498854 -3686839 -3962016 -4327246 
2372.989 -4787843 -5333341 -5894243 -6308014 -6371303 -6033509 -5455880 
2373.411 -4834978 -4273317 -3794806 -3398786 -3082334 -2847402 -2703153 
2373.833 -2658296 -2720167 -2894123 -3186513 -3603062 -4137961 -4751960 
2374.255 -5321541 -5643514 -5573271 -5168543 -4622725 -4093441 -3656086 
2374.677 -3327208 -3101971 -2972761 -2931165 -2971059 -3089339 -3288981 
2375.099 -3579711 -3975295 -4483727 -5070264 -5613822 -5916046 -5821011 
2375.521 -5370677 -4750731 -4135147 -3610075 -3200683 -2906235 -2715757 
2375.943 -2620321 -2615255 -2702010 -2889221 -3190423 -3617691 -4155537 
2376.365 -4726868 -5175532 -5319214 -5098346 -4622147 -4063485 -3541801 
2376.788 -3111413 -2785916 -2560094 -2428366 -2388766 -2444424 -2603329 
2377.210 -2873746 -3256538 -3722290 -4191649 -4531560 -4604988 -4375383 
2377.632 -3933350 -3422268 -2947273 -2562040 -2282383 -2105027 -2024477 
2378.054 -2036758 -2141641 -2340899 -2633813 -3008679 -3423894 -3802095 
2378.476 -4040069 -4057712 -3855111 -3508983 -3118960 -2755564 -2457295 
2378.898 -2237485 -2097090 -2035854 -2054396 -2154769 -2336974 -2593464 
2379.320 -2900089 -3204845 -3436941 -3528004 -3450197 -3231649 -2936170 
2379.742 -2629067 -2354500 -2139966 -1998888 -1936905 -1956721 -2056978 
2380.165 -2230838 -2459975 -2712984 -2942220 -3091012 -3117516 -3013202 
2380.587 -2809397 -2557454 -2309788 -2103733 -1958919 -1884980 -1883562 
2381.009 -1951688 -2081216 -2258118 -2459243 -2649325 -2788082 -2837390 
2381.431 -2777575 -2617679 -2392580 -2148466 -1925175 -1752592 -1646171 
2381.853 -1609664 -1638170 -1719397 -1834998 -1960190 -2069105 -2136919 
2382.275 -2146028 -2092319 -1986548 -1851353 -1711874 -1591055 -1503932 
2382.697 -1457242 -1451980 -1484487 -1547842 -1631520 -1722907 -1807399 
2383.119 -1870082 -1899978 -1892169 -1850279 -1785298 -1713511 -1651544 
2383.542 -1611733 -1601228 -1620189 -1662767 -1717528 -1770404 -1806776 
2383.964 -1814076 -1785578 -1721318 -1628692 -1520227 -1412791 -1324326 
2384.386 -1269845 -1260496 -1299906 -1383421 -1497373 -1621932 -1734733 
2384.808 -1815109 -1851521 -1843382 -1800947 -1739766 -1676710 -1625000 
2385.230 -1591474 -1577398 -1578980 -1589535 -1600563 -1604245 -1594850 
2385.652 -1569828 -1530783 -1483136 -1435074 -1394666 -1368459 -1359620 
2386.074 -1367576 -1388441 -1416217 -1444760 -1468384 -1483507 -1488781 
2386.496 -1484807 -1473499 -1457613 -1440392 -1424990 -1414267 -1410225 
2386.918 -1413404 -1422675 -1435330 -1448029 -1457306 -1460811 -1457742 
2387.341 -1448555 -1434423 -1416406 -1395276 -1371535 -1346130 -1320964 
2387.763 -1298749 -1282722 -1275502 -1278047 -1289184 -1305826 -1324079 
2388.185 -1340036 -1351077 -1356141 -1355358 -1349506 -1339358 -1325499 
2388.607 -1308382 -1288676 -1267483 -1246081 -1225708 -1207041 -1190064 
2389.029 -1174345 -1159582 -1146172 -1135502 -1129543 -1130062 -1137700 
2389.451 -1151328 -1167949 -1183403 -1193891 -1196772 -1191518 -1179589 
2389.873 -1163953 -1148073 -1134992 -1127309 -1126860 -1135063 -1153022 
2390.295 -1181214 -1218827 -1263013 -1308945 -1349853 -1378597 -1390126 
2390.718 -1382760 -1359597 -1327533 -1296295 -1274945 -1269282 -1280383 
2391.140 -1304157 -1332845 -1357282 -1370572 -1369326 -1354732 -1331216 
2391.562 -1304936 -1281197 -1262685 -1249326 -1238836 -1228330 -1215641 
2391.984 -1200486 -1184377 -1170172 -1160701 -1157949 -1162440 -1173129 
2392.406 -1187620 -1202616 -1214768 -1220644 -1217639 -1204514 -1181936 
2392.828 -1152829 -1122301 -1097315 -1084697 -1089868 -1115216 -1159098 
2393.250 -1215741 -1276171 -1330766 -1370299 -1388646 -1384089 -1359485 
2393.672 -1321527 -1279051 -1241805 -1217593 -1211330 -1224227 -1253914 
2394.094 -1295224 -1341588 -1386855 -1425590 -1453893 -1469451 -1470982 
2394.517 -1458309 -1432422 -1396010 -1353598 -1311562 -1277725 -1259000 
2394.939 -1260197 -1282239 -1321758 -1371503 -1422159 -1465197 -1493922 
2395.361 -1505347 -1500091 -1481615 -1454704 -1424182 -1394528 -1369031 
2395.783 -1350103 -1339236 -1336756 -1341687 -1351680 -1363527 -1373391 
2396.205 -1377843 -1374607 -1362580 -1341874 -1313320 -1278256 -1238234 
2396.627 -1195364 -1152793 -1114399 -1084759 -1068025 -1066658 -1080745 
2397.049 -1107717 -1143338 -1182342 -1220251 -1254210 -1282837 -1305935 
2397.471 -1323571 -1335345 -1340325 -1337491 -1326489 -1308344 -1285752 
2397.894 -1262675 -1243219 -1231223 -1229155 -1237921 -1256962 -1284494 
2398.316 -1317907 -1353794 -1388665 -1419148 -1442571 -1457809 -1465536 
2398.738 -1468211 -1469022 -1470991 -1475421 -1481186 -1484750 -1481477 
2399.160 -1467404 -1440802 -1403354 -1359969 -1317843 -1283741 -1262695 
2399.582 -1256379 -1262946 -1277793 -1295256 -1310623 -1320855 -1325329 
2400.004 -1325374 -1323468 -1322176 -1323548 -1328906 -1338789 -1353139 
2400.426 -1371281 -1392054 -1413401 -1432663 -1447157 -1454614 -1454172 
2400.848 -1446731 -1434801 -1421566 -1409664 -1400316 -1392702 -1384651 
2401.271 -1373776 -1359192 -1342494 -1327835 -1320283 -1324258 -1341106 
2401.693 -1368068 -1398372 -1423445 -1435651 -1430364 -1407881 -1372935 
2402.115 -1333199 -1296044 -1266817 -1247285 -1235925 -1229184 -1223502 
2402.537 -1216885 -1209393 -1202816 -1199428 -1200992 -1207711 -1218347 
2402.959 -1230559 -1242101 -1251329 -1257812 -1262183 -1265758 -1270042 
2403.381 -1276117 -1284629 -1295678 -1308945 -1323847 -1339654 -1355599 
2403.803 -1370883 -1384923 -1397451 -1408577 -1418750 -1428607 -1438536 
2404.225 -1448314 -1456905 -1462483 -1462993 -1456671 -1442952 -1422906 
2404.647 -1399344 -1375971 -1356533 -1343698 -1338028 -1337932 -1340065 
2405.070 -1340919 -1337665 -1329372 -1317062 -1303154 -1290239 -1279945 
2405.492 -1272535 -1267013 -1262051 -1257026 -1252652 -1251068 -1255111 
2405.914 -1267001 -1287653 -1316075 -1349818 -1385427 -1419318 -1448378 
2406.336 -1469761 -1481106 -1480555 -1467068 -1441103 -1405170 -1363938 
2406.758 -1322973 -1287801 -1262183 -1247047 -1240849 -1240784 -1244638 
2407.180 -1251921 -1264062 -1283117 -1309765 -1341607 -1372636 -1394255 
2407.602 -1398773 -1381791 -1344739 -1294600 -1242674 -1200795 -1177402 
2408.024 -1176209 -1195109 -1227828 -1265411 -1299234 -1322211 -1329362 
2408.447 -1318682 -1291040 -1250640 -1204453 -1162330 -1134940 -1130637 
2408.869 -1153558 -1201098 -1264535 -1330040 -1383585 -1414687 -1419068 
2409.291 -1399825 -1365926 -1329301 -1300325 -1286341 -1290123 -1310494 
2409.713 -1343750 -1385106 -1429960 -1473525 -1511251 -1538795 -1552199 
2410.135 -1549152 -1529478 -1495539 -1451263 -1401276 -1349557 -1298591 
2410.557 -1249932 -1205078 -1166411 -1137952 -1124448 -1129669 -1154774 
2410.979 -1196808 -1248863 -1301183 -1344742 -1373230 -1385142 -1383707 
2411.401 -1375586 -1368183 -1366693 -1373195 -1386230 -1402389 -1418025 
2411.823 -1431182 -1442315 -1453858 -1468740 -1488944 -1514336 -1542601 
2412.246 -1569726 -1591355 -1604335 -1606975 -1599369 -1582686 -1558449 
2412.668 -1527869 -1491678 -1450522 -1405436 -1358393 -1312542 -1271567 
2413.090 -1239416 -1219533 -1214033 -1223679 -1247646 -1283757 -1328379 
2413.512 -1376934 -1424532 -1466078 -1497585 -1516697 -1523080 -1518371 
2413.934 -1505580 -1488236 -1469124 -1450006 -1431566 -1413991 -1397827 
2414.356 -1384580 -1376466 -1375853 -1383903 -1399646 -1419514 -1438362 
2414.778 -1450634 -1452070 -1441408 -1420719 -1395000 -1370273 -1352602 
2415.200 -1346088 -1352047 -1369111 -1393739 -1421268 -1446478 -1465040 
2415.623 -1473880 -1471639 -1458930 -1438225 -1413385 -1388434 -1366947 
2416.045 -1350836 -1339991 -1332431 -1325265 -1315979 -1303344 -1288148 
2416.467 -1272989 -1261591 -1257284 -1262141 -1276171 -1297475 -1322719 
2416.889 -1348289 -1371599 -1391589 -1409103 -1426238 -1445552 -1468695 
2417.311 -1495504 -1523592 -1548993 -1567044 -1573822 -1567693 -1549677 
2417.733 -1523455 -1493919 -1466174 -1443789 -1428024 -1418016 -1411531 
2418.155 -1406168 -1400072 -1392558 -1383877 -1374739 -1365814 -1357545 
2418.577 -1350216 -1344071 -1339409 -1336309 -1334307 -1332013 -1327427 
2419.000 -1318714 -1305132 -1287987 -1270762 -1258562 -1256048 -1265913 
2419.422 -1287396 -1316461 -1346535 -1370822 -1384686 -1386576 -1378437 
2419.844 -1364436 -1349757 -1338558 -1333199 -1334397 -1341642 -1354035 
2420.266 -1370732 -1391008 -1413856 -1437548 -1459600 -1476827 -1486059 
2420.688 -1485038 -1472734 -1449862 -1418737 -1383136 -1347495 -1316400 
2421.110 -1294025 -1282992 -1284073 -1295742 -1314812 -1336849 -1357500 
2421.532 -1373724 -1383941 -1388216 -1387549 -1383171 -1375978 -1366491 
2421.954 -1355358 -1343724 -1333469 -1326791 -1325149 -1328469 -1334542 
2422.376 -1339866 -1340521 -1334201 -1321337 -1305389 -1291648 -1285218 
2422.799 -1289451 -1304344 -1326749 -1351279 -1372707 -1387096 -1393052 
2423.221 -1391605 -1385421 -1377474 -1369939 -1363999 -1359674 -1356421 
2423.643 -1353636 -1351099 -1349172 -1348880 -1351529 -1358508 -1370681 
2424.065 -1387927 -1408782 -1430531 -1450032 -1464415 -1472442 -1474960 
2424.487 -1474806 -1475556 -1479895 -1488285 -1498379 -1505580 -1504732 
2424.909 -1492581 -1468989 -1437561 -1404067 -1375102 -1355589 -1347489 
2425.331 -1349968 -1360271 -1375182 -1391791 -1408153 -1422679 -1433455 
2425.753 -1438334 -1435154 -1422999 -1403236 -1379965 -1359212 -1346763 
2426.176 -1346541 -1358666 -1379493 -1402495 -1421143 -1430960 -1431127 
2426.598 -1424554 -1416733 -1413664 -1419372 -1435147 -1459174 -1487689 
2427.020 -1516096 -1540618 -1559178 -1571310 -1577903 -1580440 -1580504 
2427.442 -1579324 -1577823 -1576883 -1577360 -1580270 -1586519 -1596459 
2427.864 -1609508 -1623870 -1636887 -1645393 -1646905 -1640489 -1627215 
2428.286 -1609852 -1591994 -1576698 -1565002 -1555444 -1544571 -1528579 
2428.708 -1504927 -1473996 -1439305 -1406864 -1382869 -1371403 -1373188 
2429.130 -1385126 -1401545 -1415979 -1423846 -1423330 -1415764 -1404358 
2429.552 -1393014 -1384689 -1380674 -1380738 -1383807 -1388762 -1394839 
2429.975 -1401786 -1409468 -1417519 -1425225 -1431608 -1435955 -1438138 
2430.397 -1438923 -1439750 -1442231 -1447830 -1457383 -1471068 -1488547 
2430.819 -1509331 -1533093 -1559680 -1588998 -1620624 -1653202 -1684366 
2431.241 -1710425 -1726932 -1729871 -1716458 -1686598 -1643189 -1592374 
2431.663 -1541907 -1499211 -1469922 -1455906 -1455089 -1462272 -1471533 
2432.085 -1477893 -1479290 -1476962 -1474787 -1477477 -1488505 -1509062 
2432.507 -1537481 -1569975 -1601365 -1626787 -1642356 -1645553 -1635531 
2432.929 -1613016 -1580398 -1541283 -1500517 -1463246 -1433576 -1414071 
2433.352 -1404913 -1404423 -1409860 -1418907 -1430534 -1445170 -1463925 
2433.774 -1487369 -1514323 -1541741 -1565050 -1579618 -1582670 -1573883 
2434.196 -1555745 -1532274 -1508323 -1487920 -1473871 -1467948 -1471036 
2434.618 -1483296 -1503890 -1530559 -1559213 -1584184 -1600040 -1602767 
2435.040 -1591758 -1570163 -1544312 -1521282 -1506211 -1500811 -1502777 
2435.462 -1507238 -1508858 -1504572 -1494403 -1481230 -1468615 -1458950 
2435.884 -1451788 -1444148 -1431743 -1411624 -1384147 -1353672 -1327292 
2436.306 -1312292 -1313854 -1332604 -1364446 -1401449 -1435003 -1457556 
2436.729 -1464886 -1456780 -1436426 -1409000 -1379766 -1353508 -1333388 
2437.151 -1321077 -1317104 -1321106 -1332122 -1348603 -1368713 -1390379 
2437.573 -1411614 -1430960 -1447635 -1461609 -1473314 -1483264 -1491505 
2437.995 -1497450 -1499761 -1496903 -1487651 -1471738 -1450199 -1425394 
2438.417 -1400602 -1378921 -1362786 -1353161 -1349480 -1349837 -1351616 
2438.839 -1352352 -1350074 -1343926 -1334166 -1322276 -1310613 -1302289 
2439.261 -1300907 -1309569 -1330432 -1363637 -1406970 -1455489 -1502380 
2439.683 -1540781 -1564759 -1571477 -1561809 -1540164 -1512931 -1486728 
2440.105 -1466792 -1455463 -1452336 -1454973 -1460648 -1467340 -1474867 
2440.528 -1484673 -1499150 -1520201 -1548011 -1580315 -1612598 -1639066 
2440.950 -1653687 -1652401 -1633942 -1600634 -1557628 -1512266 -1472132 
2441.372 -1442866 -1427523 -1425564 -1433567 -1445866 -1456585 -1461035 
2441.794 -1456636 -1443664 -1424875 -1404910 -1388646 -1380462 -1383023 
2442.216 -1396614 -1419132 -1446558 -1474236 -1497485 -1513107 -1519852 
2442.638 -1518336 -1510403 -1498154 -1483283 -1466513 -1448058 -1428473 
2443.060 -1409369 -1394069 -1387122 -1392799 -1413965 -1450458 -1498865 
2443.482 -1552784 -1604868 -1648503 -1678884 -1694033 -1694112 -1680602 
2443.905 -1655282 -1620103 -1577363 -1530003 -1482361 -1439484 -1405911 
2444.327 -1384718 -1376212 -1377994 -1385658 -1394884 -1402825 -1409058 
2444.749 -1415325 -1424221 -1437433 -1454409 -1472042 -1485589 -1490727 
2445.171 -1484724 -1467849 -1442946 -1414626 -1387372 -1364529 -1347971 
2445.593 -1338217 -1335371 -1339731 -1351822 -1371994 -1399386 -1431528 
2446.015 -1463915 -1491246 -1508938 -1514333 -1508013 -1493513 -1476612 
2446.437 -1463009 -1456896 -1459750 -1470232 -1484967 -1500210 -1513430 
2446.859 -1523989 -1533176 -1543186 -1555921 -1571678 -1588835 -1604165 
2447.281 -1614341 -1617186 -1612790 -1603591 -1593751 -1587628 -1587960 
2447.704 -1595195 -1607078 -1619829 -1629085 -1631689 -1626433 -1614146 
2448.126 -1596951 -1577273 -1556940 -1536541 -1515616 -1493167 -1468429 
2448.548 -1441433 -1413250 -1385716 -1361199 -1341874 -1329182 -1323587 
2448.970 -1324371 -1329789 -1337308 -1344399 -1348950 -1349879 -1347418 
2449.392 -1343126 -1339464 -1338886 -1343470 -1354134 -1370459 -1390687 
2449.814 -1412163 -1431929 -1447004 -1455361 -1456149 -1450292 -1440292 
2450.236 -1430165 -1424548 -1427123 -1439831 -1461621 -1488765 -1515283 
2450.658 -1535041 -1543701 -1539819 -1525451 -1505375 -1485765 -1472004 
2451.081 -1467955 -1475463 -1494614 -1524450 -1563254 -1608620 -1656682 
2451.503 -1702091 -1738671 -1760134 -1762562 -1745919 -1714811 -1677099 
2451.925 -1641999 -1617067 -1605328 -1604858 -1609549 -1612263 -1606969 
2452.347 -1591371 -1567207 -1539109 -1512211 -1489975 -1473285 -1460526 
2452.769 -1448901 -1435939 -1420729 -1404015 -1387497 -1372668 -1360156 
2453.191 -1349426 -1339419 -1329346 -1319585 -1311906 -1309443 -1315728 
2453.613 -1333967 -1366318 -1413163 -1472859 -1541373 -1613029 -1680293 
2454.035 -1735060 -1770544 -1781828 -1767607 -1730170 -1675128 -1609578 
2454.458 -1540573 -1474194 -1414408 -1363643 -1323497 -1295260 -1280309 
2454.880 -1279633 -1293053 -1318541 -1352137 -1388912 -1423791 -1453371 
2455.302 -1476673 -1495053 -1511126 -1527310 -1544404 -1560799 -1572605 
2455.724 -1574666 -1562582 -1533697 -1488570 -1430980 -1368023 -1308559 
2456.146 -1261610 -1235496 -1235506 -1263097 -1315214 -1384930 -1462073 
2456.568 -1535041 -1594042 -1632097 -1646969 -1641032 -1620413 -1592767 
2456.990 -1564890 -1541721 -1525051 -1514112 -1506592 -1500190 -1493564 
2457.412 -1486770 -1480885 -1477166 -1475972 -1476122 -1474765 -1468070 
2457.834 -1452612 -1426251 -1389509 -1345587 -1300511 -1261317 -1234959 
2458.257 -1226768 -1238842 -1269636 -1314050 -1364992 -1414292 -1454989 
2458.679 -1483149 -1498254 -1503382 -1503657 -1505020 -1511741 -1525275 
2459.101 -1543931 -1563851 -1580465 -1590372 -1592917 -1590362 -1586979 
2459.523 -1586954 -1592946 -1604523 -1618389 -1629378 -1632780 -1626238 
2459.945 -1610791 -1590522 -1571326 -1558823 -1556064 -1562972 -1576200 
2460.367 -1590902 -1601866 -1605532 -1600761 -1588755 -1572276 -1554520 
2460.789 -1538395 -1525809 -1517718 -1514528 -1516425 -1523544 -1535815 
2461.211 -1552698 -1572560 -1592617 -1609300 -1618479 -1616780 -1602559 
2461.634 -1576545 -1541968 -1504012 -1468791 -1441369 -1424923 -1419873 
2462.056 -1424192 -1434221 -1445936 -1456335 -1463624 -1467449 -1468214 
2462.478 -1466488 -1462637 -1456860 -1449606 -1441879 -1435269 -1431502 
2462.900 -1431608 -1435394 -1441363 -1447539 -1452461 -1456386 -1461557 
2463.322 -1471747 -1490535 -1519558 -1557238 -1598922 -1637931 -1667339 
2463.744 -1682559 -1682005 -1667365 -1642015 -1609916 -1573979 -1535540 
2464.166 -1495043 -1452842 -1410100 -1369397 -1334147 -1307971 -1294095 
2464.588 -1294375 -1309183 -1337205 -1375557 -1419302 -1461676 -1495120 
2465.010 -1511683 -1505587 -1475146 -1423932 -1360531 -1296607 -1244764 
2465.433 -1214217 -1209342 -1228656 -1266170 -1313057 -1360255 -1401099 
2465.855 -1431412 -1450038 -1458129 -1458578 -1455223 -1452237 -1453724 
2466.277 -1462285 -1478188 -1498436 -1517417 -1527799 -1522840 -1499121 
2466.699 -1457729 -1404532 -1348016 -1297507 -1259759 -1237303 -1228340 
2467.121 -1228008 -1230614 -1231445 -1228456 -1222339 -1215902 -1212593 
2467.543 -1215780 -1227705 -1248943 -1278388 -1313211 -1349397 -1381990 
2467.965 -1406418 -1419507 -1420238 -1410055 -1392285 -1371021 -1349387 
2468.387 -1328899 -1309273 -1289271 -1267911 -1245579 -1224217 -1206738 
2468.810 -1195570 -1191460 -1193014 -1197356 -1201417 -1203328 -1203370 
2469.232 -1203744 -1207363 -1216169 -1230137 -1246895 -1262936 -1274575 
2469.654 -1279720 -1278346 -1272358 -1264481 -1257158 -1251956 -1249300 
2470.076 -1249001 -1250936 -1255427 -1263255 -1275200 -1291429 -1311044 
2470.498 -1332032 -1351594 -1366433 -1373496 -1370411 -1355824 -1329918 
2470.920 -1294758 -1254644 -1215274 -1183458 -1165475 -1165056 -1182578 
2471.342 -1214310 -1253582 -1291722 -1320961 -1336331 -1336611 -1324577 
2471.764 -1305958 -1288094 -1277342 -1278137 -1291641 -1315773 -1345346 
2472.187 -1373426 -1393450 -1400162 -1391775 -1370286 -1341385 -1312452 
2472.609 -1290551 -1280553 -1283420 -1296305 -1313532 -1329150 -1338295 
2473.031 -1338876 -1331743 -1319891 -1307119 -1296723 -1291017 -1290959 
2473.453 -1296314 -1305691 -1316686 -1325711 -1328317 -1320543 -1299964 
2473.875 -1267548 -1228012 -1189893 -1163153 -1155771 -1171720 -1208652 
2474.297 -1258842 -1310748 -1353707 -1380706 -1390325 -1386438 -1376280 
2474.719 -1367384 -1364385 -1368254 -1376334 -1384375 -1388261 -1386088 
2475.141 -1378633 -1368957 -1360962 -1357979 -1361861 -1372598 -1388495 
2475.563 -1406934 -1425385 -1441799 -1455165 -1465581 -1473961 -1481490 
2475.986 -1488976 -1496179 -1501602 -1502709 -1496525 -1481035 -1456114 
2476.408 -1424256 -1389946 -1358897 -1336335 -1325068 -1324937 -1332807 
2476.830 -1343946 -1353341 -1357677 -1356312 -1351228 -1346053 -1344739 
2477.252 -1350261 -1363405 -1382677 -1404448 -1424291 -1437503 -1440382 
2477.674 -1431015 -1409385 -1377243 -1337520 -1293809 -1249362 -1206735 
2478.096 -1167798 -1133807 -1105986 -1085945 -1075593 -1077015 -1091687 
2478.518 -1119682 -1159246 -1206841 -1257979 -1307810 -1352429 -1389423 
2478.940 -1417785 -1437699 -1449862 -1455098 -1454054 -1447324 -1435570 
2479.363 -1419552 -1400037 -1377557 -1352336 -1324606 -1295054 -1265385 
2479.785 -1238743 -1218988 -1209719 -1212860 -1227377 -1248914 -1270569 
2480.207 -1285514 -1288602 -1278665 -1258922 -1236221 -1218312 -1210995 
2480.629 -1216411 -1232089 -1252117 -1269060 -1277281 -1274553 -1262952 
2481.051 -1247678 -1235442 -1231886 -1239445 -1256865 -1279488 -1301077 
2481.473 -1315220 -1317615 -1307077 -1285652 -1257677 -1228591 -1203444 
2481.895 -1185283 -1174938 -1171094 -1171423 -1173645 -1176825 -1181649 
2482.317 -1190254 -1204891 -1226481 -1253386 -1281219 -1303405 -1312693 
2482.740 -1303897 -1275286 -1229864 -1174535 -1119111 -1073724 -1045990 
2483.162 -1040245 -1056382 -1090717 -1136877 -1187949 -1237789 -1281731 
2483.584 -1317396 -1344427 -1364019 -1378324 -1389939 -1401295 -1414029 
2484.006 -1428758 -1444786 -1460276 -1472468 -1478505 -1476106 -1464085 
2484.428 -1442686 -1413465 -1378883 -1341475 -1303559 -1266869 -1232579 
2484.850 -1201833 -1176103 -1157333 -1147953 -1150080 -1164714 -1190909 
2485.272 -1225557 -1263586 -1298842 -1326123 -1342172 -1346827 -1342837 
2485.694 -1335075 -1328819 -1327623 -1332636 -1342044 -1352210 -1359096 
2486.116 -1360342 -1356411 -1350791 -1348674 -1355313 -1373856 -1403816 
2486.539 -1440494 -1475725 -1500517 -1506313 -1488060 -1445500 -1383492 
2486.961 -1310871 -1238327 -1176909 -1134724 -1116098 -1121055 -1145910 
2487.383 -1184506 -1229896 -1276471 -1320202 -1359151 -1392844 -1421171 
2487.805 -1443533 -1458533 -1464111 -1458623 -1441808 -1415505 -1383486 
2488.227 -1351122 -1324124 -1306897 -1302109 -1309954 -1328568 -1354314 
2488.649 -1382674 -1409164 -1429402 -1440087 -1439260 -1426677 -1403951 
2489.071 -1374569 -1343383 -1315284 -1294796 -1284983 -1287042 -1300688 
2489.493 -1324516 -1356662 -1394804 -1436337 -1478038 -1515757 -1545133 
2489.916 -1562208 -1564570 -1552420 -1528819 -1499300 -1469851 -1446000 
2490.338 -1430970 -1425055 -1426068 -1430415 -1434666 -1436340 -1434647 
2490.760 -1430246 -1424609 -1419206 -1415062 -1412496 -1411294 -1410909 
2491.182 -1410784 -1410569 -1410203 -1410052 -1410854 -1413606 -1419116 
2491.604 -1427479 -1437478 -1446561 -1451173 -1447709 -1434243 -1411499 
2492.026 -1383530 -1356543 -1337877 -1333334 -1345144 -1371419 -1406453 
2492.448 -1442786 -1472878 -1491806 -1497818 -1492117 -1477503 -1457133 
2492.870 -1433445 -1407659 -1380648 -1353563 -1328353 -1308067 -1295922 
2493.292 -1294330 -1304157 -1324339 -1352233 -1384387 -1417855 -1450638 
2493.715 -1481951 -1511856 -1540458 -1567223 -1590691 -1608467 -1617984 
2494.137 -1617316 -1605800 -1584443 -1555665 -1522786 -1488806 -1455784 
2494.559 -1424429 -1394297 -1364571 -1335056 -1306906 -1282886 -1266727 
2494.981 -1261623 -1269256 -1288531 -1315767 -1345269 -1371634 -1391104 
2495.403 -1402790 -1408654 -1412471 -1417923 -1426748 -1437914 -1447670 
2495.825 -1451208 -1443978 -1423791 -1391579 -1351485 -1309472 -1271982 
2496.247 -1244523 -1230021 -1228527 -1237087 -1250807 -1263570 -1269700 
2496.669 -1265691 -1250971 -1228466 -1203586 -1183319 -1173403 -1176819 
2497.092 -1192753 -1217104 -1243904 -1267573 -1285314 -1297723 -1308514 
2497.514 -1322337 -1343056 -1371644 -1405760 -1440151 -1468570 -1485569 
2497.936 -1487394 -1472923 -1443238 -1401105 -1350184 -1294983 -1240568 
2498.358 -1191863 -1153423 -1128242 -1116857 -1117109 -1124823 -1135424 
2498.780 -1145346 -1153600 -1161908 -1173861 -1192840 -1220519 -1255655 
2499.202 -1294507 -1331595 -1361649 -1381326 -1389509 -1387443 -1377788 
2499.624 -1364038 -1349506 -1337218 -1329995 -1329879 -1337912 -1353402 
2500.046 -1373715 -1394316 -1409860 -1416175 -1411249 -1396312 -1375140 
2500.469 -1353071 -1334718 -1322594 -1316667 -1314928 -1314722 -1314044 
2500.891 -1312568 -1311282 -1311771 -1314902 -1320308 -1326328 -1330943 
2501.313 -1332636 -1331239 -1327852 -1324329 -1322202 -1321864 -1322594 
2501.735 -1323076 -1322276 -1320357 -1318692 -1319531 -1324843 -1335175 
2502.157 -1349255 -1364093 -1376225 -1382552 -1381836 -1374906 -1364484 
2502.579 -1353964 -1346435 -1343724 -1346024 -1352233 -1360657 -1370029 
2503.001 -1380026 -1391435 -1405780 -1424779 -1449346 -1479139 -1512262 
2503.423 -1545594 -1575330 -1597443 -1608780 -1607100 -1591509 -1562528 
2503.845 -1522105 -1473608 -1421296 -1370511 -1326659 -1294259 -1276512 
2504.268 -1274267 -1285938 -1307800 -1335287 -1363832 -1389991 -1412243 
2504.690 -1430691 -1446542 -1461157 -1475386 -1489152 -1501535 -1511117 
2505.112 -1516617 -1517213 -1512717 -1503638 -1491038 -1476401 -1461308 
2505.534 -1447225 -1435090 -1424910 -1415713 -1405770 -1393514 -1378385 
2505.956 -1361761 -1347084 -1339361 -1343216 -1361251 -1392513 -1432410 
2506.378 -1473413 -1507190 -1527725 -1532443 -1523295 -1505392 -1485544 
2506.800 -1469444 -1460055 -1457376 -1459030 -1461843 -1463162 -1461993 
2507.222 -1458959 -1455755 -1454089 -1455108 -1458914 -1464700 -1471062 
2507.645 -1476436 -1479450 -1478986 -1474431 -1465831 -1454082 -1440844 
2508.067 -1428527 -1419834 -1416996 -1421296 -1432599 -1449321 -1468515 
2508.489 -1486514 -1499784 -1505203 -1501007 -1487129 -1465351 -1438914 
2508.911 -1411958 -1388585 -1371493 -1361559 -1357670 -1357596 -1359067 
2509.333 -1361093 -1364545 -1371689 -1384840 -1404715 -1429399 -1454614 
2509.755 -1475107 -1486728 -1488685 -1484109 -1479248 -1480475 -1491976 
2510.177 -1513248 -1539278 -1561873 -1573161 -1568914 -1549910 -1521740 
2510.599 -1492491 -1470258 -1459831 -1461987 -1473810 -1490561 -1507171 
2511.021 -1519775 -1526110 -1524824 -1514986 -1495805 -1466827 -1428883 
2511.444 -1384458 -1338262 -1295967 -1263258 -1244709 -1242510 -1256611 
2511.866 -1284983 -1324487 -1370960 -1419728 -1465991 -1504636 -1531452 
2512.288 -1544145 -1543087 -1531628 -1515498 -1501615 -1495693 -1501237 
2512.710 -1518627 -1545645 -1578337 -1612521 -1645010 -1673633 -1697289 
2513.132 -1715477 -1727833 -1734045 -1733902 -1727365 -1714540 -1695441 
2513.554 -1669871 -1637592 -1598944 -1555582 -1510787 -1469621 -1437593 
2513.976 -1418811 -1414732 -1423060 -1438555 -1454207 -1464124 -1465017 
2514.398 -1456905 -1442392 -1425183 -1408432 -1393639 -1381094 -1370951 
2514.821 -1364285 -1363849 -1373163 -1394852 -1428992 -1472023 -1517241 
2515.243 -1556180 -1581877 -1590448 -1582277 -1561154 -1532763 -1502505 
2515.665 -1473839 -1448436 -1426869 -1409860 -1399354 -1398282 -1409491 
2516.087 -1434368 -1471587 -1516768 -1563151 -1604067 -1634060 -1650733 
2516.509 -1654982 -1650516 -1642448 -1635617 -1634031 -1639880 -1653613 
2516.931 -1674089 -1698962 -1724846 -1747491 -1762714 -1766717 -1756993 
2517.353 -1733134 -1696929 -1652102 -1603083 -1554412 -1509312 -1469271 
2517.775 -1434275 -1403444 -1375882 -1351456 -1330940 -1315738 -1307083 
2518.198 -1305183 -1308781 -1315185 -1321221 -1323915 -1321713 -1314889 
2518.620 -1305405 -1296105 -1289541 -1287283 -1289274 -1294063 -1299530 
2519.042 -1303948 -1306569 -1308122 -1310514 -1316409 -1328449 -1348356 
2519.464 -1376700 -1412532 -1453608 -1496429 -1537129 -1572001 -1598133 
2519.886 -1614338 -1621307 -1621505 -1618214 -1614791 -1613304 -1613894 
2520.308 -1614740 -1612885 -1605567 -1591260 -1570604 -1546284 -1522527 
2520.730 -1503420 -1492283 -1490711 -1498465 -1513741 -1533592 -1554591 
2521.152 -1572739 -1583979 -1584858 -1572806 -1547263 -1509978 -1465251 
2521.574 -1418632 -1375872 -1341597 -1317981 -1305022 -1301238 -1304936 
2521.997 -1315114 -1331666 -1354680 -1383110 -1413766 -1441295 -1458770 
2522.419 -1460314 -1443045 -1408692 -1363348 -1316397 -1277986 -1255681 
2522.841 -1253573 -1271264 -1305096 -1349297 -1398103 -1446959 -1492498 
2523.263 -1532683 -1566168 -1591809 -1608744 -1616432 -1614820 -1604344 
2523.685 -1585826 -1560211 -1528499 -1492133 -1453297 -1415142 -1382025 
2524.107 -1358550 -1348517 -1353983 -1374254 -1405821 -1442815 -1478893 
2524.529 -1508086 -1526251 -1531884 -1525832 -1510851 -1490506 -1468740 
2524.951 -1448792 -1432846 -1421858 -1415508 -1412506 -1411130 -1410107 
2525.374 -1409241 -1409921 -1414729 -1426889 -1448821 -1480814 -1520236 
2525.796 -1561703 -1598388 -1623260 -1631692 -1622507 -1598446 -1564855 
2526.218 -1528224 -1494063 -1465126 -1441174 -1419587 -1397060 -1370960 
2526.640 -1340678 -1307807 -1275563 -1247314 -1225367 -1210308 -1201069 
2527.062 -1195673 -1192411 -1190851 -1192015 -1197942 -1210440 -1230050 
2527.484 -1255118 -1282126 -1306202 -1322999 -1330095 -1327874 -1319543 
2527.906 -1310128 -1305064 -1308003 -1319871 -1338172 -1358078 -1373346 
2528.328 -1378495 -1370732 -1350569 -1322121 -1291764 -1267055 -1254162 
2528.750 -1256405 -1273391 -1301138 -1332897 -1360718 -1377933 -1380000 
2529.173 -1365730 -1337109 -1299012 -1257876 -1220325 -1192849 -1180411 
2529.595 -1185966 -1210176 -1251042 -1303878 -1361501 -1415951 -1459119 
2530.017 -1484622 -1489376 -1473839 -1441904 -1399395 -1353100 -1308880 
2530.439 -1270801 -1241502 -1222310 -1214130 -1217890 -1234299 -1263290 
2530.861 -1303119 -1350148 -1398632 -1441808 -1473756 -1490126 -1489668 
2531.283 -1474146 -1448000 -1416816 -1386223 -1361065 -1344267 -1337029 
2531.705 -1338780 -1347678 -1360888 -1375175 -1387789 -1396662 -1401176 
2532.127 -1402103 -1401404 -1401330 -1403496 -1408218 -1414280 -1419424 
2532.550 -1421252 -1418516 -1411727 -1403265 -1396261 -1393620 -1396489 
2532.972 -1403617 -1411441 -1415357 -1411415 -1397355 -1373740 -1343438 
2533.394 -1310806 -1279916 -1253653 -1233268 -1218586 -1209013 -1204614 
2533.816 -1206548 -1217049 -1238430 -1271766 -1315873 -1366915 -1418898 
2534.238 -1464479 -1497268 -1512781 -1509514 -1489130 -1456111 -1416755 
2534.660 -1377593 -1345247 -1325120 -1320826 -1334147 -1364391 -1408416 
2535.082 -1460401 -1513053 -1558372 -1589078 -1600841 -1592959 -1569125 
2535.504 -1536211 -1503433 -1479716 -1471264 -1480680 -1506118 -1542291 
2535.927 -1581657 -1617096 -1643300 -1657578 -1660101 -1652925 -1638942 
2536.349 -1620598 -1599704 -1577382 -1554428 -1531874 -1510896 -1492491 
2536.771 -1476917 -1463310 -1449856 -1434609 -1416733 -1397522 -1380767 
2537.193 -1371474 -1374543 -1392401 -1423621 -1462535 -1500786 -1530348 
2537.615 -1545610 -1545958 -1535882 -1523851 -1518838 -1527809 -1553472 
2538.037 -1593627 -1642005 -1690298 -1731221 -1759459 -1773088 -1773174 
2538.459 -1762972 -1746495 -1727231 -1707673 -1688634 -1669543 -1648813 
2538.881 -1624875 -1597041 -1566542 -1536672 -1512762 -1500786 -1505177 
2539.303 -1527453 -1564794 -1610622 -1655540 -1690655 -1709966 -1711877 
2539.726 -1699485 -1679231 -1658516 -1642627 -1633473 -1628865 -1623943 
2540.148 -1612611 -1590231 -1555377 -1510653 -1462374 -1419090 -1390312 
2540.570 -1383367 -1401872 -1444225 -1503766 -1569409 -1628083 -1668844 
2540.992 -1684526 -1674443 -1644053 -1603770 -1565440 -1538885 -1530320 
2541.414 -1540788 -1567162 -1603626 -1644111 -1683101 -1716177 -1740189 
2541.836 -1752401 -1750731 -1734293 -1704082 -1663535 -1617853 -1573340 
2542.258 -1535066 -1505516 -1484068 -1467673 -1452455 -1435644 -1417099 
2542.680 -1399421 -1386965 -1383762 -1392176 -1411601 -1438984 -1469486 
2543.103 -1498471 -1522780 -1541283 -1554936 -1566050 -1577417 -1591151 
2543.525 -1608186 -1627808 -1647856 -1664980 -1675616 -1677277 -1669342 
2543.947 -1653818 -1634890 -1618274 -1608859 -1609310 -1618887 -1633792 
2544.369 -1648229 -1656382 -1654752 -1642557 -1621814 -1595818 -1567910 
2544.791 -1540193 -1513462 -1488051 -1464835 -1445927 -1434461 -1433211 
2545.213 -1443251 -1462778 -1487449 -1511238 -1528563 -1536464 -1535002 
2545.635 -1527006 -1516262 -1505881 -1496724 -1487343 -1474915 -1457110 
2546.057 -1433509 -1406338 -1379689 -1358553 -1347026 -1346888 -1357436 
2546.479 -1375917 -1398773 -1422509 -1444824 -1464851 -1482860 -1499726 
2546.902 -1516387 -1533393 -1550591 -1567073 -1581194 -1590947 -1594000 
2547.324 -1588302 -1572649 -1547084 -1513302 -1474630 -1436029 -1403040 
2547.746 -1380924 -1373830 -1383299 -1407942 -1443058 -1482073 -1517305 
2548.168 -1542207 -1553338 -1550981 -1539189 -1524002 -1511997 -1507587 
2548.590 -1511923 -1522840 -1536249 -1547954 -1555406 -1558721 -1560227 
2549.012 -1562854 -1568236 -1575497 -1581027 -1580066 -1568175 -1543627 
2549.434 -1508288 -1467625 -1428848 -1399091 -1383778 -1385180 -1402507 
2549.856 -1432313 -1469790 -1509034 -1543797 -1568591 -1578737 -1571857 
2550.279 -1548801 -1514282 -1476033 -1443103 -1423782 -1422268 -1437481 
2550.701 -1462868 -1489232 -1507206 -1511312 -1502002 -1485704 -1472314 
2551.123 -1470867 -1486664 -1518281 -1558123 -1594240 -1615344 -1614038 
2551.545 -1589340 -1546623 -1495728 -1447484 -1409696 -1385947 -1374989 
2551.967 -1372652 -1373545 -1373631 -1371031 -1365859 -1359282 -1352496 
2552.389 -1346268 -1341025 -1337585 -1337752 -1343984 -1358820 -1383271 
2552.811 -1415774 -1451660 -1484148 -1506531 -1513738 -1504563 -1481836 
2553.233 -1451903 -1422060 -1398943 -1387067 -1387924 -1400708 -1423022 
2553.656 -1452032 -1484509 -1517065 -1546179 -1568032 -1579446 -1579002 
2554.078 -1567782 -1549616 -1530399 -1516742 -1513366 -1522207 -1541517 
2554.500 -1566929 -1592643 -1613508 -1626516 -1630767 -1627036 -1616477 
2554.922 -1599644 -1575985 -1544360 -1504047 -1455861 -1402774 -1349808 
2555.344 -1302456 -1265852 -1243154 -1234843 -1239055 -1252391 -1271383 
2555.766 -1293073 -1315972 -1339724 -1364545 -1390482 -1416826 -1441895 
2556.188 -1463566 -1479620 -1488531 -1489930 -1484532 -1473970 -1460250 
2556.610 -1445555 -1431858 -1420905 -1414331 -1413317 -1418324 -1428566 
2557.032 -1441808 -1454348 -1461743 -1460481 -1448981 -1428870 -1404612 
2557.455 -1382824 -1369792 -1369406 -1382003 -1404237 -1430605 -1455371 
2557.877 -1475251 -1490282 -1503670 -1519830 -1542451 -1572384 -1607110 
2558.299 -1641332 -1669119 -1686100 -1690546 -1683828 -1669297 -1650992 
2558.721 -1631848 -1613291 -1595278 -1577145 -1558238 -1538459 -1517980 
2559.143 -1497031 -1475491 -1453156 -1430313 -1408397 -1390196 -1379615 
2559.565 -1380141 -1393533 -1418657 -1451458 -1485617 -1514182 -1531973 
2559.987 -1536205 -1527121 -1507008 -1479283 -1447109 -1412849 -1378536 
2560.409 -1346300 -1318891 -1299958 -1292889 -1300099 -1321720 -1355217 
2560.832 -1395394 -1435449 -1468906 -1490276 -1496669 -1488060 -1467189 
2561.254 -1438808 -1408644 -1382779 -1365865 -1360596 -1366937 -1382192 
2561.676 -1401404 -1418616 -1428857 -1428957 -1418670 -1400313 -1377923 
2562.098 -1355631 -1336229 -1320784 -1308604 -1298070 -1287708 -1277146 
2562.520 -1267207 -1259653 -1256309 -1258404 -1266064 -1278353 -1293497 
2562.942 -1309533 -1324821 -1338066 -1348700 -1356688 -1362612 -1367445 
2563.364 -1372517 -1379082 -1387895 -1398805 -1410617 -1421402 -1428941 
2563.786 -1431602 -1428896 -1421624 -1411476 -1400249 -1389166 -1378315 
2564.208 -1366819 -1353402 -1337366 -1319229 -1301058 -1285993 -1277770 
2564.631 -1279614 -1293359 -1319048 -1354597 -1396155 -1438103 -1474425 
2565.053 -1499556 -1509571 -1503666 -1484554 -1458347 -1432410 -1414001 
2565.475 -1407444 -1412653 -1425144 -1437641 -1442972 -1436311 -1417358 
2565.897 -1390110 -1361514 -1338192 -1324561 -1321417 -1326399 -1335403 
2566.319 -1344710 -1352464 -1358736 -1364667 -1371089 -1377653 -1382824 
2566.741 -1385026 -1383938 -1381460 -1381569 -1389041 -1407015 -1435686 
2567.163 -1471241 -1507251 -1535802 -1550115 -1546393 -1523922 -1484923 
2567.585 -1433336 -1374286 -1313169 -1255826 -1208787 -1177983 -1168175 
2568.008 -1181136 -1214542 -1261603 -1312423 -1357230 -1388149 -1402228 
2568.430 -1401725 -1393264 -1384811 -1383094 -1391778 -1410383 -1435183 
2568.852 -1460785 -1482473 -1497159 -1504307 -1505472 -1503577 -1501746 
2569.274 -1502277 -1506272 -1513302 -1521625 -1528643 -1531852 -1529510 
2569.696 -1521430 -1509126 -1495610 -1484583 -1478998 -1480491 -1488646 
2570.118 -1501464 -1516006 -1529718 -1541296 -1551001 -1560310 -1571266 
2570.540 -1585705 -1604456 -1627189 -1652322 -1677427 -1699141 -1713457 
2570.962 -1716477 -1704382 -1674705 -1627036 -1563736 -1489760 -1412060 
2571.385 -1338760 -1276969 -1232240 -1207737 -1203989 -1219285 -1250105 
2571.807 -1291979 -1339361 -1386563 -1428466 -1460667 -1480516 -1487279 
2572.229 -1482085 -1467353 -1446266 -1422345 -1398818 -1379056 -1366542 
2572.651 -1364356 -1374890 -1398539 -1432903 -1472065 -1507625 -1530607 
2573.073 -1533058 -1511021 -1465386 -1402161 -1330422 -1260879 -1203628 
2573.495 -1165630 -1150770 -1159269 -1188407 -1232949 -1286254 -1341475 
2573.917 -1391756 -1431858 -1458584 -1470828 -1469444 -1456412 -1434262 
2574.339 -1405411 -1372716 -1339878 -1311462 -1293140 -1290123 -1305238 
2574.761 -1337466 -1381194 -1427424 -1465636 -1488000 -1491377 -1478572 
2575.184 -1456607 -1434282 -1418590 -1412047 -1412557 -1414899 -1413949 
2575.606 -1406989 -1395439 -1384099 -1379400 -1385947 -1404705 -1431804 
2576.028 -1460026 -1480420 -1485115 -1470136 -1436090 -1388569 -1336180 
2576.450 -1289592 -1258359 -1248657 -1262093 -1294761 -1338217 -1380822 
2576.872 -1411781 -1423195 -1412416 -1382426 -1340739 -1296771 -1258401 
2577.294 -1230749 -1215022 -1209532 -1211365 -1218212 -1229252 -1244919 
2577.716 -1265900 -1292018 -1321488 -1351244 -1377532 -1397024 -1407727 
2578.138 -1408933 -1401128 -1385482 -1363897 -1338956 -1314076 -1293693 
2578.561 -1282143 -1282641 -1295990 -1319971 -1349435 -1377609 -1398609 
2578.983 -1408654 -1407432 -1397727 -1384394 -1372251 -1364471 -1361893 
2579.405 -1362888 -1364234 -1361932 -1352699 -1334558 -1307533 -1273794 
2579.827 -1237796 -1205652 -1183419 -1176280 -1186427 -1212064 -1247217 
2580.249 -1283240 -1311080 -1323265 -1316612 -1292442 -1256096 -1214452 
2580.671 -1174358 -1140821 -1116224 -1101286 -1096026 -1100849 -1116892 
2581.093 -1145465 -1186901 -1239284 -1298045 -1356203 -1405269 -1437878 
2581.515 -1448846 -1436670 -1403746 -1355939 -1301038 -1246499 -1198661 
2581.938 -1161040 -1134259 -1116695 -1105824 -1099586 -1097318 -1099980 
2582.360 -1109493 -1127399 -1153458 -1184915 -1216620 -1242732 -1257873 
2582.782 -1259270 -1247588 -1226775 -1202619 -1180859 -1165843 -1159062 
2583.204 -1159320 -1163475 -1168059 -1170456 -1170107 -1168801 -1170459 
2583.626 -1180017 -1201581 -1237236 -1285456 -1340839 -1394377 -1436125 
2584.048 -1457527 -1453967 -1426651 -1382449 -1332305 -1287087 -1255539 
2584.470 -1241473 -1243602 -1256882 -1275235 -1294163 -1311587 -1327852 
2584.892 -1344113 -1360538 -1375326 -1384984 -1385732 -1375708 -1356177 
2585.314 -1331756 -1308620 -1293053 -1288978 -1296993 -1314577 -1337411 
2585.737 -1361074 -1381932 -1397907 -1408047 -1411874 -1409100 -1399671 
2586.159 -1384243 -1364536 -1343618 -1325248 -1312642 -1307810 -1310584 
2586.581 -1318852 -1329021 -1337334 -1340752 -1337549 -1327611 -1312275 
2587.003 -1294073 -1275940 -1261056 -1252117 -1250524 -1256186 -1267313 
2587.425 -1281081 -1294372 -1305193 -1313311 -1320344 -1328668 -1340119 
2587.847 -1354475 -1369024 -1379008 -1379509 -1367891 -1345259 -1317052 
2588.269 -1291361 -1277265 -1281148 -1304862 -1344829 -1393370 -1440517 
2588.691 -1476321 -1493894 -1490017 -1465703 -1425324 -1376029 -1326200 
2589.114 -1283851 -1256338 -1248476 -1261784 -1293944 -1339120 -1389041 
2589.536 -1434468 -1468266 -1486466 -1489315 -1480369 -1465097 -1448484 
2589.958 -1433070 -1418587 -1402402 -1381419 -1353620 -1319624 -1282635 
2590.380 -1247652 -1219211 -1200025 -1189938 -1186311 -1185115 -1182732 
2590.802 -1177383 -1169452 -1161030 -1154633 -1152367 -1155207 -1163279 
2591.224 -1176648 -1195912 -1222213 -1256550 -1298517 -1345221 -1391098 
2591.646 -1429518 -1454137 -1461506 -1452381 -1431496 -1405767 -1381374 
2592.068 -1362057 -1347685 -1335351 -1321337 -1303801 -1284134 -1266923 
2592.490 -1257696 -1260728 -1276377 -1300646 -1325820 -1343428 -1347405 
2592.913 -1335682 -1311102 -1279845 -1249632 -1226459 -1213376 -1209831 
2593.335 -1212512 -1216530 -1217081 -1211040 -1197398 -1177712 -1155559 
2593.757 -1136147 -1124758 -1125336 -1139423 -1165259 -1198033 -1230872 
2594.179 -1257438 -1273321 -1277584 -1272555 -1262775 -1252803 -1245273 
2594.601 -1240527 -1237039 -1233046 -1228169 -1224297 -1225048 -1234228 
2595.023 -1253518 -1281251 -1312105 -1339397 -1356838 -1361505 -1354972 
2595.445 -1342991 -1333256 -1332305 -1343528 -1365448 -1392372 -1415633 
2595.867 -1427084 -1420825 -1395102 -1352538 -1299485 -1244320 -1194893 
2596.290 -1157781 -1136670 -1132241 -1142728 -1164892 -1195225 -1230369 
2596.712 -1267841 -1305495 -1340910 -1371329 -1393399 -1404028 -1401731 
2597.134 -1387523 -1365499 -1341758 -1323420 -1315988 -1321665 -1338760 
2597.556 -1362404 -1386239 -1404387 -1413638 -1413770 -1407079 -1396784 
2597.978 -1385748 -1375345 -1365473 -1355384 -1344819 -1334738 -1327521 
2598.400 -1326074 -1332604 -1347524 -1368800 -1392041 -1411326 -1421200 
2598.822 -1417602 -1399299 -1368299 -1329712 -1290676 -1258330 -1238859 
2599.244 -1235451 -1247742 -1271918 -1302199 -1332450 -1357831 -1376440 
2599.667 -1389227 -1399155 -1409308 -1421527 -1435192 -1447705 -1455374 
2600.089 -1455496 -1447628 -1434202 -1419587 -1408663 -1405205 -1410322 
2600.511 -1422438 -1437878 -1452605 -1463153 -1467763 -1466504 -1460792 
2600.933 -1452717 -1444360 -1437632 -1434070 -1434868 -1440888 -1452294 
2601.355 -1468419 -1487529 -1507312 -1525131 -1538738 -1546793 -1548702 
2601.777 -1544356 -1533627 -1515907 -1490161 -1455425 -1411505 -1359722 
2602.199 -1303209 -1246931 -1196444 -1157385 -1134294 -1129681 -1143897 
2602.621 -1174993 -1219233 -1271104 -1324352 -1372970 -1411524 -1436830 
2603.043 -1448250 -1448045 -1440472 -1430900 -1424173 -1423095 -1428056 
2603.466 -1437061 -1447007 -1454598 -1457767 -1456127 -1450772 -1443507 
2603.888 -1435910 -1428787 -1421883 -1414286 -1404901 -1393209 -1379605 
2604.310 -1365560 -1353412 -1346255 -1347347 -1359308 -1383630 -1419623 
2604.732 -1464024 -1510653 -1551905 -1580098 -1589500 -1578548 -1550515 
2605.154 -1513194 -1476033 -1448475 -1436606 -1441590 -1459821 -1484468 
2605.576 -1508003 -1523880 -1528583 -1521602 -1504758 -1480891 -1453031 
2605.998 -1423900 -1395735 -1370780 -1351318 -1339233 -1335734 -1340608 
2606.420 -1352268 -1367872 -1384323 -1399075 -1410527 -1418285 -1422714 
2606.843 -1424503 -1424243 -1422428 -1419523 -1416056 -1412516 -1408933 
2607.265 -1404528 -1397486 -1385520 -1366835 -1341221 -1310748 -1279755 
2607.687 -1253956 -1238237 -1235542 -1245550 -1265063 -1288782 -1311080 
2608.109 -1327771 -1336434 -1336807 -1330085 -1318406 -1304289 -1290641 
2608.531 -1281033 -1278999 -1287730 -1308755 -1340807 -1379258 -1416566 
2608.953 -1444558 -1455765 -1446266 -1416711 -1372411 -1321604 -1273253 
2609.375 -1235364 -1212483 -1205481 -1211514 -1225512 -1240981 -1251760 
2609.797 -1253611 -1244703 -1226382 -1202745 -1180195 -1165479 -1163959 
2610.219 -1178305 -1207337 -1246248 -1287396 -1322918 -1346088 -1353267 
2610.642 -1344758 -1324622 -1299482 -1276483 -1262289 -1261092 -1273887 
2611.064 -1298520 -1330458 -1364089 -1394037 -1417028 -1432304 -1441718 
2611.486 -1448465 -1455922 -1465857 -1477660 -1488246 -1493209 -1488531 
2611.908 -1471824 -1443497 -1406668 -1366581 -1328816 -1298254 -1278288 
2612.330 -1269987 -1272526 -1283339 -1299022 -1315551 -1329365 -1338208 
2612.752 -1341607 -1341289 -1340653 -1343952 -1354414 -1372980 -1397300 
2613.174 -1422409 -1441513 -1448048 -1438032 -1410857 -1369930 -1321427 
2613.596 -1273597 -1234569 -1210811 -1206638 -1223167 -1258230 -1306350 
2614.019 -1359960 -1410100 -1448093 -1467984 -1467234 -1447683 -1414523 
2614.441 -1375406 -1338224 -1309263 -1293037 -1291567 -1304926 -1331605 
2614.863 -1368861 -1412512 -1457053 -1496714 -1526190 -1542236 -1544900 
2615.285 -1537471 -1525409 -1513926 -1506432 -1502905 -1500402 -1494553 
2615.707 -1482210 -1463220 -1441042 -1421226 -1409574 -1409616 -1421062 
2616.129 -1440023 -1460372 -1476183 -1482838 -1478355 -1463018 -1438731 
2616.551 -1407971 -1373455 -1338172 -1304913 -1276323 -1254242 -1239049 
2616.973 -1229493 -1223283 -1218370 -1214059 -1211794 -1214584 -1225834 
2617.396 -1247214 -1277577 -1312767 -1347441 -1376870 -1398988 -1414998 
2617.818 -1428473 -1443122 -1460507 -1479018 -1494310 -1501557 -1497425 
2618.240 -1482130 -1459401 -1435420 -1416021 -1404910 -1402559 -1406639 
2618.662 -1413330 -1418952 -1421412 -1420341 -1416861 -1412817 -1410338 
2619.084 -1411229 -1416717 -1427084 -1441202 -1456306 -1468000 -1471667 
2619.506 -1463810 -1443827 -1414623 -1382532 -1355242 -1338831 -1336216 
2619.928 -1345793 -1362564 -1379724 -1391724 -1395847 -1392526 -1384323 
2620.350 -1374283 -1364552 -1355775 -1347765 -1340544 -1335111 -1333469 
2620.772 -1337735 -1348899 -1366170 -1386997 -1408211 -1427033 -1442340 
2621.195 -1454678 -1465546 -1476283 -1487205 -1497479 -1505702 -1510522 
2621.617 -1511274 -1507981 -1500872 -1489975 -1475226 -1457178 -1437837 
2622.039 -1421030 -1412067 -1415415 -1432823 -1461288 -1493477 -1518851 
2622.461 -1527463 -1513926 -1479283 -1431368 -1381890 -1343955 -1327283 
2622.883 -1336164 -1369230 -1420700 -1482422 -1545683 -1603402 -1649850 
2623.305 -1681080 -1695151 -1692146 -1674536 -1646794 -1615104 -1585526 
2623.727 -1562454 -1548081 -1542051 -1542530 -1547432 -1555681 -1567156 
2624.149 -1582028 -1599564 -1617186 -1630601 -1635292 -1627898 -1608147 
2624.572 -1579222 -1547314 -1519238 -1500366 -1493193 -1496538 -1506358 
2624.994 -1516957 -1523301 -1521721 -1510976 -1492223 -1468749 -1445154 
2625.416 -1426158 -1416121 -1417564 -1430585 -1452544 -1478813 -1503791 
2625.838 -1522322 -1531529 -1531148 -1523560 -1512486 -1502117 -1495760 
2626.260 -1495193 -1500981 -1512592 -1528944 -1548388 -1568882 -1588008 
2626.682 -1603102 -1612071 -1613782 -1608470 -1597325 -1581871 -1563097 
2627.104 -1540947 -1514794 -1484449 -1451340 -1419337 -1394060 -1381354 
2627.526 -1385447 -1406854 -1441969 -1483821 -1524910 -1558814 -1582312 
2627.948 -1595661 -1601541 -1603316 -1603438 -1603073 -1602313 -1601055 
2628.371 -1599759 -1599449 -1601036 -1604430 -1608077 -1609258 -1605433 
2628.793 -1595773 -1582146 -1568920 -1561221 -1563289 -1576216 -1597418 
2629.215 -1621176 -1640971 -1651598 -1650781 -1639803 -1622673 -1604533 
2629.637 -1589579 -1580360 -1577200 -1578868 -1583184 -1587931 -1591196 
2630.059 -1591355 -1587008 -1577069 -1560821 -1538418 -1511181 -1481906 
2630.481 -1454323 -1433009 -1422412 -1425571 -1443638 -1474912 -1515018 
2630.903 -1556905 -1592738 -1615609 -1620988 -1608486 -1581810 -1548113 
2631.325 -1515277 -1490308 -1477119 -1475690 -1482623 -1492674 -1501007 
2631.748 -1504105 -1500971 -1492581 -1481230 -1469406 -1459334 -1452871 
2632.170 -1451384 -1455909 -1466853 -1483578 -1504012 -1524776 -1542191 
2632.592 -1553063 -1556074 -1552088 -1543934 -1534782 -1526679 -1519366 
2633.014 -1510208 -1495123 -1470521 -1435404 -1392388 -1347659 -1308845 
2633.436 -1283664 -1277156 -1290551 -1321453 -1365104 -1416165 -1469787 
2633.858 -1522706 -1572685 -1617546 -1654548 -1679958 -1689893 -1681871 
2634.280 -1656178 -1616860 -1570946 -1527533 -1494697 -1477224 -1475511 
2634.702 -1485675 -1501167 -1515018 -1522815 -1523611 -1520127 -1516976 
2635.125 -1519001 -1529235 -1547899 -1572796 -1600439 -1627486 -1651339 
2635.547 -1670474 -1683774 -1689546 -1685361 -1668197 -1635477 -1586545 
2635.969 -1523615 -1452086 -1379217 -1313613 -1262897 -1232350 -1224726 
2636.391 -1239773 -1274830 -1325104 -1384805 -1447372 -1506032 -1555237 
2636.813 -1590825 -1610845 -1615679 -1607592 -1589877 -1565779 -1538175 
2637.235 -1509194 -1480596 -1454419 -1433070 -1419177 -1415027 -1421556 
2637.657 -1437789 -1460801 -1486664 -1511082 -1530723 -1543861 -1550195 
2638.079 -1550390 -1545220 -1535185 -1520278 -1500309 -1475536 -1447032 
2638.501 -1416858 -1387879 -1362956 -1344614 -1334359 -1332431 -1337822 
2638.924 -1348478 -1361858 -1375159 -1386233 -1394002 -1398799 -1402302 
2639.346 -1407185 -1416255 -1431291 -1452532 -1478092 -1504630 -1527668 
2639.768 -1542837 -1546934 -1538194 -1516736 -1484343 -1444385 -1401160 
2640.190 -1359552 -1324596 -1300173 -1288702 -1290226 -1302608 -1321700 
2640.612 -1342712 -1361816 -1376976 -1388681 -1399521 -1413260 -1433080 
2641.034 -1460446 -1494297 -1531254 -1566159 -1593208 -1607672 -1606576 
2641.456 -1589589 -1559031 -1519756 -1478063 -1440122 -1411374 -1394942 
2641.878 -1391339 -1398783 -1414260 -1434442 -1456691 -1479626 -1502677 
2642.301 -1525521 -1547458 -1567022 -1582360 -1591905 -1594815 -1591311 
2642.723 -1582277 -1568687 -1551048 -1529462 -1504236 -1476702 -1449756 
2643.145 -1427584 -1414001 -1410925 -1416727 -1426392 -1432419 -1428139 
2643.567 -1410652 -1382603 -1351806 -1328693 -1323111 -1339734 -1376630 
2643.989 -1425199 -1473880 -1511018 -1529174 -1527294 -1510413 -1487494 
2644.411 -1467824 -1458950 -1464031 -1481816 -1507283 -1533768 -1554517 
2644.833 -1564251 -1560540 -1543992 -1518176 -1488304 -1460587 -1440343 
2645.255 -1430701 -1432272 -1443142 -1459840 -1478140 -1494438 -1505993 
2645.677 -1510806 -1507545 -1495248 -1473695 -1444039 -1409414 -1374980 
2646.100 -1346490 -1329291 -1325988 -1335512 -1353200 -1372787 -1388816 
2646.522 -1398648 -1403685 -1408590 -1419186 -1439497 -1470252 -1508227 
2646.944 -1547944 -1583210 -1609613 -1625600 -1631919 -1630448 -1622711 
2647.366 -1609268 -1589953 -1565190 -1537324 -1510752 -1491617 -1485874 
2647.788 -1496836 -1524120 -1563148 -1606934 -1647349 -1677950 -1695275 
2648.210 -1698771 -1690129 -1671874 -1646366 -1615056 -1578906 -1539118 
2648.632 -1497646 -1457623 -1422909 -1396925 -1382051 -1378742 -1385411 
2649.054 -1398850 -1415239 -1431185 -1444244 -1453599 -1459754 -1464226 
2649.477 -1468685 -1474476 -1482188 -1491541 -1501531 -1510691 -1517507 
2649.899 -1520387 -1517881 -1508781 -1492248 -1468310 -1438324 -1405494 
2650.321 -1374447 -1350942 -1340511 -1346750 -1370434 -1408888 -1457008 
2650.743 -1508221 -1556985 -1600308 -1638215 -1673174 -1708507 -1746555 
2651.165 -1787066 -1826897 -1860617 -1882680 -1888578 -1876616 -1848092 
2651.587 -1807002 -1758712 -1708475 -1661121 -1619934 -1586794 -1562295 
2652.009 -1545805 -1535635 -1529235 -1523925 -1517257 -1507901 -1495975 
2652.431 -1482908 -1470738 -1460997 -1453954 -1448263 -1441603 -1431743 
2652.854 -1418128 -1402687 -1389930 -1385241 -1393344 -1416011 -1451058 
2653.276 -1492203 -1530803 -1558868 -1570607 -1564756 -1544519 -1516665 
2653.698 -1489050 -1468676 -1460372 -1465831 -1484212 -1512842 -1548558 
2654.120 -1587886 -1627400 -1663892 -1693927 -1714356 -1722971 -1718974 
2654.542 -1703652 -1680293 -1653977 -1630061 -1613428 -1607387 -1612787 
2654.964 -1628003 -1648896 -1669986 -1684542 -1686263 -1670742 -1636370 
2655.386 -1585462 -1524040 -1461567 -1407996 -1372052 -1358887 -1368424 
2655.808 -1395475 -1430877 -1464835 -1488365 -1495949 -1486229 -1461503 
2656.230 -1426388 -1386220 -1346570 -1312266 -1287653 -1277014 -1283815 
2656.653 -1310282 -1356190 -1418311 -1489895 -1561860 -1625396 -1673149 
2657.075 -1701874 -1712849 -1711371 -1704592 -1699268 -1700170 -1708654 
2657.497 -1723104 -1739944 -1755437 -1766752 -1772627 -1773263 -1769570 
2657.919 -1762282 -1751549 -1736996 -1718407 -1696512 -1673611 -1653285 
2658.341 -1639657 -1636230 -1644328 -1662349 -1685635 -1707962 -1722289 
2658.763 -1723012 -1707399 -1675973 -1632436 -1582570 -1533521 -1491928 
2659.185 -1462957 -1449853 -1453057 -1470463 -1497543 -1528810 -1558372 
2659.607 -1581673 -1596600 -1603741 -1606091 -1607547 -1611829 -1620866 
2660.030 -1634357 -1650197 -1665780 -1678954 -1688873 -1695903 -1700794 
2660.452 -1703671 -1703471 -1698105 -1685441 -1664607 -1636661 -1604549 
2660.874 -1571895 -1542038 -1516592 -1495629 -1478499 -1465056 -1456547 
2661.296 -1455486 -1464031 -1482393 -1507331 -1532718 -1550796 -1555655 
2661.718 -1545984 -1526145 -1504847 -1492018 -1495283 -1516381 -1550639 
2662.140 -1588276 -1618810 -1633684 -1629359 -1607557 -1573822 -1534686 
2662.562 -1495408 -1459404 -1428322 -1403210 -1385662 -1377589 -1380542 
2662.984 -1394381 -1416663 -1442690 -1466987 -1485499 -1496688 -1502162 
2663.406 -1505561 -1511187 -1522025 -1538885 -1560466 -1584366 -1607937 
2663.829 -1628916 -1645639 -1656427 -1659259 -1652063 -1633119 -1602170 
2664.251 -1560875 -1512976 -1463194 -1415899 -1374398 -1340177 -1313336 
2664.673 -1293510 -1280640 -1275270 -1278227 -1289863 -1309427 -1334956 
2665.095 -1363922 -1393784 -1422909 -1450558 -1476187 -1498695 -1515786 
2665.517 -1524011 -1520038 -1502050 -1471142 -1431547 -1390260 -1355332 
2665.939 -1333244 -1328051 -1340180 -1366909 -1403005 -1442334 -1478970 
2666.361 -1507577 -1524654 -1528803 -1521260 -1505763 -1488352 -1476106 
2666.783 -1474816 -1487791 -1514166 -1549277 -1585225 -1613600 -1627872 
2667.206 -1624623 -1604501 -1571298 -1530662 -1487849 -1447109 -1411124 
2667.628 -1381393 -1359041 -1345407 -1341957 -1350103 -1370376 -1402001 
2668.050 -1442510 -1488211 -1534740 -1577423 -1612426 -1636884 -1649256 
2668.472 -1649444 -1638693 -1619455 -1594709 -1568012 -1542662 -1521337 
2668.894 -1506012 -1497690 -1496391 -1501192 -1510307 -1521247 -1530822 
2669.316 -1536099 -1534676 -1525435 -1508941 -1487545 -1464806 -1444417 
2669.738 -1429704 -1422730 -1424118 -1433314 -1449010 -1469486 -1492639 
2670.160 -1516128 -1537235 -1552944 -1560741 -1559021 -1547899 -1529174 
2670.583 -1506070 -1482121 -1459760 -1439786 -1420985 -1400990 -1377394 
2671.005 -1349310 -1318158 -1287843 -1263567 -1250862 -1253943 -1274476 
2671.427 -1311231 -1360226 -1415899 -1471437 -1520486 -1558082 -1580992 
2671.849 -1588401 -1581772 -1564561 -1541027 -1515830 -1493154 -1475901 
2672.271 -1466059 -1464470 -1471113 -1484913 -1503506 -1523020 -1537711 
2672.693 -1541136 -1527444 -1492981 -1438318 -1368950 -1295009 -1228098 
2673.115 -1179524 -1156710 -1161195 -1188800 -1231290 -1279688 -1326354 
2673.537 -1367477 -1403069 -1435718 -1468314 -1502300 -1536720 -1568696 
2673.959 -1594684 -1612186 -1620815 -1622312 -1619545 -1614897 -1609319 
2674.382 -1601933 -1590790 -1574129 -1551813 -1525864 -1500235 -1479078 
2674.804 -1465543 -1460366 -1461746 -1465818 -1468115 -1465312 -1455649 
2675.226 -1439279 -1417522 -1391951 -1363592 -1332887 -1300254 -1266808 
2675.648 -1235078 -1209151 -1193565 -1192592 -1208636 -1241499 -1288103 
2676.070 -1343168 -1400688 -1454518 -1500001 -1534382 -1556723 -1567865 
2676.492 -1569869 -1565718 -1558401 -1550815 -1544973 -1541741 -1540781 
2676.914 -1540922 -1540884 -1539934 -1538610 -1538680 -1542812 -1553398 
2677.336 -1571573 -1596370 -1624805 -1652232 -1673582 -1685109 -1685033 
2677.759 -1674335 -1656143 -1635314 -1616892 -1604843 -1601614 -1607455 
2678.181 -1620643 -1637905 -1655307 -1668676 -1674182 -1669074 -1651722 
2678.603 -1622034 -1581558 -1533857 -1484337 -1439507 -1406889 -1393059 
2679.025 -1402142 -1434506 -1485899 -1547669 -1607953 -1655492 -1681568 
2679.447 -1683037 -1663200 -1631220 -1599350 -1578628 -1576711 -1594888 
2679.869 -1628408 -1667808 -1702770 -1724878 -1729734 -1717830 -1693539 
2680.291 -1663261 -1632783 -1606519 -1586609 -1573378 -1566255 -1564420 
2680.713 -1567223 -1573714 -1582411 -1590975 -1596335 -1595632 -1587062 
2681.135 -1570847 -1549296 -1526670 -1507971 -1497364 -1497569 -1508963 
2681.558 -1529814 -1556691 -1585596 -1612611 -1634172 -1647633 -1650960 
2681.980 -1642758 -1622382 -1590116 -1547432 -1496989 -1442776 -1389583 
2682.402 -1342172 -1305109 -1281715 -1273813 -1281554 -1303460 -1336637 
2682.824 -1377021 -1420479 -1463214 -1502537 -1537634 -1569415 -1600068 
2683.246 -1631912 -1666408 -1702999 -1739065 -1770171 -1791743 -1800362 
2683.668 -1794888 -1776921 -1750187 -1719528 -1689087 -1661941 -1639561 
2684.090 -1622494 -1611069 -1606081 -1608680 -1619790 -1639191 -1664830 
2684.512 -1692659 -1717744 -1735379 -1742287 -1737528 -1722330 -1699281 
2684.935 -1671233 -1640812 -1610127 -1581008 -1555675 -1536630 -1526059 
2685.357 -1525016 -1532376 -1544507 -1555662 -1560111 -1553584 -1535095 
2685.779 -1507398 -1476488 -1449692 -1433189 -1430954 -1443568 -1468756 
2686.201 -1502255 -1539400 -1576049 -1608843 -1635544 -1654669 -1665267 
2686.623 -1667081 -1660668 -1647492 -1629720 -1610002 -1590813 -1573838 
2687.045 -1559901 -1548922 -1540270 -1533288 -1527773 -1524190 -1523675 
2687.467 -1527690 -1537615 -1554041 -1576315 -1601994 -1626985 -1646589 
2687.889 -1656121 -1652851 -1637053 -1612556 -1585724 -1563947 -1553763 
2688.312 -1558289 -1576666 -1604060 -1633754 -1658672 -1673777 -1677229 
2688.734 -1670251 -1656248 -1639280 -1623292 -1611126 -1604504 -1604220 
2689.156 -1610111 -1620956 -1634334 -1647065 -1655483 -1656679 -1649610 
2689.578 -1635496 -1617565 -1599660 -1585040 -1574963 -1568406 -1562758 
2690.000 -1555451 -1545226 -1532846 -1520537 -1510954 -1505587 -1503970 
2690.422 -1503932 -1502642 -1498350 -1490916 -1481967 -1473541 -1466824 
2690.844 -1461048 -1453618 -1441379 -1422695 -1398815 -1374443 -1356007 
2691.266 -1350103 -1360798 -1388059 -1427931 -1473906 -1519331 -1558622 
2691.688 -1588806 -1609131 -1620094 -1622469 -1616822 -1603667 -1583848 
2692.111 -1559178 -1532376 -1506256 -1483273 -1464655 -1450314 -1439311 
2692.533 -1430585 -1423374 -1417253 -1411685 -1405542 -1396989 -1384298 
2692.955 -1366793 -1346204 -1326666 -1314452 -1315837 -1334770 -1371609 
2693.377 -1422618 -1481400 -1540477 -1594131 -1639446 -1676254 -1705914 
2693.799 -1729756 -1747723 -1758381 -1759676 -1750448 -1731415 -1705379 
2694.221 -1676232 -1647333 -1620553 -1595728 -1571531 -1546844 -1522156 
2694.643 -1499934 -1484119 -1478159 -1483658 -1499160 -1520671 -1542566 
2695.065 -1559856 -1569879 -1572602 -1570160 -1565389 -1560380 -1555310 
2695.488 -1548523 -1537289 -1519318 -1493788 -1462057 -1427302 -1394092 
2695.910 -1367104 -1349824 -1344193 -1349895 -1364571 -1384067 -1403662 
2696.332 -1419000 -1427084 -1427293 -1421418 -1413163 -1406694 -1405542 
2696.754 -1411255 -1423099 -1438362 -1453611 -1465953 -1473688 -1476641 
2697.176 -1475565 -1471337 -1464370 -1454509 -1441581 -1426020 -1409459 
2697.598 -1394573 -1384067 -1379965 -1382529 -1390206 -1400072 -1409180 
2698.020 -1415604 -1418917 -1419985 -1420039 -1419667 -1418256 -1414145 
2698.442 -1405671 -1392568 -1376771 -1362628 -1355499 -1360573 -1380568 
2698.865 -1414732 -1458517 -1504883 -1546128 -1575561 -1589579 -1588117 
2699.287 -1574317 -1553072 -1529885 -1509354 -1494019 -1484638 -1480491 
2699.709 -1480279 -1482886 -1487926 -1495590 -1506118 -1519081 -1532802 
2700.131 -1544260 -1550025 -1546898 -1533163 -1509107 -1476917 -1439847 
2700.553 -1400891 -1362307 -1325219 -1290114 -1257957 -1230649 -1211220 
2700.975 -1203064 -1208401 -1227187 -1256499 -1291522 -1326540 -1357025 
2701.397 -1381024 -1399193 -1413994 -1428129 -1443388 -1459940 -1476798 
2701.819 -1492767 -1507427 -1521318 -1535325 -1549677 -1562889 -1571796 
2702.241 -1572889 -1563592 -1544225 -1518336 -1492277 -1472673 -1464207 
2702.664 -1468003 -1481170 -1497889 -1511376 -1516781 -1512118 -1498894 
2703.086 -1480865 -1463002 -1449753 -1443869 -1446549 -1457303 -1474489 
2703.508 -1495568 -1517731 -1538213 -1554776 -1566450 -1573471 -1577149 
2703.930 -1578890 -1579414 -1577903 -1572250 -1559785 -1538946 -1510493 
2704.352 -1478217 -1447911 -1425680 -1416127 -1420373 -1436080 -1457998 
2704.774 -1480475 -1498535 -1509466 -1512928 -1510218 -1503397 -1494544 
2705.196 -1485902 -1479866 -1479088 -1486274 -1502905 -1528205 -1558229 
2705.618 -1586778 -1606286 -1610386 -1596357 -1565961 -1525400 -1483123 
2706.041 -1448391 -1428251 -1426260 -1442340 -1473224 -1513507 -1556403 
2706.463 -1595437 -1624617 -1639526 -1638243 -1621645 -1593515 -1559296 
2706.885 -1525240 -1496279 -1474761 -1460571 -1451756 -1446081 -1442356 
2707.307 -1441049 -1443792 -1452080 -1465821 -1482655 -1498379 -1508656 
2707.729 -1510358 -1503097 -1489165 -1472785 -1458168 -1448138 -1443517 
2708.151 -1443318 -1445706 -1449007 -1452371 -1455588 -1458719 -1461567 
2708.573 -1463771 -1465232 -1466770 -1470466 -1479130 -1495129 -1519212 
2708.995 -1549661 -1582366 -1611953 -1633881 -1645683 -1647706 -1642439 
2709.417 -1633214 -1622434 -1610523 -1596060 -1576935 -1551774 -1521276 
2709.840 -1488326 -1457392 -1433346 -1419533 -1417121 -1424744 -1439225 
2710.262 -1456309 -1471924 -1483158 -1488605 -1488755 -1485653 -1482662 
2710.684 -1483293 -1490161 -1504050 -1523272 -1543915 -1560770 -1569534 
2711.106 -1567977 -1557235 -1541178 -1525460 -1515030 -1512266 -1516150 
2711.528 -1522696 -1526705 -1523371 -1510378 -1488371 -1460590 -1431451 
2711.950 -1405529 -1386576 -1376800 -1377297 -1387853 -1407040 -1431752 
2712.372 -1457319 -1478108 -1488246 -1483789 -1464056 -1432483 -1395600 
2712.794 -1361556 -1337601 -1327363 -1330413 -1342490 -1357908 -1371448 
2713.217 -1380667 -1386480 -1392311 -1402045 -1418080 -1439972 -1464594 
2713.639 -1487170 -1503113 -1509946 -1507958 -1499934 -1489716 -1480856 
2714.061 -1475171 -1472324 -1470268 -1466526 -1459440 -1449026 -1437112 
2714.483 -1426773 -1421335 -1422996 -1432127 -1446978 -1464290 -1479745 
2714.905 -1489146 -1489495 -1479053 -1457828 -1427257 -1390106 -1349917 
2715.327 -1310838 -1277519 -1254139 -1244255 -1249951 -1271184 -1305514 
2715.749 -1348318 -1394021 -1436648 -1471552 -1496439 -1511536 -1519273 
2716.171 -1523266 -1527185 -1533281 -1541872 -1551186 -1558193 -1559453 
2716.594 -1552362 -1536230 -1512630 -1485208 -1458587 -1437526 -1425189 
2717.016 -1422220 -1426340 -1432945 -1436199 -1430544 -1412884 -1383354 
2717.438 -1345998 -1307463 -1276184 -1260036 -1264078 -1289978 -1335149 
2717.860 -1393639 -1456752 -1515482 -1561943 -1590436 -1598807 -1588155 
2718.282 -1562547 -1527469 -1489005 -1452570 -1421851 -1399148 -1385437 
2718.704 -1381088 -1386419 -1401766 -1427043 -1460917 -1500261 -1539844 
2719.126 -1572870 -1593083 -1595872 -1580120 -1548424 -1506620 -1461897 
2719.548 -1420248 -1385777 -1359620 -1341064 -1329041 -1323741 -1327244 
2719.970 -1343017 -1374036 -1420950 -1480340 -1545060 -1604673 -1648283 
2720.393 -1667770 -1659039 -1623598 -1567603 -1500722 -1433224 -1374122 
2720.815 -1330230 -1304842 -1298289 -1308218 -1330667 -1360422 -1391974 
2721.237 -1420514 -1442090 -1454493 -1457463 -1452544 -1442565 -1430685 
2721.659 -1419783 -1411476 -1405760 -1401179 -1395439 -1386153 -1371914 
2722.081 -1352984 -1331557 -1311372 -1296472 -1290371 -1294510 -1307900 
2722.503 -1327096 -1347569 -1364876 -1375971 -1380032 -1378174 -1372562 
2722.925 -1365017 -1356341 -1346124 -1333494 -1318300 -1302090 -1288164 
2723.347 -1281071 -1284697 -1300746 -1327835 -1361893 -1397304 -1428883 
2723.770 -1453772 -1471949 -1485723 -1498014 -1510832 -1523922 -1534855 
2724.192 -1539764 -1535252 -1519731 -1494217 -1461907 -1427382 -1395475 
2724.614 -1369817 -1352888 -1345847 -1348825 -1361225 -1381704 -1408234 
2725.036 -1437843 -1467122 -1492786 -1512221 -1524322 -1529533 -1529725 
2725.458 -1527210 -1524232 -1522261 -1521676 -1521916 -1521756 -1519820 
2725.880 -1514762 -1505718 -1492559 -1476148 -1458328 -1441593 -1428482 
2726.302 -1420408 -1416967 -1415383 -1411531 -1400865 -1380674 -1351600 
2726.724 -1318370 -1288843 -1271374 -1272912 -1295922 -1337687 -1390661 
2727.146 -1445456 -1493279 -1528429 -1549891 -1560639 -1565884 -1570067 
2727.569 -1575276 -1579989 -1580085 -1570352 -1547388 -1511542 -1467894 
2727.991 -1424968 -1392625 -1379278 -1388364 -1417179 -1456742 -1495094 
2728.413 -1519567 -1521481 -1498900 -1457216 -1407512 -1362558 -1334092 
2728.835 -1328478 -1345844 -1380558 -1424028 -1466895 -1501224 -1522297 
2729.257 -1527735 -1517171 -1491461 -1452650 -1404397 -1352172 -1303736 
2729.679 -1267367 -1249873 -1254876 -1281036 -1322382 -1369724 -1414280 
2730.101 -1449452 -1472798 -1485723 -1492027 -1495514 -1498206 -1499896 
2730.523 -1498855 -1493237 -1482422 -1467599 -1451234 -1436038 -1423612 
2730.946 -1413911 -1405542 -1396633 -1385768 -1372578 -1357747 -1342564 
2731.368 -1328379 -1316274 -1307495 -1303630 -1306852 -1319640 -1343608 
2731.790 -1378520 -1421252 -1466247 -1506070 -1533323 -1542937 -1532926 
2732.212 -1505065 -1463790 -1415489 -1366491 -1322205 -1286987 -1263605 
2732.634 -1253492 -1256721 -1271853 -1295883 -1324461 -1353049 -1377326 
2733.056 -1394502 -1403887 -1406649 -1405375 -1403088 -1402758 -1406549 
2733.478 -1415864 -1431390 -1453025 -1479834 -1509693 -1539608 -1565654 
2733.900 -1583900 -1591579 -1587618 -1573228 -1551339 -1526030 -1501087 
2734.323 -1479178 -1461628 -1448471 -1439109 -1432846 -1429293 -1428181 
2734.745 -1429082 -1431310 -1433762 -1435433 -1435981 -1436096 -1437407 
2735.167 -1441946 -1451295 -1465578 -1483037 -1500206 -1513078 -1518236 
2735.589 -1514208 -1502229 -1486379 -1472529 -1466517 -1473054 -1493884 
2736.011 -1527325 -1568447 -1610695 -1647476 -1673742 -1687643 -1690406 
2736.433 -1685810 -1678186 -1671067 -1665630 -1660365 -1651614 -1635238 
2736.855 -1608435 -1570863 -1525192 -1476491 -1431316 -1395520 -1373358 
2737.277 -1366626 -1374469 -1393720 -1419472 -1446375 -1468634 -1481352 
2737.699 -1481320 -1467430 -1441315 -1407079 -1370947 -1339403 -1318107 
2738.122 -1310488 -1316856 -1334619 -1359025 -1385020 -1407980 -1425160 
2738.544 -1435955 -1441760 -1445142 -1449090 -1456476 -1469217 -1488179 
2738.966 -1513091 -1542582 -1574439 -1605746 -1633728 -1655830 -1670349 
2739.388 -1676751 -1675683 -1668886 -1658621 -1647530 -1637870 -1631156 
2739.810 -1628022 -1628089 -1630087 -1632212 -1632672 -1630039 -1623659 
2740.232 -1613862 -1601895 -1589659 -1579241 -1572774 -1571956 -1577829 
2740.654 -1590662 -1609725 -1633128 -1657699 -1679709 -1695161 -1700918 
2741.076 -1695699 -1680507 -1658471 -1633533 -1609482 -1588295 -1569534 
2741.499 -1550674 -1528688 -1501515 -1469617 -1436160 -1406328 -1385440 
2741.921 -1376630 -1379756 -1391124 -1405116 -1415816 -1419481 -1415790 
2742.343 -1407672 -1399995 -1397740 -1404564 -1421511 -1447372 -1479165 
2742.765 -1513456 -1546828 -1576347 -1599800 -1615379 -1621955 -1619315 
2743.187 -1608505 -1591793 -1572221 -1553082 -1536899 -1525016 -1517712 
2743.609 -1514726 -1515891 -1521660 -1532802 -1549686 -1571310 -1594735 
2744.031 -1614957 -1626414 -1624706 -1608061 -1578455 -1541232 -1504012 
2744.453 -1473951 -1456351 -1453208 -1463044 -1481672 -1503666 -1524254 
2744.875 -1539854 -1548948 -1551896 -1550444 -1547007 -1543992 -1543327 
2745.298 -1545875 -1551349 -1558302 -1564765 -1568856 -1569588 -1567453 
2745.720 -1564481 -1563612 -1567559 -1577954 -1594508 -1615076 -1636096 
2746.142 -1653875 -1665493 -1669233 -1664769 -1652657 -1633837 -1609265 
2746.564 -1580123 -1548168 -1515878 -1486684 -1464200 -1451199 -1448917 
2746.986 -1456325 -1470351 -1486453 -1500130 -1507686 -1507020 -1497796 
2747.408 -1481160 -1459379 -1435359 -1412833 -1396100 -1389538 -1397445 
2747.830 -1422534 -1465027 -1521676 -1586123 -1649435 -1701610 -1734519 
2748.252 -1742825 -1725537 -1685702 -1629784 -1565766 -1500920 -1441193 
2748.675 -1389805 -1347450 -1313166 -1285353 -1262801 -1245302 -1233590 
2749.097 -1228833 -1231648 -1241348 -1255675 -1271174 -1284513 -1293372 
2749.519 -1297646 -1299340 -1301968 -1308717 -1321096 -1337964 -1355936 
2749.941 -1370469 -1377817 -1376854 -1369583 -1360573 -1354850 -1356305 
2750.363 -1365775 -1380924 -1396970 -1408984 -1413616 -1410267 -1401099 
2750.785 -1389933 -1380786 -1376023 -1376004 -1379146 -1383039 -1385418 
2751.207 -1385293 -1383380 -1381961 -1384217 -1393309 -1411579 -1439366 
2751.629 -1474470 -1511648 -1543800 -1562793 -1561770 -1537730 -1492786 
2752.052 -1434743 -1374745 -1325756 -1298080 -1296742 -1320562 -1362888 
2752.474 -1414135 -1464479 -1507443 -1540289 -1564001 -1581427 -1595658 
2752.896 -1608706 -1621211 -1633144 -1644500 -1655636 -1666938 -1677902 
2753.318 -1686502 -1689023 -1681319 -1660311 -1625571 -1579909 -1529015 
2753.740 -1479591 -1436891 -1403467 -1378520 -1359025 -1341253 -1323005 
2754.162 -1304389 -1287872 -1276924 -1274572 -1282188 -1299099 -1322928 
2754.584 -1350569 -1379313 -1406893 -1431630 -1452105 -1466747 -1474159 
2755.006 -1473800 -1466481 -1454589 -1441706 -1431541 -1426321 -1426061 
2755.428 -1428174 -1428707 -1423451 -1409796 -1387853 -1360422 -1332029 
2755.851 -1307173 -1289274 -1279453 -1276779 -1279051 -1284160 -1290943 
2756.273 -1299691 -1311713 -1328523 -1350662 -1377056 -1404699 -1429338 
2756.695 -1446789 -1453807 -1449558 -1435885 -1417397 -1400098 -1390254 
2757.117 -1393039 -1410864 -1443033 -1485579 -1532562 -1576685 -1611209 
2757.539 -1631488 -1635317 -1623436 -1598922 -1566702 -1532181 -1500402 
2757.961 -1475600 -1460487 -1456197 -1462490 -1477884 -1499845 -1525185 
2758.383 -1550754 -1573474 -1591180 -1602994 -1609415 -1612228 -1613907 
2758.805 -1616965 -1622813 -1631086 -1639303 -1643473 -1638923 -1621884 
2759.228 -1591304 -1549677 -1503237 -1460247 -1429800 -1418481 -1428585 
2759.650 -1457159 -1496836 -1537689 -1569828 -1587037 -1587720 -1575187 
2760.072 -1555460 -1535117 -1518281 -1505203 -1492658 -1475751 -1450734 
2760.494 -1416922 -1377885 -1340447 -1313060 -1302157 -1310462 -1335702 
2760.916 -1371686 -1409619 -1440985 -1460065 -1464575 -1456162 -1439061 
2761.338 -1419058 -1401429 -1389773 -1385475 -1387388 -1392266 -1395590 
2761.760 -1393293 -1382719 -1364163 -1341054 -1319685 -1307450 -1310241 
2762.182 -1330943 -1367791 -1414902 -1463310 -1504358 -1531842 -1543762 
2762.604 -1542697 -1534861 -1528125 -1529203 -1542623 -1569400 -1607202 
2763.027 -1650921 -1694071 -1730434 -1754715 -1764261 -1759230 -1742557 
2763.449 -1718642 -1691936 -1665050 -1637576 -1606270 -1566622 -1515763 
2763.871 -1454778 -1390209 -1332595 -1294452 -1285044 -1307138 -1355072 
2764.293 -1416653 -1476251 -1519417 -1538133 -1531759 -1506742 -1472769 
2764.715 -1440042 -1415668 -1402540 -1400454 -1407746 -1422954 -1445401 
2765.137 -1474675 -1509382 -1546195 -1580290 -1606231 -1619838 -1619953 
2765.559 -1608617 -1590468 -1570678 -1553718 -1541853 -1535172 -1532197 
2765.981 -1530972 -1529734 -1527124 -1522300 -1514883 -1505241 -1494889 
2766.404 -1486879 -1485368 -1494198 -1515577 -1548308 -1587736 -1626152 
2766.826 -1655735 -1670898 -1670046 -1655983 -1634564 -1612461 -1594205 
2767.248 -1581353 -1572391 -1564462 -1554942 -1542997 -1529645 -1516816 
2767.670 -1505833 -1496391 -1486530 -1473746 -1456681 -1436417 -1416656 
2768.092 -1403114 -1401632 -1415874 -1446456 -1490330 -1541936 -1594106 
2768.514 -1640119 -1675071 -1696024 -1702451 -1695591 -1677848 -1651853 
2768.936 -1619953 -1583750 -1543841 -1500309 -1453336 -1404028 -1355136 
2769.358 -1311112 -1277137 -1258259 -1257461 -1274608 -1305977 -1345382 
2769.781 -1385501 -1419597 -1443699 -1456822 -1461051 -1460116 -1458459 
2770.203 -1459584 -1465107 -1474495 -1485332 -1494159 -1497281 -1492367 
2770.625 -1479229 -1460311 -1440071 -1424028 -1416977 -1421027 -1434952 
2771.047 -1454262 -1473128 -1485934 -1489751 -1485134 -1475738 -1466302 
2771.469 -1460670 -1460180 -1463310 -1466779 -1467519 -1464716 -1460465 
2771.891 -1459119 -1464915 -1480062 -1502841 -1527885 -1547378 -1554357 
2772.313 -1545239 -1521362 -1488701 -1456281 -1433657 -1427469 -1440356 
2772.735 -1470245 -1511773 -1557522 -1600563 -1636217 -1662253 -1679056 
2773.157 -1688618 -1693430 -1695307 -1694922 -1691837 -1685201 -1674494 
2773.580 -1660350 -1644602 -1630128 -1619739 -1614986 -1615529 -1618941 
2774.002 -1621489 -1618986 -1608387 -1588576 -1560469 -1526516 -1489860 
2774.424 -1453611 -1420094 -1391162 -1368353 -1353116 -1346872 -1350524 
2774.846 -1363897 -1385321 -1411739 -1439375 -1464514 -1484772 -1499550 
2775.268 -1510051 -1518691 -1528378 -1541801 -1560696 -1585899 -1617112 
2775.690 -1652940 -1690620 -1726270 -1755246 -1772560 -1774456 -1759259 
2776.112 -1728323 -1685680 -1637363 -1589714 -1547177 -1511613 -1481896 
2776.534 -1455220 -1428562 -1400708 -1373079 -1349673 -1335351 -1333976 
2776.957 -1346577 -1370549 -1400047 -1427427 -1446151 -1451990 -1444475 
2777.379 -1426420 -1402918 -1379297 -1359356 -1344938 -1335888 -1331014 
2777.801 -1329204 -1330297 -1335104 -1344929 -1360692 -1382343 -1408663 
2778.223 -1437862 -1467993 -1497585 -1525656 -1551160 -1572442 -1587053 
2778.645 -1591950 -1584890 -1565775 -1537759 -1506745 -1480571 -1466561 
2779.067 -1468724 -1486700 -1515363 -1546905 -1572397 -1584947 -1581251 
2779.489 -1561659 -1529395 -1489111 -1445882 -1404063 -1367557 -1340020 
2779.911 -1324451 -1322944 -1335599 -1359931 -1390591 -1420591 -1443453 
2780.333 -1454720 -1453708 -1443497 -1429935 -1419016 -1415255 -1420229 
2780.756 -1432618 -1449116 -1466078 -1481141 -1493503 -1503881 -1513568 
2781.178 -1523551 -1533857 -1543586 -1551355 -1556020 -1557164 -1555265 
2781.600 -1551381 -1546825 -1542521 -1538805 -1535152 -1530304 -1522597 
2782.022 -1510182 -1491576 -1466193 -1434676 -1399059 -1362558 -1329298 
2782.444 -1303238 -1287701 -1284735 -1294729 -1316480 -1347486 -1384593 
2782.866 -1424198 -1462929 -1498174 -1528023 -1551560 -1568527 -1578960 
2783.288 -1582782 -1579484 -1568335 -1548967 -1522245 -1491032 -1460007 
2783.710 -1435410 -1423160 -1426786 -1446196 -1476997 -1511763 -1541331 
2784.133 -1558264 -1558552 -1542553 -1514413 -1480705 -1448446 -1422990 
2784.555 -1407861 -1404477 -1412769 -1431778 -1459850 -1494723 -1532952 
2784.977 -1570374 -1602607 -1625839 -1638144 -1639963 -1634095 -1624562 
2785.399 -1615768 -1611113 -1612237 -1619206 -1630824 -1645403 -1660952 
2785.821 -1675486 -1686821 -1692290 -1689154 -1674947 -1648299 -1609648 
2786.243 -1561729 -1509466 -1458725 -1415838 -1385928 -1371686 -1373073 
2786.665 -1387202 -1409225 -1433038 -1453243 -1465991 -1469662 -1464950 
2787.087 -1454188 -1440452 -1426312 -1413584 -1403181 -1395481 -1390902 
2787.510 -1390081 -1393675 -1401721 -1413218 -1426097 -1437683 -1446081 
2787.932 -1451099 -1454794 -1460676 -1472465 -1492248 -1519292 -1549977 
2788.354 -1579190 -1602652 -1618456 -1628284 -1636524 -1648752 -1669020 
2788.776 -1698373 -1734274 -1771746 -1804755 -1827939 -1838088 -1833895 
2789.198 -1815662 -1784757 -1743433 -1694794 -1642895 -1592783 -1549188 
2789.620 -1515453 -1492533 -1478733 -1470527 -1464281 -1458197 -1453083 
2790.042 -1452060 -1458504 -1474329 -1498135 -1525336 -1549242 -1564043 
2790.464 -1566836 -1558814 -1544631 -1530799 -1523525 -1526459 -1540263 
2790.886 -1562713 -1589988 -1617294 -1640033 -1654513 -1657986 -1649620 
2791.309 -1630965 -1606410 -1582117 -1564714 -1558922 -1565216 -1579075 
2791.731 -1591975 -1595038 -1581881 -1552203 -1512102 -1472913 -1446603 
2792.153 -1441385 -1459296 -1495507 -1540599 -1583750 -1617431 -1638655 
2792.575 -1649320 -1653865 -1657010 -1661367 -1666743 -1671051 -1671985 
2792.997 -1668532 -1661635 -1653598 -1646998 -1643460 -1642921 -1643788 
2793.419 -1643629 -1640244 -1632152 -1618967 -1601170 -1580098 -1557653 
2793.841 -1536166 -1518492 -1507376 -1504796 -1511286 -1525374 -1543531 
2794.263 -1560716 -1572020 -1573499 -1563378 -1542457 -1513722 -1481525 
2794.686 -1450253 -1423887 -1405151 -1395475 -1395119 -1403534 -1419744 
2795.108 -1442600 -1471196 -1504726 -1542255 -1582315 -1622309 -1658283 
2795.530 -1685686 -1699746 -1697289 -1677912 -1644685 -1603546 -1561870 
2795.952 -1526839 -1502991 -1491505 -1490170 -1494809 -1500600 -1503625 
2796.374 -1501951 -1495257 -1484385 -1470578 -1455239 -1439872 -1426276 
2796.796 -1416877 -1413956 -1418997 -1431647 -1449295 -1467327 -1480366 
2797.218 -1484468 -1478278 -1463960 -1446090 -1430589 -1422028 -1422108 
2797.640 -1429213 -1439286 -1447545 -1450253 -1446401 -1437699 -1427835 
2798.062 -1420581 -1418455 -1421591 -1427899 -1433727 -1435529 -1431297 
2798.485 -1421187 -1407627 -1394502 -1386133 -1385527 -1393569 -1408352 
2798.907 -1425741 -1439997 -1445484 -1438705 -1419292 -1390918 -1360297 
2799.329 -1336370 -1327173 -1337530 -1367425 -1411691 -1461077 -1504460 
2799.751 -1532978 -1541731 -1531538 -1507853 -1479168 -1453711 -1436606 
2800.173 -1429306 -1429694 -1434105 -1439222 -1443847 -1448991 -1456860 
2800.595 -1468890 -1484388 -1499989 -1511002 -1513043 -1504345 -1486700 
2801.017 -1465216 -1446231 -1434689 -1432628 -1438324 -1447532 -1455303 
2801.439 -1458719 -1457764 -1455348 -1455380 -1460968 -1472513 -1487414 
2801.862 -1500629 -1506768 -1502165 -1485739 -1459446 -1427238 -1394220 
2802.284 -1364966 -1343114 -1331229 -1330628 -1341562 -1362885 -1392051 
2802.706 -1424724 -1455339 -1478428 -1489210 -1485214 -1466693 -1436510 
2803.128 -1399120 -1359363 -1321800 -1289560 -1264680 -1248241 -1240710 
2803.550 -1242188 -1252340 -1270264 -1294240 -1321768 -1350065 -1376174 
2803.972 -1397782 -1413635 -1423801 -1429684 -1433875 -1439702 -1450103 
2804.394 -1467042 -1490551 -1518483 -1546620 -1569783 -1583558 -1585232 
2804.816 -1575081 -1555991 -1532942 -1510922 -1493804 -1483562 -1480081 
2805.239 -1482021 -1487526 -1495142 -1503647 -1511722 -1517702 -1519196 
2805.661 -1513802 -1500110 -1478604 -1451990 -1424795 -1402219 -1388104 
2806.083 -1383912 -1388190 -1397400 -1407133 -1413673 -1415283 -1412067 
2806.505 -1405516 -1397291 -1388495 -1379223 -1368851 -1356774 -1343136 
2806.927 -1329176 -1317265 -1310131 -1310437 -1319952 -1339046 -1366693 
2807.349 -1400448 -1437183 -1473186 -1505171 -1530863 -1549277 -1560840 
2807.771 -1566986 -1569489 -1569428 -1566964 -1561109 -1550511 -1534107 
2808.193 -1512106 -1486094 -1458998 -1434138 -1414215 -1401038 -1395009 
2808.615 -1395581 -1401516 -1411374 -1423410 -1435503 -1445395 -1450737 
2809.038 -1449958 -1442956 -1431528 -1419013 -1409116 -1404760 -1406639 
2809.460 -1412884 -1419459 -1421931 -1416833 -1402815 -1380847 -1353502 
2809.882 -1323719 -1293626 -1264526 -1237168 -1212635 -1193030 -1181288 
2810.304 -1180153 -1191041 -1212815 -1241650 -1271667 -1297186 -1314156 
2810.726 -1321568 -1321517 -1318415 -1317187 -1321347 -1332264 -1348745 
2811.148 -1367695 -1385039 -1397166 -1401770 -1398494 -1388890 -1376212 
2811.570 -1364516 -1357050 -1355483 -1358781 -1363463 -1364305 -1356588 
2811.992 -1338182 -1310961 -1280756 -1255568 -1243260 -1247852 -1268040 
2812.415 -1296822 -1324406 -1340694 -1339133 -1318891 -1284661 -1244816 
2812.837 -1207795 -1180224 -1164617 -1159927 -1162798 -1169868 -1179047 
2813.259 -1190013 -1203602 -1220718 -1241261 -1263853 -1286122 -1305604 
2813.681 -1320678 -1330940 -1337218 -1341054 -1344318 -1348542 -1354838 
2814.103 -1363868 -1375766 -1390135 -1405927 -1421566 -1435029 -1444228 
2814.525 -1447635 -1444449 -1434808 -1419549 -1400082 -1377965 -1354841 
2814.947 -1332556 -1312899 -1297536 -1287560 -1282963 -1282252 -1282554 
2815.369 -1280463 -1272706 -1257474 -1235013 -1207821 -1179927 -1155897 
2815.792 -1140137 -1135744 -1144342 -1166059 -1199709 -1242761 -1291551 
2816.214 -1341883 -1389083 -1428986 -1458988 -1478134 -1487321 -1488397 
2816.636 -1483382 -1473365 -1458568 -1438923 -1415210 -1390074 -1368263 
2817.058 -1355001 -1354520 -1367480 -1390142 -1414392 -1430544 -1431015 
2817.480 -1412843 -1379653 -1340508 -1307636 -1291455 -1297945 -1326871 
2817.902 -1372832 -1427424 -1482527 -1533128 -1577328 -1615503 -1648085 
2818.324 -1673617 -1688220 -1686900 -1665522 -1623621 -1565660 -1500885 
2818.746 -1440087 -1393248 -1366167 -1358756 -1365586 -1378154 -1388569 
2819.168 -1391759 -1387504 -1379855 -1375512 -1380568 -1398176 -1427193 
2819.591 -1462599 -1496800 -1521925 -1532738 -1527325 -1507667 -1478303 
2820.013 -1445154 -1413606 -1387266 -1368016 -1356010 -1350325 -1349217 
2820.435 -1350470 -1351183 -1347569 -1335859 -1312790 -1277162 -1230875 
2820.857 -1179621 -1132041 -1097280 -1083576 -1095037 -1130663 -1184241 
2821.279 -1246490 -1307382 -1358444 -1395163 -1416951 -1426465 -1427649 
2821.701 -1424497 -1419773 -1414866 -1410527 -1407525 -1407069 -1410703 
2822.123 -1419379 -1432528 -1447273 -1458744 -1460821 -1447609 -1415633 
2822.545 -1364911 -1299768 -1227902 -1159824 -1106157 -1075127 -1071381 
2822.968 -1094239 -1137958 -1192321 -1245775 -1287344 -1309112 -1308363 
2823.390 -1287470 -1253154 -1213640 -1177212 -1149731 -1133620 -1128364 
2823.812 -1131444 -1139850 -1150815 -1162708 -1174693 -1186305 -1197256 
2824.234 -1207289 -1216475 -1225380 -1235107 -1246751 -1260538 -1275219 
2824.656 -1287949 -1295079 -1293359 -1281814 -1262646 -1241708 -1226675 
2825.078 -1225541 -1244139 -1284021 -1342018 -1410578 -1480225 -1540708 
2825.500 -1583820 -1604954 -1603291 -1581708 -1545706 -1502527 -1458950 
2825.922 -1420504 -1390366 -1368745 -1353267 -1339814 -1324249 -1303559 
2826.344 -1277185 -1247079 -1217333 -1192562 -1176280 -1170091 -1173039 
2826.767 -1182239 -1193817 -1204453 -1212016 -1215867 -1216424 -1214471 
2827.189 -1210431 -1204105 -1194784 -1181823 -1165162 -1145733 -1125378 
2827.611 -1106606 -1092301 -1084969 -1086526 -1097955 -1118965 -1147779 
2828.033 -1180956 -1213985 -1241412 -1258195 -1261072 -1249271 -1225164 
2828.455 -1193797 -1162088 -1136615 -1122327 -1121377 -1132803 -1153019 
2828.877 -1177006 -1200176 -1219088 -1232395 -1240791 -1246480 -1252105 
2829.299 -1259807 -1270692 -1284308 -1298887 -1311610 -1319563 -1320157 
2829.721 -1311780 -1294234 -1268693 -1237616 -1203963 -1171139 -1142118 
2830.144 -1119056 -1103214 -1094811 -1092992 -1096078 -1101957 -1108201 
2830.566 -1112532 -1113375 -1110007 -1102878 -1093483 -1084248 -1077855 
2830.988 -1076562 -1081698 -1093073 -1109044 -1126453 -1141715 -1151351 
2831.410 -1152832 -1145375 -1130062 -1109671 -1087703 -1067896 -1053025 
2831.832 -1044299 -1041206 -1041795 -1043403 -1043260 -1039602 -1031937 
2832.254 -1021271 -1009629 -999521 -993190 -991784 -995094 -1001402 -1008172 
2832.737 -1012438 -1011966 -1006016 -995732 -983995 -974574 -971299 -976401 
2833.219 -989877 -1009017 -1029248 -1045001 -1051418 -1046097 -1029734 
2833.641 -1006255 -981688 -963266 -957218 -967336 -994307 -1035457 -1085399 
2834.124 -1136922 -1183377 -1219391 -1242343 -1252726 -1253637 -1249639 
2834.546 -1244845 -1242027 -1241435 -1241106 -1237799 -1228743 -1212973 
2834.968 -1192134 -1169956 -1151122 -1139620 -1137100 -1142696 -1153452 
2835.390 -1166020 -1177841 -1188330 -1198681 -1210969 -1226517 -1244873 
2835.812 -1263464 -1278542 -1286495 -1285269 -1275216 -1258864 -1239757 
2836.234 -1220815 -1203570 -1187753 -1172055 -1155252 -1137296 -1119727 
2836.656 -1105310 -1096769 -1095738 -1101999 -1113566 -1127296 -1140069 
2837.078 -1150089 -1157194 -1162924 -1169707 -1180163 -1196002 -1217390 
2837.500 -1242745 -1269105 -1292580 -1309202 -1316201 -1312623 -1300135 
2837.923 -1282538 -1265556 -1255282 -1256453 -1271641 -1300315 -1339178 
2838.345 -1382728 -1424990 -1460683 -1485848 -1498740 -1499476 -1489850 
2838.767 -1472564 -1451080 -1428886 -1408795 -1392593 -1380417 -1370716 
2839.189 -1360451 -1346143 -1325043 -1295964 -1259933 -1219894 -1180053 
2839.611 -1144155 -1114858 -1092989 -1077720 -1067259 -1059767 -1054173 
2840.033 -1050428 -1049422 -1052530 -1061206 -1076381 -1098194 -1125775 
2840.455 -1157178 -1189319 -1218280 -1240256 -1252195 -1252919 -1243711 
2840.877 -1228520 -1212992 -1202813 -1202716 -1214603 -1237236 -1266322 
2841.300 -1296083 -1320337 -1333915 -1334031 -1320212 -1294375 -1259894 
2841.722 -1221002 -1181743 -1145036 -1112626 -1084869 -1061488 -1042358 
2842.144 -1028378 -1021838 -1026155 -1044338 -1077697 -1124216 -1178634 
2842.566 -1232775 -1278031 -1308289 -1321266 -1319473 -1308556 -1295305 
2842.988 -1284436 -1277156 -1271338 -1263335 -1250131 -1231561 -1210556 
2843.410 -1192321 -1182039 -1182504 -1193504 -1212135 -1234888 -1259241 
2843.832 -1285099 -1314240 -1348764 -1388868 -1431630 -1470918 -1499806 
2844.254 -1512397 -1506441 -1484032 -1450920 -1414187 -1379493 -1349869 
2844.677 -1324914 -1301916 -1277391 -1248988 -1216276 -1180843 -1145601 
2845.099 -1114125 -1090039 -1076265 -1075063 -1087347 -1112264 -1146459 
2845.521 -1184241 -1218670 -1242468 -1250746 -1242388 -1220880 -1193191 
2845.943 -1168362 -1155020 -1158498 -1180204 -1217081 -1263274 -1311157 
2846.365 -1353669 -1385983 -1405805 -1413856 -1413228 -1408699 -1405119 
2846.787 -1406469 -1414668 -1428973 -1446010 -1460651 -1467900 -1463970 
2847.209 -1447920 -1421829 -1390520 -1359941 -1335734 -1322346 -1321973 
2847.631 -1334844 -1359485 -1393344 -1433028 -1474444 -1513386 -1545396 
2848.053 -1566645 -1574778 -1569205 -1551589 -1525185 -1494499 -1463976 
2848.476 -1437407 -1417820 -1407140 -1406553 -1416550 -1436766 -1465565 
2848.898 -1499774 -1535146 -1566363 -1588500 -1598357 -1595083 -1580737 
2849.320 -1559782 -1538184 -1521381 -1513072 -1514102 -1522201 -1532472 
2849.742 -1538699 -1535690 -1520396 -1493510 -1459308 -1425080 -1398577 
2850.164 -1385642 -1388550 -1404910 -1428540 -1451179 -1466059 -1469576 
2850.586 -1462935 -1451215 -1441853 -1441718 -1454483 -1479773 -1513341 
2851.008 -1548766 -1579027 -1598951 -1605960 -1600209 -1583954 -1560824 
2851.430 -1535108 -1510822 -1491816 -1481186 -1480580 -1489930 -1507053 
2851.853 -1527924 -1547183 -1559741 -1561943 -1552308 -1531877 -1503545 
2852.275 -1471142 -1437904 -1406078 -1376569 -1349355 -1324345 -1302109 
2852.697 -1284295 -1273552 -1272761 -1283902 -1307112 -1340052 -1377910 
2853.119 -1413994 -1441911 -1456575 -1456031 -1441866 -1418988 -1394031 
2853.541 -1373108 -1360718 -1358425 -1365162 -1378324 -1395250 -1414251 
2853.963 -1434862 -1457303 -1481461 -1506076 -1528765 -1546524 -1556995 
2854.385 -1559581 -1555841 -1548897 -1542236 -1538770 -1539729 -1544890 
2854.807 -1553024 -1562704 -1572630 -1581382 -1587069 -1586762 -1576829 
2855.229 -1554293 -1518131 -1470722 -1417653 -1367223 -1327543 -1304077 
2855.652 -1298315 -1307418 -1325551 -1346095 -1364404 -1378636 -1389830 
2856.074 -1400393 -1412577 -1427084 -1442962 -1458338 -1471802 -1483434 
2856.496 -1494889 -1508608 -1526491 -1548686 -1573138 -1595945 -1612451 
2856.918 -1619005 -1613770 -1597363 -1572435 -1543148 -1513818 -1487756 
2857.340 -1466827 -1450824 -1437824 -1424679 -1408439 -1387478 -1362619 
2857.762 -1337250 -1316982 -1307922 -1314256 -1336852 -1372135 -1413090 
2858.184 -1450404 -1475732 -1484023 -1474524 -1450833 -1419356 -1387558 
2858.606 -1361244 -1344113 -1337260 -1339808 -1349683 -1364401 -1381646 
2859.029 -1399219 -1415364 -1428758 -1438571 -1444459 -1446337 -1444007 
2859.451 -1437058 -1424920 -1407685 -1386801 -1365907 -1350604 -1346747 
2859.873 -1358820 -1387301 -1427479 -1469409 -1500930 -1511437 -1495142 
2860.295 -1454098 -1397926 -1341758 -1300434 -1285478 -1301112 -1343663 
2860.717 -1402941 -1465998 -1521612 -1561953 -1584682 -1591806 -1587986 
2861.139 -1578098 -1565865 -1553539 -1542108 -1532328 -1525336 -1522735 
2861.561 -1526145 -1536499 -1553293 -1574474 -1596840 -1617061 -1632168 
2861.983 -1640512 -1641705 -1636262 -1625092 -1609025 -1588810 -1565174 
2862.406 -1539355 -1513392 -1489828 -1471446 -1460372 -1457216 -1460926 
2862.828 -1468942 -1478179 -1485800 -1490401 -1492232 -1492844 -1494182 
2863.250 -1497569 -1502911 -1508486 -1511258 -1507792 -1495344 -1472334 
2863.672 -1438843 -1396543 -1348552 -1298826 -1251979 -1213041 -1186450 
2864.094 -1175922 -1183548 -1209235 -1250517 -1302807 -1360531 -1417493 
2864.516 -1468339 -1509267 -1538018 -1554076 -1558334 -1552839 -1540193 
2864.938 -1523410 -1505417 -1488461 -1473919 -1462153 -1452756 -1445119 
2865.360 -1439052 -1435093 -1434506 -1438520 -1447564 -1460420 -1474297 
2865.782 -1485252 -1489255 -1483754 -1468304 -1444888 -1416996 -1389002 
2866.205 -1364882 -1347534 -1338947 -1340161 -1351440 -1372081 -1400137 
2866.627 -1432038 -1462563 -1486344 -1498775 -1497806 -1484737 -1464047 
2867.049 -1441779 -1423134 -1411018 -1404548 -1399800 -1390812 -1372270 
2867.471 -1340990 -1296913 -1242893 -1183948 -1126256 -1075667 -1037894 
2867.893 -1017954 -1019456 -1044347 -1091719 -1157359 -1233336 -1309790 
2868.315 -1376915 -1426837 -1456184 -1466382 -1463009 -1453333 -1444485 
2868.737 -1441424 -1445895 -1456998 -1472020 -1487884 -1501567 -1510643 
2869.159 -1513347 -1508256 -1494720 -1473170 -1445696 -1415739 -1387979 
2869.582 -1367053 -1355984 -1355323 -1362612 -1373140 -1380767 -1380160 
2870.004 -1368328 -1345632 -1316040 -1286279 -1264819 -1258974 -1273491 
2870.426 -1308729 -1360336 -1419424 -1474662 -1515798 -1535322 -1531417 
2870.848 -1508096 -1474226 -1440392 -1415569 -1405170 -1409456 -1424808 
2871.270 -1445667 -1467660 -1488867 -1510230 -1533905 -1561160 -1590311 
2871.692 -1616451 -1632133 -1630397 -1607573 -1564944 -1508736 -1448298 
2872.114 -1393588 -1351388 -1324191 -1309851 -1303476 -1299299 -1293121 
2872.536 -1283500 -1271506 -1259733 -1250836 -1246821 -1248531 -1256106 
2872.958 -1269433 -1288515 -1313307 -1343287 -1377072 -1412336 -1446417 
2873.381 -1477243 -1503935 -1527143 -1548382 -1568939 -1588692 -1605516 
2873.803 -1615458 -1614447 -1599711 -1571263 -1532223 -1488192 -1445565 
2874.225 -1409209 -1381727 -1362885 -1350630 -1342436 -1336813 -1333979 
2874.647 -1335416 -1342667 -1355962 -1373291 -1390726 -1403239 -1406408 
2875.069 -1398247 -1379801 -1355091 -1329609 -1309253 -1298321 -1298742 
2875.491 -1310218 -1330917 -1358585 -1391284 -1427943 -1467856 -1509808 
2875.913 -1551455 -1588612 -1615599 -1626870 -1618000 -1587733 -1538789 
2876.335 -1478124 -1415158 -1359713 -1320138 -1300556 -1300411 -1314561 
2876.758 -1335396 -1354507 -1364998 -1363518 -1350225 -1328629 -1303862 
2877.180 -1281850 -1267416 -1263425 -1270656 -1287753 -1311764 -1338683 
2877.602 -1364699 -1386589 -1402402 -1411727 -1415267 -1414267 -1409565 
2878.024 -1401141 -1387985 -1368700 -1342429 -1309932 -1274099 -1240015 
2878.446 -1213456 -1199789 -1202448 -1221923 -1255790 -1299270 -1346991 
2878.868 -1393395 -1433977 -1465732 -1486876 -1496960 -1496855 -1488819 
2879.290 -1476161 -1462842 -1452772 -1448420 -1450413 -1457181 -1465901 
2879.712 -1473394 -1477669 -1478669 -1478214 -1478909 -1482771 -1490122 
2880.135 -1499124 -1506396 -1508243 -1502325 -1488352 -1468154 -1444555 
2880.557 -1420344 -1397050 -1374736 -1352657 -1330538 -1309575 -1293176 
2880.979 -1285993 -1292487 -1315140 -1352789 -1400018 -1447763 -1486235 
2881.401 -1506281 -1502376 -1473980 -1425516 -1365252 -1302707 -1247366 
2881.823 -1205923 -1181536 -1173739 -1179244 -1192924 -1208894 -1222094 
2882.245 -1228485 -1225718 -1213495 -1193578 -1169569 -1146117 -1128413 
2882.667 -1120625 -1124842 -1140605 -1165179 -1194461 -1224182 -1251641 
2883.089 -1275924 -1297607 -1317480 -1335342 -1348960 -1354831 -1349265 
2883.511 -1330757 -1301511 -1268075 -1239577 -1225109 -1231268 -1259341 
2883.934 -1305244 -1360496 -1415700 -1462464 -1495814 -1514848 -1521612 
2884.356 -1519606 -1512032 -1501327 -1488931 -1475642 -1462157 -1448920 
2884.778 -1435740 -1421566 -1404750 -1383858 -1358996 -1332620 -1309736 
2885.200 -1296623 -1298218 -1316499 -1348725 -1388101 -1425029 -1450929 
2885.622 -1460487 -1453176 -1432855 -1406171 -1380019 -1358971 -1344774 
2886.044 -1336235 -1330667 -1324937 -1316741 -1305003 -1289605 -1271161 
2886.466 -1250694 -1229728 -1210112 -1193971 -1183194 -1178599 -1179443 
2886.888 -1183252 -1186647 -1186176 -1179853 -1167959 -1153235 -1139814 
2887.311 -1131925 -1132661 -1142809 -1160862 -1183529 -1207060 -1227963 
2887.733 -1243904 -1253978 -1258588 -1259241 -1258095 -1258044 -1262118 
2888.155 -1273060 -1292864 -1321874 -1358438 -1398552 -1436933 -1467571 
2888.577 -1485243 -1487100 -1473064 -1446167 -1411338 -1374687 -1341600 
2888.999 -1315480 -1297507 -1286595 -1280383 -1276184 -1272162 -1267670 
2889.421 -1262952 -1258440 -1253795 -1247266 -1235973 -1216369 -1185644 
2889.843 -1143071 -1090595 -1032859 -976220 -927986 -894239 -879000 -883428 
2890.326 -905617 -940883 -982466 -1023385 -1057113 -1079381 -1089192 
2890.748 -1088940 -1083647 -1079087 -1080296 -1089399 -1105104 -1123211 
2891.170 -1138839 -1148279 -1150857 -1149183 -1148163 -1152745 -1165466 
2891.592 -1185576 -1209251 -1231497 -1247948 -1257068 -1260268 -1261127 
2892.014 -1263148 -1268243 -1275779 -1283333 -1287836 -1287399 -1282159 
2892.436 -1274048 -1265688 -1258958 -1254271 -1250633 -1246622 -1241373 
2892.858 -1235258 -1229577 -1225551 -1223160 -1220625 -1214649 -1202107 
2893.281 -1181214 -1152793 -1120034 -1087829 -1060828 -1042083 -1032798 
2893.703 -1032439 -1039738 -1053507 -1072900 -1097002 -1123961 -1150841 
2894.125 -1173574 -1188156 -1192314 -1186289 -1173326 -1158488 -1147660 
2894.547 -1145268 -1153229 -1170710 -1194606 -1220522 -1243618 -1259898 
2894.969 -1266351 -1261533 -1245862 -1221682 -1193020 -1164269 -1139217 
2895.391 -1119182 -1102200 -1083178 -1056071 -1016222 -963117 -901463 
2895.813 -840749 -792631 -766299 -766019 -788766 -825615 -863499 -890109 
2896.296 -897474 -883393 -851654 -809942 -767490 -731696 -707423 -696495 
2896.778 -698461 -711801 -734843 -766325 -805129 -849955 -898782 -948343 
2897.260 -994414 -1032225 -1056996 -1065481 -1056699 -1032840 -998821 
2897.683 -961888 -929838 -908638 -901606 -908346 -925728 -949186 -974950 
2898.165 -1001386 -1028980 -1059341 -1093277 -1129146 -1162566 -1187021 
2898.587 -1196108 -1186331 -1158488 -1118161 -1073576 -1034089 -1006773 
2899.009 -994699 -996933 -1009298 -1026165 -1041821 -1052204 -1054723 
2899.431 -1048310 -1033005 -1009693 -980150 -946851 -913044 -882013 -856157 
2899.914 -836498 -822175 -810941 -799882 -786869 -771293 -754542 -739335 
2900.396 -729063 -726463 -732598 -746654 -765957 -786940 -805617 -818833 
2900.879 -824975 -824263 -818827 -812287 -809113 -813019 -826340 -848971 
2901.361 -878610 -911175 -942241 -968625 -988873 -1003487 -1013927 -1021258 
2901.844 -1024844 -1022068 -1008884 -981883 -939949 -885860 -825722 -768242 
2902.326 -721820 -691643 -678727 -679552 -688088 -697897 -705115 -709598 
2902.808 -714594 -724665 -743362 -770974 -803991 -835614 -858178 -866224 
2903.291 -857843 -835630 -805113 -773226 -745322 -723892 -708447 -696795 
2903.773 -686956 -678812 -674731 -678913 -695464 -726102 -768760 -817422 
2904.256 -864116 -900616 -921868 -927545 -922225 -913583 -909725 -916493 
2904.738 -934894 -960657 -985122 -998468 -991716 -959866 -903381 -828235 
2905.220 -744524 -663660 -597005 -552568 -533991 -540236 -566286 -604384 
2905.703 -645598 -682348 -709001 -722918 -724313 -715585 -700121 -681095 
2906.185 -661177 -642105 -625053 -611317 -602531 -600561 -607014 -622221 
2906.668 -644563 -670268 -694463 -711873 -718587 -713151 -696505 -671279 
2907.150 -640473 -606433 -570185 -532024 -492867 -455397 -425050 -409469 
2907.633 -415898 -449186 -508734 -587876 -673902 -751419 -806775 -830439 
2908.115 -820439 -781987 -726467 -667087 -616387 -583617 -572804 -583466 
2908.597 -611415 -650713 -694428 -735977 -770215 -793282 -803574 -801775 
2909.080 -790734 -774482 -757173 -741876 -729516 -718887 -707293 -692063 
2909.562 -671534 -645977 -617135 -587516 -558996 -531910 -505161 -477078 
2910.045 -446750 -415229 -385757 -363180 -352555 -357012 -376804 -408832 
2910.527 -447701 -486508 -518839 -540098 -547559 -540838 -521425 -492320 
2911.010 -457338 -420798 -386907 -358744 -337770 -323380 -313348 -304492 
2911.492 -294324 -282283 -270513 -263305 -265686 -282027 -313904 -359628 
2911.974 -414320 -471889 -526060 -572094 -607704 -632695 -648402 -656814 
2912.457 -660260 -661118 -661892 -665354 -673879 -688802 -709545 -733397 
2912.939 -755760 -771354 -776253 -769076 -751956 -729898 -709832 -698461 
2913.422 -700336 -717257 -747918 -788691 -834350 -879574 -919387 -949646 
2913.904 -967825 -973116 -967021 -953085 -936846 -924298 -920029 -926072 
2914.386 -940649 -958939 -974124 -980451 -975183 -959872 -939884 -922884 
2914.869 -916133 -923506 -944569 -974464 -1006058 -1031682 -1046087 -1047724 
2915.351 -1038780 -1024000 -1008981 -998656 -995683 -1000230 -1010046 
2915.773 -1021598 -1030630 -1033325 -1027333 -1011940 -988403 -959496 
2916.196 -929040 -900662 -876941 -858935 -845939 -836011 -826662 -815874 
2916.678 -802426 -786055 -767230 -746772 -725714 -705269 -687227 -673925 
2917.160 -667899 -671371 -685101 -707655 -735091 -762122 -783045 -793630 
2917.643 -792676 -782150 -766768 -752038 -743091 -742700 -750690 -763939 
2918.125 -777454 -785476 -782518 -764889 -731279 -683502 -626288 -567379 
2918.608 -516137 -481053 -468566 -480656 -514539 -563189 -617841 -670855 
2919.090 -717482 -757629 -795012 -835474 -883575 -940857 -1004067 -1066315 
2919.573 -1117977 -1149828 -1155736 -1133458 -1085521 -1018171 -940639 
2919.995 -862833 -794349 -743756 -716941 -717212 -744746 -796711 -867426 
2920.477 -949053 -1033070 -1110130 -1171755 -1211259 -1224008 -1208752 
2920.899 -1167978 -1108337 -1039091 -971081 -914387 -875262 -855219 -850589 
2921.382 -854514 -858899 -857999 -850417 -839323 -830917 -831623 -845526 
2921.864 -872197 -906814 -941395 -968172 -981446 -979505 -964795 -943006 
2922.346 -921028 -904718 -898098 -902180 -915270 -933363 -951490 -964666 
2922.829 -968995 -962951 -947766 -927389 -907038 -892190 -886584 -891083 
2923.311 -903631 -920156 -936418 -949105 -957218 -961726 -964620 -967401 
2923.794 -970272 -971973 -970757 -965609 -957390 -948771 -943684 -945538 
2924.276 -955571 -972225 -991554 -1008635 -1019287 -1021938 -1018174 
2924.698 -1012500 -1010467 -1017375 -1036561 -1068371 -1110281 -1157556 
2925.120 -1204849 -1247044 -1280836 -1305444 -1322497 -1335245 -1347302 
2925.542 -1361148 -1376806 -1391624 -1400900 -1400047 -1386178 -1359950 
2925.965 -1325640 -1290490 -1262060 -1245553 -1242510 -1250060 -1262266 
2926.387 -1271947 -1273662 -1264964 -1247027 -1223560 -1199796 -1180833 
2926.809 -1170449 -1171113 -1183690 -1207398 -1239432 -1274743 -1306177 
2927.231 -1324516 -1320926 -1288650 -1225225 -1133755 -1023191 -907048 
2927.653 -799511 -714233 -660730 -642585 -657809 -699537 -758339 -823404 
2928.135 -885636 -938454 -978274 -1004640 -1019045 -1023721 -1020223 
2928.558 -1008868 -989044 -960362 -924324 -885574 -851651 -832279 -835916 
2929.040 -867010 -923977 -999216 -1080754 -1155439 -1213734 -1251061 
2929.462 -1269128 -1273758 -1272848 -1272973 -1277484 -1286733 -1299000 
2929.884 -1312263 -1325441 -1338786 -1353280 -1369541 -1387051 -1404278 
2930.306 -1419372 -1431380 -1440952 -1450247 -1461942 -1478057 -1498731 
2930.729 -1521932 -1543950 -1560914 -1569933 -1569885 -1561470 -1546652 
2931.151 -1527709 -1506352 -1483722 -1460612 -1437827 -1416852 -1399816 
2931.573 -1389022 -1386525 -1393158 -1408038 -1428126 -1448766 -1464175 
2931.995 -1468400 -1457283 -1429287 -1386721 -1335306 -1283741 -1241203 
2932.417 -1214613 -1207105 -1216701 -1237248 -1259949 -1276976 -1283368 
2932.839 -1278423 -1265346 -1249667 -1237017 -1230872 -1232186 -1239377 
2933.261 -1249664 -1259833 -1267091 -1269047 -1263293 -1247636 -1220535 
2933.683 -1182391 -1136399 -1089157 -1049645 -1026139 -1024446 -1044926 
2934.105 -1082442 -1127108 -1167943 -1196869 -1210708 -1212483 -1209580 
2934.528 -1210969 -1222916 -1247153 -1280103 -1314985 -1344238 -1362564 
2934.950 -1368870 -1366112 -1359774 -1355355 -1356880 -1365480 -1379766 
2935.372 -1396928 -1414427 -1430791 -1446000 -1460792 -1475671 -1489962 
2935.794 -1501515 -1506893 -1502485 -1485918 -1456806 -1417442 -1372357 
2936.216 -1327942 -1290612 -1265752 -1256666 -1263757 -1284388 -1313343 
2936.638 -1344296 -1370697 -1387542 -1392879 -1388239 -1378440 -1370020 
2937.060 -1369824 -1382263 -1407935 -1442866 -1479805 -1509718 -1524402 
2937.482 -1519376 -1494569 -1454368 -1405491 -1355194 -1308691 -1267886 
2937.905 -1231793 -1197739 -1163388 -1128213 -1094104 -1064889 -1045127 
2938.327 -1038026 -1044651 -1063392 -1090656 -1121565 -1151019 -1174616 
2938.749 -1188301 -1189007 -1174842 -1145814 -1104677 -1057378 -1013102 
2939.171 -981789 -972384 -989877 -1033409 -1096003 -1166227 -1232302 
2939.593 -1284143 -1317007 -1331994 -1335201 -1334915 -1338751 -1351764 
2940.015 -1375057 -1406444 -1441789 -1477048 -1509037 -1536000 -1557305 
2940.437 -1572550 -1581069 -1581727 -1573183 -1554616 -1526180 -1489315 
2940.859 -1446446 -1400583 -1354963 -1312275 -1274862 -1244532 -1222407 
2941.281 -1209061 -1204301 -1207263 -1216540 -1230749 -1249056 -1271364 
2941.704 -1298311 -1330602 -1368106 -1409145 -1450051 -1485669 -1510938 
2942.126 -1522121 -1518387 -1502255 -1479360 -1456732 -1440593 -1435163 
2942.548 -1441145 -1455915 -1474239 -1490206 -1498324 -1494809 -1478374 
2942.970 -1450087 -1413333 -1372832 -1334567 -1304556 -1287663 -1287064 
2943.392 -1303135 -1333414 -1372761 -1415049 -1454297 -1485880 -1507622 
2943.814 -1519372 -1522220 -1517347 -1505375 -1486283 -1460167 -1428261 
2944.236 -1393745 -1361360 -1336862 -1324789 -1327051 -1342098 -1365354 
2944.658 -1390572 -1411576 -1424593 -1428540 -1425144 -1417557 -1409379 
2945.081 -1403255 -1400454 -1401080 -1404528 -1409905 -1416185 -1422223 
2945.503 -1426728 -1428415 -1426533 -1421316 -1414276 -1407611 -1403601 
2945.925 -1403284 -1405828 -1408346 -1406995 -1398478 -1381293 -1356482 
2946.347 -1327344 -1298189 -1272587 -1252365 -1237409 -1226356 -1217764 
2946.769 -1211269 -1207846 -1209442 -1217874 -1233915 -1256962 -1285388 
2947.191 -1317470 -1351912 -1388165 -1425725 -1463070 -1497191 -1523381 
2947.613 -1536614 -1533611 -1514314 -1482806 -1446295 -1413673 -1392141 
2948.035 -1385135 -1391229 -1404750 -1417092 -1418667 -1401670 -1360448 
2948.458 -1292568 -1198897 -1083870 -955247 -823180 -700156 -597998 -525452 
2948.940 -486541 -478896 -494817 -523150 -553795 -579971 -600391 -618592 
2949.422 -641152 -674137 -720308 -778144 -842358 -906292 -964060 -1012901 
2949.905 -1053510 -1089286 -1124151 -1160988 -1200234 -1239870 -1276030 
2950.327 -1304415 -1321864 -1327022 -1321006 -1307138 -1290651 -1277371 
2950.749 -1272490 -1279498 -1298787 -1327263 -1358463 -1384785 -1398754 
2951.171 -1395751 -1375506 -1342230 -1303354 -1266817 -1239586 -1225290 
2951.593 -1224078 -1233377 -1249503 -1268870 -1288631 -1306800 -1321401 
2952.015 -1329895 -1329458 -1317380 -1292535 -1256309 -1213202 -1170075 
2952.438 -1134456 -1113537 -1112022 -1131735 -1171578 -1228208 -1296511 
2952.860 -1369949 -1441590 -1503740 -1549181 -1572819 -1572550 -1550674 
2953.282 -1513443 -1470296 -1430630 -1401051 -1383521 -1374630 -1366668 
2953.704 -1350354 -1318836 -1269746 -1206899 -1138765 -1076889 -1031973 
2954.126 -1010626 -1014313 -1038964 -1076853 -1118232 -1154739 -1180753 
2954.548 -1194119 -1196018 -1189768 -1179382 -1167920 -1157088 -1146972 
2954.970 -1136641 -1125029 -1111683 -1097247 -1083304 -1071694 -1063774 
2955.392 -1059842 -1059098 -1060075 -1061575 -1063625 -1067799 -1076876 
2955.814 -1093467 -1118749 -1151019 -1185625 -1215470 -1233448 -1234881 
2956.237 -1219249 -1190864 -1157778 -1129530 -1113259 -1111961 -1123334 
2956.659 -1141286 -1157904 -1167046 -1166401 -1157920 -1146407 -1136770 
2957.081 -1131767 -1130337 -1128025 -1118869 -1098682 -1066848 -1027404 
2957.503 -987431 -955289 -937517 -936901 -952408 -980244 -1015743 -1054652 
2957.985 -1094133 -1132390 -1167672 -1197997 -1220983 -1234611 -1238128 
2958.407 -1232028 -1217120 -1192798 -1155316 -1097632 -1011564 -890590 
2958.830 -734573 -552008 -360955 -183505 -40977 52658 95756 98383 78439 
2959.372 53202 34678 24675 16082 -3591 -45426 -114287 -206945 -313822 
2959.915 -422839 -523615 -611138 -685671 -751194 -812141 -871515 -929620 
2960.397 -984669 -1033966 -1075160 -1106512 -1126169 -1131738 -1120160 
2960.820 -1088720 -1037085 -968859 -892469 -818976 -760393 -725831 -718606 
2961.302 -735788 -769229 -808742 -844109 -868455 -878857 -875967 -862814 
2961.784 -843603 -822891 -804680 -792634 -789481 -796421 -812674 -835104 
2962.267 -858938 -878305 -888107 -885285 -869219 -841705 -806059 -766436 
2962.749 -726717 -690795 -662652 -646124 -645017 -661918 -697075 -747394 
2963.232 -806212 -864477 -911591 -938597 -939913 -914699 -867153 -806033 
2963.714 -743042 -689396 -654637 -643937 -657003 -688218 -728164 -766498 
2964.197 -793815 -804813 -798893 -779742 -753096 -724554 -697519 -672196 
2964.679 -646287 -616564 -580959 -539627 -495288 -452046 -414372 -385455 
2965.161 -366515 -356848 -354389 -356315 -359302 -360213 -356059 -344420 
2965.644 -324272 -296262 -262883 -227606 -194108 -164741 -139997 -118841 
2966.126 -100025 -83675 -72330 -70392 -82699 -111895 -156389 -209569 -260871 
2966.669 -299536 -316664 -308555 -277273 -229673 -174503 -119727 -71219 
2967.151 -31638 -1557 19268 31133 34194 29094 17534 2763 -10989 -19700 
2967.754 -20130 -10856 7956 34937 68243 105789 145150 183648 218271 246153 
2968.357 265654 276833 281652 282893 283200 283416 282403 277844 268341 
2968.900 255431 245093 246619 270855 327095 419414 545574 696896 861139 
2969.443 1023712 1171211 1293104 1381062 1429724 1436324 1401185 1328377 
2969.925 1226319 1107634 986025 874853 783987 717797 675891 654567 649454 
2970.468 657073 675807 705062 743494 787712 831786 867950 889386 891777 
2971.011 875106 843571 804835 767887 740565 728949 735961 761581 803022 
2971.553 855576 913225 969213 1017789 1054849 1078952 1091464 1096055 
2972.036 1097268 1098719 1102379 1108018 1114113 1119114 1122911 1127397 
2972.518 1136337 1153718 1182241 1221892 1269421 1318679 1362024 1392747 
2973.001 1406093 1400983 1380083 1349663 1317949 1293285 1283019 1291295 
2973.483 1318632 1361802 1415061 1471123 1522732 1564440 1592639 1605998 
2973.966 1604905 1591099 1567174 1536437 1503210 1472457 1449484 1439522 
2974.448 1446376 1471994 1515958 1575711 1646602 1722593 1797326 1863873 
2974.930 1916030 1949255 1961185 1952759 1928380 1895722 1863603 1840280 
2975.413 1831446 1838396 1858107 1884190 1909565 1927968 1936092 1933888 
2975.895 1924051 1910583 1897207 1886637 1879952 1876924 1876554 1877727 
2976.378 1879523 1881391 1883263 1885450 1888848 1894576 1904106 1918721 
2976.860 1939151 1965276 1995985 2029393 2062976 2094216 2120713 2140406 
2977.343 2151933 2154690 2149189 2137100 2121562 2106631 2096428 2094630 
2977.825 2103240 2122174 2149064 2179959 2209994 2234068 2248218 2249625 
2978.307 2237221 2211811 2176023 2133957 2090187 2049284 2014390 1986838 
2978.790 1966194 1951241 1941275 1937446 1942855 1962239 2000110 2058730 
2979.272 2137208 2231399 2335867 2445401 2557284 2671552 2789511 2911064 
2979.755 3031950 3141869 3226613 3270669 3262357 3198766 3087533 2945992 
2980.237 2795355 2657474 2548095 2473820 2432615 2415910 2412635 2412274 
2980.719 2408372 2398738 2384647 2368820 2353871 2341011 2330144 2320727 
2981.202 2312933 2308415 2310476 2323044 2349135 2389484 2441601 2500027 
2981.684 2557234 2606407 2642855 2665661 2677592 2684176 2691310 2702906 
2982.167 2719701 2738916 2755662 2764577 2762247 2748485 2726432 2701348 
2982.649 2679390 2666172 2665341 2678970 2707621 2750875 2807697 2876342 
2983.132 2954283 3037962 3123400 3206856 3285466 3358132 3425638 3490326 
2983.614 3555014 3622315 3693892 3769908 3849305 3930056 4009786 4086045 
2984.096 4156866 4221069 4278313 4329153 4374899 4417506 4459424 4504047 
2984.579 4556281 4622382 4710353 4828326 4981740 5170535 5386104 5611023 
2985.061 5818814 5980925 6072951 6080444 6004329 5860249 5674826 5475565 
2985.544 5286107 5119746 4978236 4854874 4739411 4623595 4503584 4380942 
2986.026 4260206 4146038 4040351 3941748 3846800 3752604 3658884 3568875 
2986.509 3487813 3421099 3371057 3335581 3307968 3279298 3241538 3189872 
2986.991 3124743 3051439 2978578 2914551 2865502 2833529 2816513 2809216 
2987.473 2805343 2799847 2789582 2773900 2753667 2729985 2703090 2671986 
2987.956 2634978 2591042 2541237 2489706 2442810 2408354 2392975 2399666 
2988.438 2426784 2467949 2514356 2556542 2587964 2606263 2613170 2612860 
2988.921 2609613 2605749 2600571 2590834 2572609 2543833 2506204 2466343 
2989.403 2434458 2423505 2445074 2506331 2607551 2740723 2890098 3033353 
2989.885 3147708 3212554 3214127 3149050 3024550 2857302 2668480 2481931 
2990.368 2318200 2191315 2108844 2071016 2072737 2105059 2158061 2221518 
2990.850 2285736 2342854 2386313 2411612 2416890 2402884 2373034 2332595 
2991.333 2288383 2247158 2214614 2194950 2189872 2198613 2217853 2242674 
2991.815 2267017 2284939 2292393 2287796 2272941 2252280 2232418 2219914 
2992.298 2219628 2233911 2262091 2301182 2346928 2395366 2443273 2488257 
2992.780 2528577 2562120 2586055 2597169 2592079 2568594 2526733 2469440 
2993.262 2402530 2334018 2273413 2229132 2207582 2211664 2240218 2288240 
2993.745 2347866 2410722 2468636 2515813 2549546 2570050 2579785 2582169 
2994.227 2580836 2578438 2576624 2576279 2577689 2580847 2585355 2590279 
2994.710 2593820 2593493 2586730 2571452 2547167 2515434 2480173 2446725 
2995.192 2420895 2407910 2410715 2429545 2461608 2501971 2544163 2581870 
2995.675 2610471 2627445 2632972 2629374 2620483 2610193 2601510 2595987 
2996.157 2593599 2593159 2593205 2592776 2591801 2591003 2591394 2593722 
2996.639 2597922 2603244 2608504 2612811 2616003 2618751 2622074 2626692 
2997.122 2632292 2637225 2638788 2634003 2620969 2599842 2573326 2546011 
2997.604 2523713 2511245 2510719 2520549 2535518 2548031 2549971 2535953 
2998.087 2504825 2460732 2411612 2367533 2337126 2324561 2328473 2342337 
2998.569 2357369 2365031 2360931 2345904 2325642 2307628 2298286 2299998 
2999.052 2310047 2321395 2325418 2315648 2289696 2250846 2206731 2168035 
2999.534 2144914 2144657 2170735 2221968 2293305 2376334 2461517 2538398 
3000.016 2597180 2630898 2635845 2612962 2567357 2507945 2444931 2387475 
3000.499 2342525 2312811 2297056 2290510 2286846 2279390 2262632 2233701 
3000.981 2192702 2143048 2090552 2043098 2008386 1991825 1995256 2015771 
3001.464 2046467 2077856 2101554 2112353 2110005 2098799 2085858 2078054 
3001.946 2078788 2086762 2096066 2098740 2086943 2056458 2007962 1946978 
3002.428 1881675 1820730 1771230 1736761 1717809 1712328 1717319 1729534 
3002.911 1746277 1765473 1785145 1803274 1817817 1826932 1829635 1826248 
3003.393 1818618 1809557 1802206 1799053 1801001 1806969 1814148 1819099 
3003.876 1818494 1810462 1795137 1774543 1751679 1729392 1709498 1692122 
3004.358 1676043 1659526 1641413 1621786 1602068 1584233 1570169 1560637 
3004.841 1555122 1552234 1550568 1549401 1548824 1549301 1550640 1551131 
3005.323 1547639 1535901 1512140 1474702 1424790 1366595 1305815 1248611 
3005.805 1199728 1161643 1135076 1119484 1114106 1118124 1130559 1149536 
3006.288 1171966 1194252 1213246 1227999 1240530 1255756 1279483 1315520 
3006.770 1363638 1418402 1470486 1508877 1525680 1518350 1491213 1453513 
3007.253 1417073 1392128 1383904 1391933 1410553 1431779 1447267 1451224 
3007.735 1441505 1419559 1389706 1358229 1332573 1319369 1323772 1347732 
3008.218 1388936 1440427 1491659 1531700 1551282 1546599 1520402 1481788 
3008.700 1442773 1414626 1404707 1413890 1437371 1466866 1494838 1516538 
3009.182 1531693 1543382 1556104 1572942 1594014 1616586 1636630 1651152 
3009.665 1659726 1664931 1671263 1683272 1703195 1730130 1760190 1788342 
3010.147 1809944 1822633 1826842 1825225 1821234 1817654 1815979 1816266 
3010.630 1817910 1820488 1824468 1831193 1842351 1859076 1881360 1907838 
3011.112 1936286 1964014 1988939 2010090 2027757 2043255 2058594 2076056 
3011.594 2097541 2124513 2157455 2195755 2237458 2279460 2318333 2350790 
3012.077 2374903 2390559 2399463 2404218 2407192 2409545 2410638 2408428 
3012.559 2400769 2386946 2368859 2351535 2342015 2348904 2380670 2444443 
3013.042 2546742 2692936 2887406 3132780 3427907 3765275 4127695 4490079 
3013.524 4819533 5081283 5248593 5306560 5256987 5115410 4907254 4659615 
3014.007 4395129 4131525 3879771 3646874 3438834 3261378 3120299 3019853 
3014.489 2960554 2937965 2942709 2963310 2987592 3006227 3014178 3009792 
3014.971 2993900 2968245 2935022 2897075 2859160 2828730 2814427 2824875 
3015.454 2865163 2934299 3024006 3119915 3205694 3265407 3288586 3271662 
3015.936 3217367 3132872 3027708 2913197 2801073 2705139 2640887 2622401 
3016.419 2660373 2756749 2902002 3072878 3236739 3359803 3413489 3385798 
3016.901 3284276 3135821 2977364 2849352 2786593 2808863 2919391 3102452 
3017.384 3328297 3554812 3737883 3841699 3843965 3744477 3564634 3344860 
3017.866 3131085 2965624 2877099 2872674 2939404 3049441 3172548 3283389 
3018.348 3371128 3440028 3504332 3578164 3666461 3759985 3837587 3873214 
3018.831 3845536 3748461 3594059 3410453 3230493 3084758 2990982 2950180 
3019.313 2948152 2960991 2963328 2932502 2855062 2726983 2552445 2341064 
3019.796 2105918 1862195 1624445 1407082 1222246 1077546 975749 913760 
3020.278 884111 876114 879326 885605 889714 889809 886055 879174 869278 
3020.821 855461 836214 810327 777682 739847 699805 661631 629262 605461 
3021.364 591318 585806 586327 589467 592574 594761 597633 604742 620670 
3021.906 648903 689947 740403 793337 840527 874224 890380 889559 876641 
3022.449 858459 841477 829543 822748 818416 812808 803424 789831 773813 
3022.992 757932 744067 732102 720064 705038 684992 659973 632523 606623 
3023.534 586370 574423 570975 574204 581216 589598 597875 605897 614113 
3024.077 622680 630973 637398 639887 636716 626980 610891 589558 565016 
3024.620 540039 517959 503023 499631 511314 539586 582481 634184 685177 
3025.163 725212 745159 739830 709726 660968 603794 549098 506774 482712 
3025.705 477951 489041 509292 530790 545383 547094 532746 502624 460266 
3026.248 411961 365173 326053 298467 282479 275006 270948 265667 257021 
3026.791 246213 237087 234325 241115 257191 278504 298460 310753 311097 
3027.333 299081 277877 253141 230607 213989 204510 200858 200558 201191 
3027.876 201450 201178 200765 200349 199363 196521 190497 180338 165877 
3028.419 147507 125753 100910 73049 42677 11485 -17232 -38636 -48054 -42288 
3029.022 -21290 11624 50379 88647 122583 152322 182327 219327 269758 335809 
3029.625 413597 492449 558313 596497 596192 554104 474956 370436 254981 
3030.168 143654 47686 -27466 -81840 -120199 -149646 -177889 -210424 -249734 
3030.710 -294867 -342228 -386542 -422652 -447251 -459495 -461436 -457092 
3031.193 -451642 -449504 -453282 -463229 -477458 -492612 -504679 -510391 
3031.675 -507506 -495459 -475403 -450334 -424683 -403488 -392043 -394446 
3032.158 -412587 -445677 -490230 -540998 -592119 -639366 -680789 -717068 
3032.640 -750328 -782808 -815097 -845585 -870898 -887649 -894232 -891677 
3033.123 -883357 -873336 -864707 -857977 -851203 -841201 -825823 -805555 
3033.605 -784291 -767793 -762073 -770277 -791203 -819080 -845640 -863106 
3034.087 -866399 -855371 -834499 -811608 -794658 -789986 -800452 -824929 
3034.570 -858776 -895297 -927875 -950852 -961632 -961276 -954615 -948865 
3035.052 -951779 -969296 -1002865 -1048310 -1096078 -1134643 -1153013 
3035.474 -1145052 -1111554 -1060181 -1003005 -952479 -919241 -908716 -920973 
3035.957 -951296 -992361 -1035736 -1073501 -1100061 -1112348 -1110588 
3036.379 -1098055 -1080926 -1066625 -1061494 -1069386 -1089722 -1117719 
3036.801 -1145555 -1165782 -1173577 -1168523 -1154213 -1136531 -1120948 
3037.223 -1110281 -1104632 -1102465 -1102797 -1106738 -1117735 -1139879 
3037.645 -1175835 -1224620 -1281383 -1338606 -1389715 -1431121 -1463665 
3038.067 -1491422 -1519232 -1549600 -1581069 -1608680 -1626688 -1631848 
3038.490 -1625290 -1612515 -1600921 -1596600 -1600943 -1609961 -1615529 
3038.912 -1609310 -1585395 -1542690 -1484557 -1417253 -1347245 -1279241 
3039.334 -1216540 -1161553 -1117163 -1087625 -1077396 -1089713 -1124758 
3039.756 -1178966 -1245469 -1315934 -1383376 -1442783 -1491816 -1529955 
3040.178 -1557123 -1573094 -1577602 -1571317 -1556589 -1537391 -1518582 
3040.600 -1503532 -1492988 -1484548 -1474319 -1459058 -1438824 -1417708 
3041.022 -1403239 -1403059 -1421332 -1456566 -1501301 -1544580 -1575008 
3041.444 -1585605 -1575362 -1549472 -1516345 -1485099 -1462099 -1449321 
3041.866 -1444850 -1444443 -1443837 -1440141 -1432884 -1423701 -1415723 
3042.289 -1412246 -1415861 -1427754 -1447254 -1471818 -1497396 -1519801 
3042.711 -1535456 -1542815 -1542943 -1539205 -1535984 -1536880 -1543400 
3043.133 -1554217 -1565839 -1573908 -1575327 -1569201 -1557145 -1542153 
3043.555 -1527405 -1514758 -1504191 -1494182 -1482700 -1468266 -1450529 
3043.977 -1430310 -1409196 -1389198 -1372341 -1360869 -1357275 -1363829 
3044.399 -1381951 -1411034 -1447933 -1486469 -1518796 -1537749 -1538130 
3044.821 -1518931 -1483347 -1438122 -1391092 -1349435 -1318338 -1299852 
3045.243 -1293561 -1297250 -1308138 -1323336 -1340527 -1358223 -1375673 
3045.666 -1392888 -1410213 -1427879 -1445392 -1461240 -1473150 -1479245 
3046.088 -1479261 -1475805 -1474069 -1481061 -1502866 -1541753 -1594540 
3046.510 -1652382 -1703585 -1735961 -1741752 -1719544 -1674564 -1615953 
3046.932 -1553961 -1496820 -1448545 -1409770 -1379181 -1355560 -1338947 
3047.354 -1330596 -1331746 -1342391 -1360551 -1382834 -1405571 -1426667 
3047.776 -1446263 -1466453 -1489815 -1517798 -1549517 -1581967 -1610740 
3048.198 -1632008 -1644047 -1647530 -1645154 -1640056 -1634609 -1629005 
3048.620 -1620975 -1605861 -1577954 -1531343 -1461596 -1367586 -1252948 
3049.042 -1127254 -1004721 -903777 -842104 -831736 -876175 -968172 -1091790 
3049.525 -1225496 -1349638 -1449942 -1520367 -1562998 -1585232 -1595677 
3049.947 -1600257 -1601387 -1598248 -1589215 -1573857 -1554063 -1533217 
3050.369 -1514781 -1500322 -1489056 -1478528 -1466542 -1452567 -1438564 
3050.791 -1427790 -1423336 -1426042 -1433977 -1443193 -1450087 -1453586 
3051.213 -1456325 -1463749 -1481810 -1514208 -1559955 -1613122 -1664132 
3051.635 -1703639 -1724368 -1723598 -1703015 -1667684 -1623924 -1577679 
3052.058 -1534545 -1499464 -1477237 -1472583 -1488717 -1526011 -1580567 
3052.480 -1644570 -1706851 -1755644 -1782102 -1781555 -1754858 -1707179 
3052.902 -1646653 -1581788 -1519907 -1467442 -1429364 -1409921 -1412663 
3053.324 -1439279 -1488480 -1554760 -1628877 -1698095 -1748882 -1770652 
3053.746 -1757016 -1708335 -1631185 -1537871 -1442831 -1360246 -1301858 
3054.168 -1273893 -1276921 -1305878 -1352287 -1405972 -1458043 -1503465 
3054.590 -1541283 -1574254 -1606532 -1641469 -1679327 -1716725 -1747395 
3055.012 -1764881 -1764579 -1745581 -1710823 -1666201 -1618648 -1573944 
3055.435 -1536470 -1508950 -1493154 -1490692 -1502671 -1528903 -1566549 
3055.857 -1609843 -1650692 -1680462 -1693465 -1688653 -1670697 -1647837 
3056.279 -1629704 -1623155 -1629615 -1644666 -1659782 -1665790 -1655642 
3056.701 -1627416 -1584539 -1534855 -1487426 -1450519 -1429572 -1426113 
3057.123 -1438157 -1460968 -1488685 -1514822 -1533953 -1542722 -1540158 
3057.545 -1527613 -1507785 -1483651 -1457133 -1429066 -1400037 -1371464 
3057.967 -1346727 -1330628 -1326852 -1334680 -1345330 -1341980 -1300492 
3058.389 -1197781 -1019996 -769870 -470139 -161615 103179 277774 330744 
3058.872 256587 75398 -172791 -441768 -694193 -905383 -1067999 -1187121 
3059.354 -1274003 -1339127 -1388880 -1425430 -1448667 -1459263 -1460596 
3059.776 -1458043 -1457569 -1462877 -1473861 -1486591 -1495187 -1494470 
3060.198 -1481781 -1458299 -1428546 -1399466 -1378125 -1370700 -1381463 
3060.621 -1411852 -1460180 -1521318 -1587621 -1649122 -1695929 -1720910 
3061.043 -1721031 -1698631 -1660436 -1616043 -1574362 -1541773 -1521260 
3061.465 -1512522 -1513603 -1522344 -1537529 -1558504 -1584238 -1612352 
3061.887 -1638358 -1656392 -1660984 -1648299 -1617974 -1573174 -1520175 
3062.309 -1466206 -1418356 -1382282 -1361145 -1355804 -1364655 -1384073 
3062.731 -1408234 -1430188 -1443392 -1442703 -1426639 -1397942 -1363637 
3063.153 -1332466 -1312748 -1309720 -1323731 -1350566 -1383091 -1414456 
3063.575 -1439757 -1457562 -1469236 -1477416 -1483802 -1488044 -1487785 
3063.998 -1480170 -1463611 -1439331 -1411335 -1385617 -1368129 -1362439 
3064.420 -1369050 -1385180 -1406258 -1427148 -1443962 -1454868 -1460116 
3064.842 -1461727 -1462993 -1468375 -1482601 -1510413 -1555342 -1618115 
3065.264 -1695291 -1778581 -1856480 -1915735 -1945935 -1943080 -1911026 
3065.686 -1860493 -1805283 -1758772 -1728721 -1716263 -1715856 -1718432 
3066.108 -1713999 -1695062 -1658924 -1607432 -1546217 -1482361 -1423560 
3066.530 -1376270 -1345157 -1333028 -1340245 -1364581 -1401061 -1443196 
3066.952 -1483789 -1516707 -1538818 -1550201 -1554019 -1554645 -1556634 
3067.375 -1562998 -1575069 -1592997 -1616155 -1642732 -1667993 -1682801 
3067.797 -1671724 -1613543 -1487471 -1278211 -985666 -629537 -252811 86884 
3068.279 333034 440845 394474 209417 -70978 -392052 -700046 -953798 -1134546 
3068.822 -1242974 -1295128 -1312443 -1316159 -1320575 -1331454 -1348247 
3069.244 -1366995 -1383691 -1396071 -1404387 -1410723 -1418385 -1430730 
3069.666 -1450824 -1480715 -1520815 -1569176 -1621240 -1670793 -1710546 
3070.088 -1734573 -1739944 -1727139 -1699771 -1663041 -1622312 -1581344 
3070.510 -1542287 -1506163 -1473836 -1446904 -1427783 -1418741 -1421066 
3070.932 -1433839 -1453919 -1476222 -1495430 -1507462 -1510314 -1504803 
3071.354 -1494118 -1483248 -1477352 -1481070 -1497223 -1525915 -1564062 
3071.777 -1605503 -1642493 -1666664 -1672039 -1656857 -1624547 -1582941 
3072.199 -1542303 -1512768 -1500600 -1507293 -1529235 -1559840 -1591394 
3072.621 -1617479 -1634472 -1640981 -1637213 -1623969 -1602061 -1572541 
3073.043 -1537391 -1500261 -1466017 -1440132 -1427273 -1429582 -1446276 
3073.465 -1473720 -1506947 -1540407 -1569550 -1591419 -1604239 -1607378 
3073.887 -1600982 -1586056 -1564532 -1539569 -1515366 -1496215 -1485874 
3074.309 -1486703 -1499166 -1522185 -1553513 -1590538 -1630033 -1668363 
3074.731 -1701228 -1723467 -1730393 -1718974 -1689424 -1645798 -1595891 
3075.154 -1549507 -1515043 -1498004 -1498910 -1513901 -1535939 -1557663 
3075.576 -1573698 -1581366 -1580957 -1574474 -1564452 -1552669 -1540193 
3075.998 -1527556 -1515056 -1503026 -1491406 -1479450 -1465466 -1447459 
3076.420 -1424256 -1396607 -1367817 -1343104 -1328530 -1328507 -1344373 
3076.842 -1373615 -1410713 -1447853 -1476231 -1487401 -1472020 -1420325 
3077.264 -1323114 -1172839 -967832 -715595 -436611 -161796 71200 224705 
3077.747 273872 211605 52117 -175457 -432901 -684393 -905572 -1083476 
3078.229 -1217081 -1312050 -1376363 -1416316 -1435936 -1438670 -1429168 
3078.651 -1415008 -1406331 -1412397 -1439186 -1486184 -1546313 -1607039 
3079.073 -1654794 -1679509 -1676834 -1649591 -1605966 -1557340 -1514026 
3079.495 -1483562 -1469560 -1471542 -1486059 -1507958 -1532146 -1554281 
3079.917 -1571768 -1584126 -1592767 -1600244 -1609223 -1621655 -1637905 
3080.340 -1656647 -1675282 -1691018 -1701339 -1704608 -1700077 -1687509 
3080.762 -1666912 -1638489 -1603042 -1562419 -1519631 -1478954 -1444770 
3081.184 -1420706 -1408984 -1409895 -1422162 -1443443 -1471072 -1501877 
3081.606 -1532008 -1557225 -1572637 -1574298 -1560770 -1534481 -1501855 
3082.028 -1471744 -1453288 -1452032 -1468189 -1496163 -1527281 -1552602 
3082.450 -1566919 -1570659 -1569329 -1570560 -1579890 -1598507 -1622070 
3082.872 -1642841 -1652146 -1644471 -1619005 -1579893 -1533998 -1488845 
3083.294 -1450477 -1422018 -1404448 -1397246 -1399245 -1408734 -1423211 
3083.717 -1439359 -1453047 -1460792 -1460936 -1454698 -1445811 -1439234 
3084.139 -1439084 -1446542 -1459209 -1471869 -1479043 -1476878 -1465405 
3084.561 -1448574 -1433326 -1426857 -1434266 -1457296 -1493823 -1538885 
3084.983 -1585820 -1628498 -1661845 -1682578 -1689386 -1682470 -1663025 
3085.405 -1632646 -1593087 -1545933 -1492869 -1436455 -1380430 -1330079 
3085.827 -1291902 -1271544 -1272288 -1293037 -1328138 -1367833 -1400788 
3086.249 -1417554 -1411015 -1376861 -1311542 -1209019 -1059822 -852385 
3086.671 -577251 -234175 161473 574188 955313 1247333 1399864 1385909 
3087.154 1207281 896042 502145 84703 -306275 -637753 -894070 -1076740 
3087.636 -1197775 -1274125 -1321057 -1350897 -1372010 -1389182 -1405590 
3088.058 -1423365 -1443898 -1467868 -1495155 -1524926 -1555860 -1586510 
3088.480 -1615471 -1641102 -1661679 -1675141 -1679206 -1671848 -1651531 
3088.903 -1617706 -1571298 -1515347 -1455153 -1397977 -1352959 -1328722 
3089.325 -1331425 -1362709 -1418320 -1488205 -1558149 -1614536 -1646564 
3089.747 -1649671 -1626082 -1583625 -1532552 -1481932 -1438414 -1404923 
3090.169 -1381826 -1368552 -1364931 -1371529 -1389076 -1417288 -1453973 
3090.591 -1494764 -1534331 -1566986 -1588231 -1595591 -1588532 -1568415 
3091.013 -1537964 -1501247 -1462909 -1427684 -1399732 -1381178 -1371644 
3091.435 -1368164 -1366642 -1363177 -1356000 -1346268 -1337466 -1333443 
3091.857 -1336209 -1344498 -1354009 -1359302 -1356241 -1344607 -1328639 
3092.280 -1315979 -1314130 -1327942 -1357131 -1396428 -1436840 -1468845 
3092.702 -1485537 -1483552 -1463899 -1430835 -1390947 -1351350 -1319273 
3093.124 -1301707 -1303894 -1328800 -1375538 -1439071 -1509968 -1576609 
3093.546 -1628568 -1658318 -1663810 -1648175 -1618332 -1581762 -1544334 
3093.968 -1509152 -1476398 -1444975 -1414081 -1384342 -1358088 -1338304 
3094.390 -1327132 -1324863 -1329204 -1335965 -1339779 -1336180 -1322925 
3094.812 -1300958 -1274527 -1250453 -1236698 -1239525 -1262060 -1302591 
3095.234 -1355152 -1410501 -1459401 -1495715 -1517353 -1526299 -1525601 
3095.656 -1515648 -1490996 -1439465 -1343885 -1189061 -967093 -684129 
3096.079 -361090 -34326 252278 459057 555725 531116 393260 166742 -116098 
3096.621 -421858 -720093 -989401 -1215780 -1392446 -1518678 -1598452 
3097.043 -1639098 -1649240 -1638336 -1614536 -1583807 -1550399 -1517011 
3097.466 -1485835 -1459629 -1441584 -1435179 -1443151 -1466273 -1502617 
3097.888 -1547228 -1593266 -1632490 -1657425 -1663226 -1648484 -1616068 
3098.310 -1572237 -1525832 -1485252 -1456838 -1443081 -1442251 -1449071 
3098.732 -1456796 -1460154 -1456707 -1447920 -1437959 -1432063 -1433750 
3099.154 -1443186 -1456745 -1468339 -1471469 -1461292 -1436686 -1400544 
3099.576 -1359298 -1320675 -1292722 -1281650 -1290464 -1318801 -1362779 
3099.998 -1416040 -1470463 -1518547 -1555080 -1578114 -1589477 -1593860 
3100.420 -1597111 -1603725 -1615819 -1632362 -1650322 -1665927 -1676480 
3100.843 -1681287 -1681294 -1678017 -1672384 -1664211 -1652507 -1636405 
3101.265 -1616202 -1593627 -1571477 -1552375 -1537516 -1526388 -1517398 
3101.687 -1509341 -1502917 -1501419 -1509853 -1533528 -1575276 -1633754 
3102.109 -1702585 -1772039 -1830782 -1868831 -1880671 -1865514 -1827374 
3102.531 -1772929 -1710336 -1647119 -1588870 -1539428 -1500296 -1471187 
3102.953 -1450750 -1437561 -1430980 -1431627 -1440968 -1460407 -1489610 
3103.375 -1525726 -1562864 -1593566 -1611468 -1613134 -1600024 -1578008 
3103.797 -1555946 -1541862 -1540692 -1552689 -1573883 -1597622 -1617170 
3104.219 -1628134 -1628772 -1619848 -1603291 -1581248 -1555380 -1526884 
3104.642 -1496775 -1465498 -1432278 -1393886 -1344623 -1276496 -1181259 
3105.064 -1053749 -894122 -709806 -514084 -325380 -162852 -42371 24091 30795 
3105.606 -22449 -130811 -285430 -473453 -678186 -882146 -1067456 -1219275 
3106.089 -1329111 -1395058 -1422172 -1419905 -1400191 -1373782 -1348398 
3106.511 -1328854 -1317027 -1313307 -1317419 -1328896 -1346856 -1369753 
3106.933 -1395420 -1421162 -1444424 -1463255 -1476356 -1482947 -1482652 
3107.355 -1475485 -1462362 -1445484 -1428851 -1417179 -1414831 -1423926 
3107.777 -1442898 -1466219 -1485742 -1493955 -1486088 -1462717 -1429463 
3108.199 -1395815 -1371243 -1362028 -1369381 -1389031 -1412984 -1432208 
3108.622 -1440462 -1435490 -1419773 -1398597 -1378511 -1364491 -1358373 
3109.044 -1358730 -1361742 -1363030 -1359433 -1350730 -1339869 -1332370 
3109.466 -1333941 -1348668 -1377021 -1415450 -1456841 -1492808 -1516646 
3109.888 -1524725 -1517945 -1500930 -1480696 -1464011 -1455790 -1458463 
3110.310 -1471927 -1494560 -1524002 -1557903 -1593505 -1627460 -1655814 
3110.732 -1673990 -1677905 -1665238 -1636026 -1592937 -1540599 -1484858 
3111.154 -1431101 -1383842 -1346419 -1320775 -1307710 -1306887 -1316847 
3111.576 -1334876 -1357355 -1380693 -1401471 -1417403 -1427395 -1431201 
3111.999 -1429101 -1421768 -1410546 -1397756 -1387103 -1383415 -1390758 
3112.421 -1411159 -1442661 -1479315 -1511898 -1531263 -1531698 -1512896 
3112.843 -1480507 -1443904 -1413263 -1395032 -1390511 -1395686 -1404050 
3113.265 -1409074 -1407185 -1398683 -1386714 -1375134 -1366382 -1360470 
3113.687 -1355027 -1346220 -1329060 -1298231 -1247575 -1170117 -1060013 
3114.109 -914546 -737870 -542418 -350475 -189850 -86099 -57677 -108312 
3114.592 -226680 -388775 -566934 -736456 -880451 -993196 -1077235 -1139888 
3115.074 -1188571 -1229071 -1264722 -1297517 -1329664 -1363717 -1401616 
3115.496 -1442908 -1483507 -1516105 -1531717 -1523880 -1491172 -1439106 
3115.918 -1378366 -1322893 -1285514 -1274003 -1290409 -1330811 -1387603 
3116.340 -1451275 -1513456 -1568217 -1612113 -1644398 -1665965 -1678664 
3116.762 -1684430 -1684714 -1680114 -1670174 -1653681 -1629420 -1597121 
3117.185 -1558197 -1515952 -1474902 -1440186 -1415829 -1403993 -1404496 
3117.607 -1415069 -1431906 -1450782 -1468371 -1482668 -1493753 -1503606 
3118.029 -1515946 -1535066 -1564481 -1605516 -1655859 -1709179 -1755421 
3118.451 -1784070 -1786506 -1759354 -1706153 -1637321 -1567507 -1510496 
3118.873 -1476744 -1469569 -1485240 -1514314 -1545683 -1570192 -1582580 
3119.295 -1582670 -1573794 -1560716 -1547058 -1534522 -1523157 -1512448 
3119.717 -1502697 -1495805 -1494563 -1501727 -1518086 -1541571 -1567124 
3120.139 -1588331 -1599385 -1596971 -1581743 -1557922 -1532117 -1510531 
3120.562 -1497613 -1494412 -1498769 -1506201 -1512013 -1513341 -1510211 
3120.984 -1505843 -1505446 -1514602 -1536720 -1571662 -1615095 -1659957 
3121.406 -1697732 -1721104 -1726279 -1713387 -1686288 -1650657 -1612407 
3121.828 -1575375 -1540704 -1507286 -1473275 -1437757 -1402206 -1370350 
3122.250 -1347373 -1337858 -1343550 -1362487 -1389028 -1416066 -1436561 
3122.672 -1446206 -1444110 -1432018 -1412237 -1385552 -1349734 -1300173 
3123.094 -1231741 -1141986 -1033733 -916587 -805779 -717583 -666597 -660198 
3123.577 -696814 -766442 -854894 -948320 -1036502 -1115484 -1186089 -1251631 
3124.059 -1314738 -1375727 -1432012 -1479636 -1514643 -1535066 -1541664 
3124.481 -1537618 -1527453 -1515811 -1506921 -1503746 -1508141 -1520796 
3124.903 -1541127 -1567044 -1594815 -1619889 -1637248 -1642876 -1635100 
3125.325 -1614967 -1586203 -1554047 -1524254 -1501125 -1486799 -1480894 
3125.748 -1481035 -1483571 -1484670 -1481762 -1474005 -1462929 -1452035 
3126.170 -1446353 -1450692 -1468105 -1498564 -1538344 -1580663 -1616857 
3126.592 -1639456 -1643951 -1630371 -1603163 -1570333 -1541197 -1523320 
3127.014 -1521602 -1536665 -1565341 -1601432 -1637672 -1667410 -1685536 
3127.436 -1689938 -1681364 -1663220 -1640110 -1616777 -1596546 -1580264 
3127.858 -1566338 -1551745 -1533812 -1511722 -1487625 -1466062 -1452820 
3128.280 -1452416 -1466632 -1493772 -1529664 -1568875 -1606640 -1640228 
3128.702 -1668500 -1691040 -1706771 -1713107 -1706433 -1683767 -1644525 
3129.125 -1592004 -1533157 -1477544 -1433900 -1408221 -1402151 -1413045 
3129.547 -1435147 -1461762 -1487426 -1508381 -1522895 -1530703 -1532159 
3129.969 -1527876 -1518796 -1506566 -1493468 -1482236 -1475517 -1474822 
3130.391 -1480359 -1490977 -1504883 -1520252 -1535962 -1551710 -1567747 
3130.813 -1584424 -1601620 -1618696 -1634475 -1647511 -1656258 -1659217 
3131.235 -1655077 -1642745 -1621920 -1593476 -1559875 -1524821 -1492786 
3131.657 -1467455 -1450211 -1439170 -1429181 -1412952 -1382693 -1333183 
3132.079 -1263415 -1177838 -1085324 -998144 -928858 -886487 -875282 -892969 
3132.562 -932234 -982152 -1032303 -1075638 -1109971 -1138384 -1167378 
3132.984 -1204211 -1253251 -1314548 -1383370 -1452490 -1514288 -1563858 
3133.406 -1600503 -1627285 -1649291 -1671127 -1695731 -1723547 -1753681 
3133.828 -1785199 -1818160 -1853474 -1891493 -1930351 -1964817 -1986871 
3134.250 -1988701 -1965165 -1916949 -1850552 -1777230 -1708692 -1653987 
3134.672 -1617725 -1599276 -1594355 -1596999 -1602195 -1606295 -1607260 
3135.094 -1604041 -1595971 -1583015 -1566450 -1549731 -1538024 -1536844 
3135.517 -1550102 -1577625 -1614590 -1651996 -1680328 -1691910 -1684019 
3135.939 -1659367 -1624901 -1588765 -1556899 -1532034 -1513456 -1498964 
3136.361 -1486815 -1477288 -1472385 -1474371 -1483642 -1497556 -1510474 
3136.783 -1516176 -1509837 -1490660 -1462298 -1432054 -1408118 -1396463 
3137.205 -1399399 -1414697 -1436968 -1459459 -1477042 -1487385 -1491576 
3137.627 -1493074 -1496493 -1505596 -1521820 -1543880 -1567898 -1588909 
3138.049 -1601991 -1604466 -1596859 -1583388 -1570662 -1566063 -1575388 
3138.471 -1600429 -1637937 -1679789 -1715722 -1735016 -1730339 -1699940 
3138.894 -1648194 -1584433 -1520051 -1466356 -1430624 -1415113 -1416707 
3139.316 -1428771 -1443081 -1452381 -1452897 -1444754 -1431816 -1419606 
3139.738 -1413956 -1418510 -1433762 -1457021 -1483571 -1508227 -1526510 
3140.160 -1536061 -1536419 -1528595 -1514163 -1494675 -1471206 -1444388 
3140.582 -1414446 -1381303 -1344553 -1303627 -1258198 -1209129 -1159704 
3141.004 -1115752 -1085466 -1077749 -1098565 -1148586 -1220995 -1303190 
3141.426 -1378405 -1431368 -1453307 -1443968 -1411864 -1370434 -1334281 
3141.848 -1313076 -1309478 -1319222 -1334262 -1346329 -1350460 -1346756 
3142.271 -1339348 -1334182 -1335898 -1346471 -1364815 -1388181 -1413715 
3142.693 -1440000 -1467228 -1496215 -1527060 -1558018 -1585165 -1603703 
3143.115 -1609029 -1598500 -1572397 -1533956 -1488797 -1443276 -1404192 
3143.537 -1377060 -1365660 -1371760 -1394843 -1432320 -1479709 -1532069 
3143.959 -1584321 -1632337 -1673726 -1707290 -1732622 -1749369 -1756720 
3144.381 -1753436 -1738588 -1712241 -1676197 -1633837 -1589809 -1548424 
3144.803 -1512973 -1485025 -1464399 -1449856 -1439943 -1433580 -1430169 
3145.225 -1429357 -1430569 -1432685 -1434221 -1433791 -1430704 -1425484 
3145.647 -1419879 -1416505 -1417894 -1425802 -1440507 -1460670 -1483446 
3146.070 -1505251 -1522885 -1534043 -1538258 -1537155 -1534123 -1533233 
3146.492 -1538018 -1550230 -1568837 -1590116 -1608505 -1618887 -1617897 
3146.914 -1605606 -1585312 -1562704 -1543375 -1530835 -1525560 -1525211 
3147.336 -1526263 -1526004 -1524277 -1523611 -1528048 -1540439 -1560476 
3147.758 -1583315 -1601116 -1604750 -1587858 -1549571 -1495667 -1436968 
3148.180 -1385992 -1353832 -1345902 -1361305 -1393318 -1432855 -1470703 
3148.602 -1500597 -1520562 -1532261 -1539585 -1546332 -1555137 -1566443 
3149.024 -1578906 -1590087 -1597667 -1600094 -1596840 -1588490 -1576315 
3149.447 -1561975 -1546892 -1532018 -1517465 -1502591 -1486110 -1466846 
3149.869 -1444433 -1419934 -1395927 -1375962 -1363669 -1361065 -1367942 
3150.291 -1381534 -1397721 -1412131 -1421954 -1426776 -1428540 -1430444 
3150.713 -1435330 -1444821 -1458815 -1476276 -1496359 -1519427 -1547103 
3151.135 -1581184 -1621865 -1666000 -1706497 -1734054 -1738862 -1714582 
3151.557 -1660939 -1584896 -1499195 -1419045 -1359597 -1331088 -1337652 
3151.979 -1376970 -1441850 -1521932 -1605938 -1684449 -1749900 -1797777 
3152.401 -1826554 -1837243 -1832892 -1817458 -1795428 -1770404 -1744754 
3152.823 -1719579 -1694884 -1670289 -1645594 -1621160 -1598072 -1577967 
3153.246 -1562659 -1554210 -1554492 -1565024 -1586510 -1618134 -1657157 
3153.668 -1698312 -1735080 -1760529 -1769106 -1758639 -1730883 -1691337 
3154.090 -1647148 -1605835 -1572745 -1550022 -1536905 -1530614 -1527943 
3154.512 -1526206 -1524104 -1521657 -1519830 -1520121 -1524350 -1534487 
3154.934 -1552123 -1578078 -1611458 -1649409 -1686967 -1718404 -1739129 
3155.356 -1747026 -1743649 -1733653 -1723410 -1718088 -1720079 -1727992 
3155.778 -1737677 -1743690 -1741911 -1731055 -1712893 -1691308 -1670448 
3156.200 -1653821 -1643205 -1639012 -1640837 -1648006 -1659469 -1673350 
3156.623 -1686910 -1696486 -1698691 -1691945 -1677551 -1659868 -1644730 
3157.045 -1637742 -1641546 -1654733 -1672157 -1687404 -1695352 -1694495 
3157.467 -1687614 -1680745 -1680542 -1691066 -1712444 -1740358 -1768059 
3157.889 -1787861 -1793981 -1783628 -1757032 -1716805 -1667021 -1612822 
3158.311 -1559421 -1512102 -1475645 -1452887 -1444225 -1446843 -1455755 
3158.733 -1464777 -1469150 -1467192 -1460795 -1454278 -1452125 -1456707 
3159.155 -1466494 -1476251 -1478665 -1467708 -1441029 -1401747 -1357452 
3159.577 -1318856 -1296128 -1295546 -1318390 -1360220 -1412718 -1465162 
3160.000 -1508112 -1535057 -1543691 -1536179 -1518371 -1498254 -1483363 
3160.422 -1479741 -1490247 -1514154 -1547468 -1584353 -1618970 -1646471 
3160.844 -1664559 -1673547 -1675776 -1674376 -1672253 -1671102 -1670917 
3161.266 -1670279 -1666823 -1658433 -1643702 -1622813 -1597539 -1571128 
3161.688 -1547324 -1529302 -1518912 -1515872 -1517773 -1520751 -1520937 
3162.110 -1515466 -1503615 -1487055 -1469444 -1455371 -1448875 -1452797 
3162.532 -1467910 -1493052 -1525214 -1560495 -1594556 -1623340 -1644136 
3162.954 -1656050 -1660598 -1661290 -1663354 -1672122 -1691247 -1721907 
3163.376 -1762053 -1807218 -1851546 -1889828 -1918680 -1936841 -1944905 
3163.799 -1944382 -1936873 -1923638 -1906064 -1886094 -1866407 -1850130 
3164.221 -1839562 -1834807 -1832876 -1828098 -1814013 -1785237 -1740364 
3164.643 -1682853 -1620716 -1563426 -1519887 -1495200 -1489332 -1497463 
3165.065 -1511782 -1524414 -1528935 -1522473 -1505855 -1483069 -1459914 
3165.487 -1442802 -1437744 -1448632 -1476686 -1519593 -1571950 -1625638 
3165.909 -1671794 -1703550 -1717193 -1713664 -1697697 -1676477 -1656487 
3166.331 -1641574 -1631823 -1624020 -1613176 -1594709 -1566558 -1529833 
3166.753 -1488650 -1448491 -1415267 -1393716 -1386483 -1394422 -1416441 
3167.176 -1449936 -1490673 -1533483 -1572384 -1601161 -1614967 -1610695 
3167.598 -1587903 -1548721 -1497489 -1439641 -1380513 -1325158 -1277690 
3168.020 -1241274 -1218479 -1210869 -1218589 -1239802 -1270595 -1305029 
3168.442 -1336155 -1358104 -1367133 -1363081 -1349175 -1331386 -1316265 
3168.864 -1308829 -1311552 -1323667 -1341973 -1362269 -1381245 -1397374 
3169.286 -1411210 -1424442 -1438840 -1454903 -1471453 -1485899 -1495434 
3169.708 -1498423 -1495254 -1488486 -1482181 -1480862 -1487839 -1504585 
3170.130 -1530294 -1562403 -1596999 -1629490 -1655591 -1671440 -1674494 
3170.552 -1664246 -1642815 -1615085 -1587743 -1568367 -1562605 -1572480 
3170.975 -1595409 -1625000 -1652714 -1670793 -1675282 -1666699 -1649610 
3171.397 -1629937 -1612758 -1599880 -1589624 -1578091 -1561735 -1539499 
3171.819 -1513798 -1489460 -1471844 -1464319 -1466658 -1475197 -1484378 
3172.241 -1489610 -1488816 -1483418 -1477247 -1474854 -1479213 -1490615 
3172.663 -1506768 -1524200 -1539847 -1552273 -1562004 -1570828 -1580599 
3173.085 -1592161 -1605162 -1618504 -1631185 -1643096 -1655017 -1668127 
3173.507 -1682961 -1698592 -1712489 -1720866 -1720238 -1708364 -1685224 
3173.929 -1652995 -1615653 -1577797 -1543292 -1515056 -1494608 -1482495 
3174.352 -1478848 -1483683 -1496945 -1518086 -1545568 -1576331 -1605666 
3174.774 -1628277 -1638939 -1634232 -1613853 -1581117 -1542518 -1505801 
3175.196 -1478505 -1465222 -1466372 -1478169 -1494153 -1507302 -1512221 
3175.618 -1507177 -1494163 -1477967 -1463838 -1456024 -1456091 -1462935 
3176.040 -1473541 -1484612 -1493948 -1501010 -1506912 -1513674 -1523247 
3176.462 -1536764 -1554313 -1575081 -1597852 -1621217 -1643753 -1664205 
3176.884 -1681208 -1693424 -1699877 -1700055 -1694205 -1683331 -1669045 
3177.306 -1653065 -1637079 -1622631 -1610871 -1602834 -1599334 -1600749 
3177.729 -1606905 -1616917 -1629264 -1641973 -1653145 -1661325 -1665595 
3178.151 -1665602 -1661268 -1652580 -1639612 -1622596 -1602489 -1580983 
3178.573 -1560866 -1545373 -1537423 -1539038 -1550460 -1570234 -1595383 
3178.995 -1622437 -1648271 -1670783 -1689460 -1705168 -1719624 -1734249 
3179.417 -1749563 -1764493 -1776616 -1782544 -1779157 -1764550 -1738801 
3179.839 -1704063 -1664122 -1623685 -1586832 -1556416 -1533761 -1518876 
3180.261 -1511206 -1510237 -1515718 -1527239 -1543605 -1562429 -1579813 
3180.683 -1591455 -1593971 -1586101 -1569601 -1548913 -1530048 -1518121 
3181.105 -1516112 -1523605 -1537289 -1551899 -1562128 -1564401 -1557254 
3181.528 -1541552 -1519631 -1494588 -1469351 -1446375 -1427629 -1414196 
3181.950 -1406283 -1402844 -1401737 -1399841 -1393970 -1382227 -1364690 
3182.372 -1344080 -1325062 -1313748 -1315677 -1334622 -1371904 -1426045 
3182.794 -1493068 -1566859 -1640467 -1706159 -1756449 -1785721 -1790665 
3183.216 -1771746 -1733281 -1683417 -1632196 -1589359 -1562982 -1557171 
3183.638 -1571956 -1603687 -1646698 -1694355 -1740227 -1779386 -1807819 
3184.060 -1822970 -1823800 -1810959 -1786977 -1755908 -1722936 -1692717 
3184.482 -1668341 -1650558 -1637800 -1627074 -1615401 -1601336 -1585615 
3184.905 -1571093 -1561403 -1560057 -1568869 -1587532 -1613798 -1644522 
3185.327 -1676576 -1707485 -1735818 -1760812 -1781851 -1798146 -1808569 
3185.749 -1811966 -1807797 -1796512 -1779758 -1759984 -1739969 -1721920 
3186.171 -1706876 -1694629 -1684032 -1673716 -1662770 -1651311 -1640359 
3186.593 -1631316 -1625012 -1621211 -1618472 -1614810 -1608706 -1600119 
3187.015 -1590896 -1584318 -1583414 -1589270 -1599759 -1609942 -1613265 
3187.437 -1604386 -1582066 -1550451 -1518700 -1497578 -1496813 -1520591 
3187.859 -1566223 -1624227 -1681976 -1727693 -1753617 -1758674 -1747784 
3188.281 -1729747 -1713253 -1704777 -1706796 -1717990 -1734567 -1752140 
3188.704 -1767175 -1777223 -1781030 -1777929 -1767496 -1749448 -1723891 
3189.126 -1691461 -1653228 -1610517 -1564500 -1516163 -1466504 -1417214 
3189.548 -1370947 -1331859 -1304701 -1293713 -1301411 -1327254 -1367355 
3189.970 -1414809 -1461843 -1501144 -1527796 -1540573 -1541932 -1537276 
3190.392 -1532878 -1534766 -1546639 -1569109 -1599749 -1634197 -1667665 
3190.814 -1696298 -1718607 -1735449 -1749162 -1761833 -1773763 -1782328 
3191.236 -1782655 -1768571 -1735248 -1681358 -1610261 -1529693 -1449856 
3191.658 -1381846 -1334172 -1311793 -1315522 -1342590 -1387558 -1443408 
3192.081 -1503020 -1559047 -1605082 -1636673 -1651818 -1651853 -1641163 
3192.503 -1626583 -1615066 -1611695 -1618268 -1632614 -1649406 -1662078 
3192.925 -1665681 -1658222 -1641778 -1621431 -1603894 -1594863 -1596996 
3193.347 -1609140 -1626646 -1642886 -1650771 -1645489 -1625485 -1593036 
3193.769 -1553213 -1512493 -1476584 -1448475 -1427959 -1411900 -1396097 
3194.191 -1376941 -1353457 -1327909 -1305325 -1291316 -1290210 -1303360 
3194.613 -1328610 -1361113 -1395074 -1426106 -1451916 -1472500 -1489139 
3195.035 -1503113 -1514682 -1523205 -1527965 -1529309 -1529213 -1531199 
3195.458 -1538639 -1553539 -1575152 -1600218 -1623895 -1641775 -1651961 
3195.880 -1655441 -1655725 -1656867 -1661880 -1671112 -1682189 -1690865 
3196.302 -1693061 -1685989 -1668985 -1643256 -1611030 -1574621 -1535715 
3196.724 -1495754 -1456357 -1419789 -1389282 -1368183 -1358990 -1362407 
3197.146 -1376716 -1398096 -1421412 -1442074 -1456825 -1464361 -1465187 
3197.568 -1460785 -1452685 -1441754 -1428219 -1412095 -1393906 -1375512 
3197.990 -1360069 -1351626 -1354250 -1370421 -1400217 -1440789 -1487116 
3198.412 -1533061 -1573189 -1604635 -1627425 -1644283 -1659010 -1674991 
3198.834 -1693309 -1712371 -1728155 -1736105 -1732682 -1716805 -1690027 
3199.257 -1655776 -1617795 -1578673 -1539585 -1500619 -1461769 -1424086 
3199.679 -1390090 -1363222 -1347094 -1343849 -1353335 -1372883 -1398343 
3200.101 -1424878 -1448491 -1467058 -1480369 -1489988 -1498481 -1508832 
3200.523 -1523471 -1543605 -1568629 -1595798 -1620522 -1636750 -1639038 
3200.945 -1623819 -1591052 -1544475 -1491387 -1440702 -1400214 -1375631 
3201.367 -1368931 -1378873 -1401965 -1434147 -1471827 -1512026 -1552433 
3201.789 -1590637 -1623755 -1649103 -1664664 -1670027 -1666679 -1657664 
3202.211 -1646385 -1635247 -1625086 -1614906 -1602882 -1587104 -1566587 
3202.634 -1541517 -1512797 -1481471 -1448494 -1414863 -1382048 -1352805 
3203.056 -1331158 -1321363 -1327083 -1349577 -1387077 -1434833 -1486568 
3203.478 -1536086 -1578321 -1610568 -1631772 -1641900 -1641147 -1629813 
3203.900 -1608786 -1580184 -1548136 -1518281 -1496404 -1487295 -1492709 
3204.322 -1511021 -1537219 -1564775 -1586944 -1598206 -1595639 -1578852 
3204.744 -1550086 -1513542 -1475428 -1442936 -1422733 -1420139 -1436837 
3205.166 -1470063 -1512323 -1553673 -1584107 -1596476 -1589024 -1565350 
3205.588 -1532872 -1499089 -1469361 -1444744 -1422579 -1398558 -1369930 
3206.010 -1337867 -1308347 -1290300 -1292867 -1322382 -1379457 -1458559 
3206.433 -1548833 -1637720 -1712734 -1764525 -1788723 -1785804 -1760859 
3206.855 -1721865 -1679066 -1642193 -1618791 -1613080 -1624658 -1648829 
3207.277 -1677663 -1702945 -1717617 -1717910 -1704082 -1679576 -1649416 
3207.699 -1618054 -1588445 -1561301 -1535856 -1510928 -1486094 -1462169 
3208.121 -1441113 -1425138 -1416079 -1414591 -1420004 -1430399 -1443081 
3208.543 -1455361 -1464832 -1470155 -1471584 -1471033 -1471802 -1477608 
3208.965 -1491352 -1513456 -1541018 -1567750 -1586209 -1589564 -1574736 
3209.387 -1544037 -1505283 -1469592 -1447395 -1445920 -1466042 -1502472 
3209.810 -1545290 -1584126 -1611002 -1622472 -1619889 -1607716 -1590956 
3210.232 -1572685 -1553702 -1533032 -1509891 -1485470 -1463790 -1450852 
3210.654 -1453153 -1474745 -1515546 -1570435 -1630722 -1685954 -1726986 
3211.076 -1748812 -1750896 -1736964 -1712855 -1685208 -1659428 -1638779 
3211.498 -1624578 -1616301 -1612397 -1610807 -1609782 -1608058 -1605079 
3211.920 -1601001 -1596520 -1592627 -1590327 -1590595 -1594189 -1601659 
3212.342 -1613320 -1629037 -1647945 -1668188 -1687012 -1700944 -1706433 
3212.764 -1701001 -1683799 -1656070 -1620691 -1581618 -1542722 -1506870 
3213.187 -1476010 -1451285 -1433701 -1424708 -1425946 -1438593 -1462249 
3213.609 -1494054 -1528436 -1557679 -1574273 -1572177 -1548887 -1505952 
3214.031 -1448779 -1385097 -1322970 -1270354 -1233393 -1216414 -1222052 
3214.453 -1250756 -1300521 -1366311 -1440799 -1514378 -1577222 -1622108 
3214.875 -1645553 -1649524 -1640553 -1628718 -1624090 -1634006 -1661233 
3215.297 -1702887 -1751523 -1797091 -1830773 -1846539 -1842808 -1822259 
3215.719 -1791047 -1756927 -1727066 -1707150 -1699622 -1703416 -1714324 
3216.141 -1726502 -1733997 -1732122 -1718881 -1694759 -1662174 -1624013 
3216.563 -1582813 -1540084 -1496525 -1452996 -1411345 -1374703 -1347469 
3216.986 -1333751 -1336029 -1354125 -1384901 -1422964 -1462003 -1496935 
3217.408 -1524616 -1544356 -1557340 -1565625 -1570997 -1574203 -1574982 
3217.830 -1572522 -1566184 -1556119 -1543480 -1530364 -1519420 -1513101 
3218.252 -1513331 -1521020 -1535891 -1556461 -1580264 -1604469 -1626034 
3218.674 -1642503 -1652303 -1654794 -1650185 -1639236 -1622906 -1602186 
3219.096 -1578149 -1552219 -1526254 -1502735 -1484493 -1473996 -1473038 
3219.518 -1482015 -1499761 -1523567 -1549882 -1575046 -1595882 -1610759 
3219.940 -1620004 -1626015 -1632659 -1644701 -1666284 -1699427 -1743124 
3220.363 -1792796 -1841407 -1880126 -1901285 -1900251 -1876518 -1833749 
3220.785 -1778619 -1719146 -1662167 -1612994 -1574787 -1548673 -1534375 
3221.207 -1530444 -1534561 -1543423 -1553312 -1560847 -1563468 -1560444 
3221.629 -1552759 -1542677 -1532383 -1523071 -1514253 -1504278 -1491182 
3222.051 -1474226 -1454643 -1435695 -1421508 -1415399 -1418882 -1430909 
3222.473 -1448600 -1468240 -1486879 -1502857 -1515677 -1525454 -1532127 
3222.895 -1535146 -1533931 -1528483 -1519977 -1510458 -1502207 -1496339 
3223.317 -1492146 -1487241 -1479059 -1466609 -1451926 -1439866 -1436991 
3223.740 -1448904 -1477583 -1520227 -1569655 -1617077 -1654070 -1675600 
3224.162 -1680621 -1671121 -1650079 -1619819 -1581459 -1535546 -1483888 
3224.584 -1431156 -1384420 -1352429 -1342510 -1357436 -1394092 -1443651 
3225.006 -1494412 -1534247 -1555093 -1554636 -1536569 -1508518 -1479559 
3225.428 -1457392 -1445715 -1443914 -1447494 -1450369 -1446593 -1433054 
3225.850 -1410793 -1385212 -1364465 -1356774 -1367881 -1398186 -1442196 
3226.272 -1489277 -1527825 -1547928 -1545111 -1521673 -1485768 -1448311 
3226.694 -1418625 -1402488 -1400162 -1407820 -1419594 -1430605 -1438465 
3227.116 -1443436 -1447327 -1452064 -1458424 -1465876 -1473089 -1478733 
3227.539 -1482117 -1482796 -1480065 -1472375 -1457418 -1433131 -1399174 
3227.961 -1358094 -1315223 -1278015 -1254232 -1249300 -1265723 -1302466 
3228.383 -1356029 -1421155 -1492043 -1562832 -1627030 -1678285 -1711008 
3228.805 -1721662 -1710575 -1682677 -1647298 -1615012 -1595444 -1593984 
3229.227 -1610207 -1638336 -1669549 -1695549 -1710409 -1712326 -1702989 
3229.649 -1685915 -1664364 -1640343 -1614641 -1587698 -1560760 -1536406 
3230.071 -1517776 -1507686 -1507142 -1514883 -1527703 -1541872 -1554556 
3230.493 -1564417 -1571518 -1576219 -1577963 -1574691 -1563052 -1539649 
3230.916 -1502786 -1453563 -1396216 -1336743 -1281892 -1236910 -1204514 
3231.338 -1185112 -1177454 -1179889 -1191160 -1210718 -1238350 -1273266 
3231.760 -1313558 -1355714 -1394859 -1425962 -1444520 -1448205 -1437612 
3232.182 -1416861 -1392946 -1374161 -1368899 -1382645 -1416451 -1465962 
3232.604 -1522501 -1574439 -1610101 -1621626 -1606129 -1566996 -1512173 
3233.026 -1452705 -1399299 -1359738 -1338243 -1334818 -1346426 -1368058 
3233.448 -1394698 -1422002 -1446972 -1468310 -1486104 -1501602 -1516505 
3233.870 -1532594 -1550860 -1571112 -1591736 -1610082 -1623270 -1628897 
3234.292 -1626053 -1615631 -1600043 -1582366 -1565571 -1551838 -1542227 
3234.715 -1537126 -1536774 -1541792 -1553526 -1573579 -1603029 -1641504 
3235.137 -1686403 -1732759 -1773492 -1801427 -1810457 -1797469 -1763392 
3235.559 -1713470 -1656334 -1601387 -1557775 -1531494 -1524264 -1533541 
3235.981 -1553561 -1577174 -1597373 -1609594 -1611969 -1605382 -1592467 
3236.403 -1576625 -1560879 -1547042 -1535811 -1526938 -1519942 -1514586 
3236.825 -1511261 -1510941 -1514906 -1524091 -1538559 -1557059 -1577244 
3237.247 -1595901 -1609862 -1617134 -1617460 -1612687 -1606120 -1601959 
3237.669 -1603757 -1613364 -1630585 -1653157 -1677609 -1699998 -1717178 
3238.092 -1726922 -1727976 -1719901 -1702887 -1677892 -1646889 -1613275 
3238.514 -1581593 -1556650 -1542860 -1542662 -1556154 -1581011 -1613600 
3238.936 -1649968 -1686808 -1721977 -1753894 -1780731 -1799920 -1807984 
3239.358 -1801668 -1779570 -1743442 -1698723 -1653323 -1616199 -1593850 
3239.780 -1588692 -1598037 -1615366 -1632056 -1640234 -1635588 -1617913 
3240.202 -1591167 -1561470 -1535677 -1519145 -1514646 -1522431 -1540637 
3240.624 -1566184 -1595208 -1624093 -1649228 -1667365 -1676129 -1674150 
3241.046 -1661667 -1640588 -1614657 -1588621 -1566986 -1553411 -1549338 
3241.469 -1553878 -1564152 -1576609 -1588084 -1596935 -1603565 -1610047 
3241.891 -1619095 -1632656 -1651052 -1672428 -1693593 -1710903 -1721881 
3242.313 -1726094 -1725031 -1721174 -1716598 -1711693 -1704789 -1692777 
3242.735 -1672702 -1643808 -1608607 -1572943 -1543934 -1528285 -1529254 
3243.157 -1545380 -1570419 -1595402 -1611139 -1610465 -1590777 -1553993 
3243.579 -1505936 -1453967 -1405655 -1366998 -1341462 -1330538 -1334012 
3244.001 -1350701 -1378700 -1415498 -1458007 -1502184 -1543845 -1578970 
3244.423 -1604530 -1619391 -1624463 -1622516 -1617141 -1611947 -1609265 
3244.845 -1609524 -1611264 -1611794 -1608317 -1598807 -1583056 -1562649 
3245.268 -1540778 -1521135 -1507277 -1501916 -1506492 -1521430 -1546160 
3245.690 -1579420 -1618935 -1661281 -1701874 -1734589 -1753168 -1752344 
3246.112 -1729400 -1685517 -1626104 -1559891 -1496058 -1442856 -1405334 
3246.534 -1384535 -1378019 -1381059 -1388431 -1395565 -1400146 -1402353 
3246.956 -1404612 -1410604 -1424102 -1447859 -1482463 -1525940 -1573778 
3247.378 -1620199 -1658541 -1683028 -1689918 -1677666 -1647323 -1602071 
3247.800 -1547068 -1488480 -1433275 -1389002 -1362179 -1357892 -1378084 
3248.222 -1420501 -1478105 -1539979 -1594291 -1629963 -1640659 -1626343 
3248.645 -1593342 -1552020 -1513558 -1487023 -1476193 -1479504 -1490980 
3249.067 -1503465 -1510474 -1508486 -1497418 -1479780 -1459270 -1439382 
3249.489 -1423256 -1413439 -1412352 -1422618 -1446180 -1483398 -1531548 
3249.911 -1584730 -1633853 -1668593 -1680736 -1665752 -1624926 -1564599 
3250.333 -1495158 -1427520 -1370325 -1328970 -1304665 -1295832 -1299717 
3250.755 -1314124 -1337851 -1370254 -1410187 -1454605 -1498164 -1534577 
3251.177 -1557625 -1564072 -1555026 -1536361 -1516957 -1506192 -1511402 
3251.599 -1535073 -1574602 -1623040 -1671985 -1713320 -1741571 -1754849 
3252.021 -1754257 -1743003 -1725040 -1704640 -1685715 -1671711 -1665487 
3252.444 -1668363 -1679525 -1695345 -1710250 -1717642 -1712186 -1692025 
3252.866 -1659581 -1621077 -1583999 -1555080 -1537286 -1529309 -1526459 
3253.288 -1523461 -1516918 -1507161 -1497934 -1494950 -1503081 -1523877 
3253.710 -1554936 -1590487 -1624039 -1649945 -1665557 -1671242 -1669438 
3254.132 -1663025 -1654105 -1643728 -1632136 -1619519 -1606570 -1594141 
3254.554 -1582705 -1571665 -1559440 -1544110 -1524939 -1503509 -1484269 
3254.976 -1473269 -1476132 -1496058 -1531893 -1577922 -1624945 -1663759 
3255.398 -1687095 -1692133 -1680624 -1657859 -1630575 -1604843 -1585810 
3255.821 -1577008 -1580500 -1597060 -1625549 -1662534 -1701779 -1735777 
3256.243 -1756650 -1758527 -1739607 -1702496 -1653489 -1599925 -1548468 
3256.665 -1502725 -1463089 -1427966 -1395741 -1366639 -1343480 -1330522 
3257.087 -1331949 -1349673 -1382112 -1424189 -1468736 -1509082 -1540138 
3257.509 -1559782 -1568402 -1567926 -1560537 -1547963 -1531714 -1513213 
3257.931 -1494393 -1477634 -1465065 -1457854 -1455646 -1456905 -1459449 
3258.353 -1461868 -1464341 -1468768 -1477913 -1493948 -1517363 -1546460 
3258.775 -1577947 -1608112 -1634484 -1656337 -1674513 -1690193 -1703611 
3259.198 -1713015 -1714926 -1704876 -1679321 -1637098 -1579995 -1512310 
3259.620 -1439587 -1367535 -1300379 -1241006 -1191308 -1152706 -1126966 
3260.042 -1116033 -1121458 -1143758 -1181610 -1231857 -1289329 -1347874 
3260.464 -1401266 -1443517 -1470537 -1480609 -1475296 -1459331 -1440504 
3260.886 -1427969 -1429293 -1448760 -1484990 -1531129 -1575807 -1607145 
3261.308 -1616736 -1602205 -1568680 -1527284 -1492178 -1474797 -1481131 
3261.730 -1509331 -1551221 -1594454 -1627017 -1641300 -1635177 -1612665 
3262.152 -1581702 -1552283 -1532776 -1528090 -1538578 -1560201 -1585615 
3262.574 -1606190 -1615299 -1609833 -1592049 -1568824 -1550604 -1547653 
3262.997 -1566523 -1608000 -1666054 -1729692 -1785295 -1821862 -1833432 
3263.419 -1820784 -1790366 -1752268 -1716824 -1691149 -1678470 -1677523 
3263.841 -1684118 -1692452 -1697222 -1694832 -1683755 -1664731 -1640378 
3264.263 -1614613 -1591349 -1573857 -1563736 -1560457 -1561623 -1563912 
3264.685 -1564490 -1562004 -1557295 -1552842 -1552014 -1557394 -1569872 
3265.107 -1588455 -1610759 -1633872 -1655132 -1672757 -1685488 -1692398 
3265.529 -1692812 -1686454 -1674105 -1657923 -1641514 -1628737 -1622309 
3265.951 -1622561 -1626940 -1630735 -1628686 -1617511 -1596996 -1570285 
3266.374 -1542163 -1517446 -1498804 -1486178 -1477608 -1470956 -1465648 
3266.796 -1463374 -1467324 -1480555 -1504150 -1536186 -1571940 -1605328 
3267.218 -1631379 -1647103 -1652102 -1647601 -1635164 -1615420 -1588107 
3267.640 -1552874 -1510586 -1464370 -1419738 -1382924 -1359575 -1352975 
3268.062 -1363091 -1386952 -1419719 -1456402 -1492453 -1524517 -1550326 
3268.484 -1568230 -1577299 -1577519 -1570454 -1559223 -1548427 -1543375 
3268.906 -1548273 -1565398 -1594122 -1631086 -1670455 -1705283 -1729275 
3269.328 -1737283 -1727056 -1699781 -1660436 -1616892 -1578730 -1555556 
3269.750 -1553833 -1575877 -1618836 -1676209 -1739129 -1799268 -1851070 
3270.173 -1891671 -1920652 -1938299 -1944306 -1937313 -1915754 -1879421 
3270.595 -1830881 -1775916 -1722633 -1678638 -1649444 -1636788 -1638929 
3271.017 -1652009 -1672246 -1697583 -1727674 -1762982 -1803073 -1845164 
3271.439 -1884292 -1914248 -1929343 -1926525 -1905724 -1869580 -1821792 
3271.861 -1766357 -1706876 -1646768 -1590646 -1544404 -1514442 -1506326 
3272.283 -1521977 -1558082 -1605551 -1652341 -1685890 -1697159 -1683723 
3272.705 -1649923 -1605427 -1561185 -1527086 -1508502 -1505615 -1514166 
3273.127 -1527780 -1540254 -1547189 -1547327 -1542166 -1535185 -1530150 
3273.550 -1530275 -1537091 -1550147 -1567348 -1585826 -1603326 -1618913 
3273.972 -1633604 -1649799 -1670295 -1696493 -1727381 -1759027 -1785985 
3274.394 -1802686 -1805750 -1795552 -1776409 -1755234 -1738791 -1731966 
3274.816 -1735512 -1746043 -1756828 -1760497 -1751259 -1726470 -1687315 
3275.238 -1638132 -1585011 -1533608 -1488480 -1452109 -1424750 -1405039 
3275.660 -1390767 -1379839 -1370851 -1363624 -1358987 -1358364 -1362921 
3276.082 -1372944 -1387594 -1405269 -1424131 -1442946 -1461541 -1480619 
3276.504 -1501144 -1523419 -1546473 -1568086 -1585420 -1595926 -1598551 
3276.927 -1594090 -1585082 -1574701 -1566095 -1561451 -1561623 -1566552 
3277.349 -1575516 -1587647 -1601844 -1616761 -1630751 -1641938 -1648909 
3277.771 -1651231 -1649888 -1646880 -1644487 -1644053 -1645109 -1645189 
3278.193 -1640592 -1627952 -1605388 -1573662 -1536077 -1497809 -1464140 
3278.615 -1439196 -1425343 -1422954 -1431041 -1447975 -1472164 -1502130 
3279.037 -1536416 -1573471 -1611369 -1647961 -1681204 -1709081 -1729893 
3279.459 -1742242 -1744856 -1736920 -1718222 -1689651 -1653237 -1612247 
3279.881 -1570707 -1532389 -1500616 -1477612 -1464431 -1461141 -1466895 
3280.303 -1480014 -1497716 -1516557 -1532763 -1542895 -1545201 -1540004 
3280.726 -1529888 -1518537 -1509776 -1505891 -1507046 -1511581 -1517251 
3281.148 -1522690 -1528250 -1535760 -1547132 -1562662 -1579935 -1593796 
3281.570 -1598082 -1588519 -1564714 -1531378 -1496733 -1470908 -1461929 
3281.992 -1473179 -1502677 -1543902 -1588372 -1627515 -1655397 -1669039 
3282.414 -1668134 -1654185 -1629918 -1598995 -1565600 -1534782 -1511411 
3282.836 -1498715 -1497300 -1504332 -1514342 -1520610 -1518093 -1505065 
3283.258 -1483776 -1459068 -1436301 -1418821 -1406489 -1396123 -1383511 
3283.680 -1366321 -1345873 -1327604 -1318997 -1327325 -1355946 -1402892 
3284.103 -1460606 -1518851 -1567214 -1598194 -1609415 -1603201 -1585206 
3284.525 -1561569 -1537654 -1516531 -1499236 -1485838 -1476488 -1472065 
3284.947 -1474236 -1484705 -1504242 -1531708 -1563842 -1595284 -1619446 
3285.369 -1630620 -1624866 -1601889 -1565405 -1523295 -1485643 -1462217 
3285.791 -1460648 -1483488 -1527658 -1584647 -1643425 -1692611 -1723582 
3286.213 -1732857 -1722025 -1696805 -1664253 -1631169 -1601901 -1577887 
3286.635 -1558459 -1541952 -1526916 -1512643 -1499220 -1487036 -1476292 
3287.057 -1466952 -1459039 -1453182 -1450804 -1453858 -1463739 -1480106 
3287.479 -1499717 -1516608 -1523397 -1512691 -1480190 -1426052 -1355856 
3287.902 -1278954 -1207308 -1152780 -1124061 -1126492 -1161221 -1226040 
3288.324 -1316069 -1424769 -1544670 -1666788 -1781819 -1880462 -1953959 
3288.746 -1996312 -2004954 -1981851 -1933153 -1868930 -1801290 -1741332 
3289.168 -1698255 -1676646 -1675964 -1690655 -1711928 -1729928 -1735599 
3289.590 -1723649 -1693137 -1647620 -1593323 -1537721 -1487484 -1446981 
3290.012 -1418882 -1404602 -1405330 -1422598 -1457633 -1509968 -1575692 
3290.434 -1646953 -1712241 -1758171 -1773982 -1753920 -1699918 -1620936 
3290.856 -1531653 -1448071 -1382783 -1343358 -1330326 -1338741 -1360066 
3291.279 -1385796 -1409484 -1427620 -1439805 -1447609 -1453301 -1458632 
3291.701 -1464556 -1471219 -1478505 -1486716 -1496980 -1511190 -1531842 
3292.123 -1560939 -1599139 -1644717 -1693408 -1738616 -1772522 -1788707 
3292.545 -1783670 -1758648 -1719254 -1674609 -1634334 -1605567 -1591953 
3292.967 -1592847 -1604619 -1622267 -1641504 -1659533 -1674972 -1687229 
3293.389 -1695610 -1699061 -1696744 -1689166 -1679056 -1671060 -1670971 
3293.811 -1683028 -1707794 -1741001 -1774593 -1799024 -1806255 -1793193 
3294.233 -1762278 -1720831 -1677507 -1639810 -1611193 -1590563 -1573484 
3294.656 -1555070 -1532846 -1508253 -1486578 -1474995 -1480206 -1505260 
3295.078 -1548372 -1602713 -1658898 -1706596 -1737642 -1748385 -1740163 
3295.500 -1719041 -1693593 -1673499 -1666214 -1675196 -1699223 -1732787 
3295.922 -1767627 -1794799 -1807921 -1804339 -1786128 -1758677 -1729164 
3296.344 -1703486 -1684086 -1669319 -1654165 -1632726 -1600528 -1557279 
3296.766 -1507478 -1459975 -1424583 -1409574 -1418625 -1449375 -1493702 
3297.188 -1539972 -1577069 -1596361 -1594735 -1574672 -1543282 -1509312 
3297.610 -1480276 -1460760 -1451083 -1448215 -1447378 -1444750 -1438625 
3298.032 -1430464 -1424022 -1424263 -1435375 -1459273 -1495257 -1540167 
3298.455 -1589579 -1638514 -1682904 -1719849 -1747663 -1765797 -1774580 
3298.877 -1774971 -1768403 -1756758 -1742093 -1726180 -1710399 -1695476 
3299.299 -1681456 -1668188 -1655610 -1644117 -1634500 -1627594 -1623809 
3299.721 -1622708 -1623085 -1623314 -1622098 -1619251 -1615880 -1614009 
3300.143 -1615688 -1622034 -1632410 -1644557 -1655151 -1661482 -1662352 
3300.565 -1658943 -1654264 -1652338 -1656653 -1668730 -1687783 -1710896 
3300.987 -1734386 -1754549 -1769087 -1777347 -1780175 -1779325 -1776810 
3301.409 -1774571 -1774087 -1776374 -1781851 -1790252 -1800397 -1810428 
3301.832 -1818398 -1822732 -1823209 -1821023 -1818541 -1817995 -1820184 
3302.254 -1823371 -1823526 -1815141 -1793447 -1756834 -1708230 -1655301 
3302.676 -1608138 -1577698 -1572042 -1594122 -1641265 -1705745 -1776940 
3303.098 -1842623 -1892419 -1918493 -1916679 -1887087 -1834181 -1766586 
3303.520 -1695285 -1633020 -1590994 -1575861 -1588244 -1621648 -1664355 
3303.942 -1701406 -1720104 -1712964 -1680019 -1628313 -1569988 -1518476 
3304.364 -1483744 -1470902 -1478893 -1502101 -1532239 -1561595 -1585098 
3304.786 -1600662 -1609105 -1612556 -1613169 -1611810 -1607866 -1599685 
3305.208 -1585701 -1565299 -1539579 -1511168 -1483818 -1461282 -1446215 
3305.631 -1440036 -1442795 -1453932 -1472798 -1499080 -1532434 -1571448 
3306.053 -1613061 -1651763 -1680287 -1691945 -1682189 -1651164 -1603916 
3306.475 -1549961 -1499854 -1461897 -1440071 -1432749 -1434195 -1437218 
3306.897 -1436875 -1432137 -1426206 -1424243 -1430746 -1446507 -1467785 
3307.319 -1486889 -1495379 -1487465 -1462054 -1423640 -1380693 -1343448 
3307.741 -1320013 -1315053 -1328944 -1358730 -1399530 -1446215 -1494755 
3308.163 -1541846 -1584877 -1621326 -1648239 -1662706 -1662349 -1646015 
3308.585 -1614568 -1570988 -1520511 -1469271 -1423862 -1389859 -1370386 
3309.008 -1365688 -1372877 -1386955 -1401677 -1411621 -1413459 -1406148 
3309.430 -1390803 -1369657 -1345121 -1318942 -1292532 -1267548 -1246322 
3309.852 -1232215 -1228698 -1237786 -1258758 -1287521 -1317695 -1342114 
3310.274 -1356167 -1359469 -1356598 -1355278 -1364054 -1389198 -1432092 
3310.696 -1488781 -1550694 -1607748 -1649760 -1669438 -1663749 -1633757 
3311.118 -1584392 -1523356 -1460721 -1406607 -1370254 -1358274 -1372617 
3311.540 -1409930 -1461567 -1516201 -1561505 -1588295 -1593176 -1579063 
3311.962 -1554086 -1528368 -1511366 -1508048 -1517958 -1535226 -1551084 
3312.385 -1555921 -1542287 -1507571 -1454554 -1391383 -1329127 -1280483 
3312.807 -1256006 -1261739 -1298170 -1359986 -1437596 -1518572 -1591560 
3313.229 -1647495 -1681103 -1691458 -1681163 -1655368 -1620183 -1582385 
3313.651 -1548184 -1522265 -1507558 -1504031 -1508723 -1515712 -1518105 
3314.073 -1509514 -1486120 -1448218 -1400323 -1350171 -1306013 -1275412 
3314.495 -1262933 -1269675 -1293777 -1331354 -1377708 -1427485 -1475517 
3314.917 -1516966 -1547739 -1565868 -1572356 -1571803 -1571141 -1578407 
3315.339 -1599625 -1636290 -1684306 -1734529 -1775560 -1795965 -1788462 
3315.761 -1751447 -1689431 -1611264 -1528365 -1452477 -1392776 -1355750 
3316.184 -1344260 -1357606 -1391926 -1440917 -1497316 -1553242 -1602250 
3316.606 -1640129 -1664878 -1676662 -1676710 -1666593 -1647473 -1620496 
3317.028 -1587586 -1551944 -1518825 -1494758 -1485688 -1495875 -1525896 
3317.450 -1572464 -1628871 -1687308 -1740752 -1784283 -1816212 -1837173 
3317.872 -1849152 -1853947 -1852645 -1845427 -1832298 -1813845 -1791956 
3318.294 -1769583 -1750527 -1738091 -1734274 -1739320 -1751806 -1769309 
3318.716 -1789327 -1810219 -1831383 -1853007 -1875217 -1897168 -1916369 
3319.138 -1928836 -1929524 -1913950 -1879551 -1826726 -1759097 -1682983 
3319.561 -1606500 -1537254 -1481941 -1445369 -1430169 -1437241 -1465716 
3319.983 -1513101 -1574781 -1644490 -1715034 -1778848 -1830220 -1866187 
3320.405 -1886820 -1894535 -1892594 -1883330 -1867019 -1842210 -1807002 
3320.827 -1761018 -1706921 -1650478 -1598970 -1559527 -1536080 -1528448 
3321.249 -1532456 -1542118 -1551470 -1556576 -1556384 -1551870 -1544711 
3321.671 -1535910 -1525361 -1512243 -1496099 -1477692 -1459126 -1443196 
3322.093 -1432422 -1427924 -1429293 -1435208 -1444459 -1456742 -1472849 
3322.515 -1493958 -1520790 -1552813 -1588235 -1624518 -1659390 -1691378 
3322.938 -1719512 -1742637 -1758514 -1763583 -1754238 -1728339 -1687315 
3323.360 -1636581 -1585171 -1542946 -1516937 -1509712 -1518358 -1536560 
3323.782 -1557110 -1575535 -1591339 -1607295 -1626698 -1650612 -1675671 
3324.204 -1694947 -1699893 -1684392 -1647846 -1596127 -1539892 -1490593 
3324.626 -1457988 -1446593 -1455611 -1480010 -1513331 -1549466 -1583848 
3325.048 -1613878 -1637825 -1654191 -1661644 -1659338 -1647872 -1629627 
3325.470 -1608981 -1590921 -1579801 -1578216 -1586040 -1600541 -1616758 
3325.892 -1629021 -1631692 -1620378 -1593128 -1550969 -1498414 -1442481 
3326.314 -1392259 -1356203 -1339708 -1343946 -1365216 -1396357 -1428716 
3326.737 -1455717 -1474185 -1484974 -1491432 -1497335 -1504451 -1511632 
3327.159 -1515293 -1511482 -1498375 -1477602 -1454400 -1435885 -1429181 
3327.581 -1438494 -1464149 -1502597 -1547992 -1593528 -1633080 -1662582 
3328.003 -1679863 -1684908 -1679601 -1667585 -1653598 -1642452 -1638230 
3328.425 -1642732 -1655004 -1671596 -1688198 -1701151 -1709195 -1713839 
3328.847 -1718592 -1726890 -1739960 -1755759 -1769449 -1775607 -1770276 
3329.269 -1753308 -1728524 -1702725 -1682515 -1672202 -1672176 -1679247 
3329.691 -1688051 -1693590 -1693115 -1686534 -1675776 -1663111 -1650153 
3330.114 -1637283 -1624138 -1611024 -1599641 -1593141 -1595364 -1608815 
3330.536 -1633492 -1666214 -1701680 -1733602 -1756958 -1769386 -1771116 
3330.958 -1764315 -1751463 -1734281 -1713002 -1686977 -1655550 -1619174 
3331.380 -1580110 -1542198 -1509658 -1486293 -1474166 -1472945 -1480026 
3331.802 -1491060 -1501205 -1505612 -1501032 -1486290 -1462797 -1434121 
3332.224 -1405456 -1382372 -1368967 -1367249 -1376488 -1393951 -1415890 
3332.646 -1439151 -1462323 -1485665 -1510432 -1537481 -1565929 -1592684 
3333.068 -1612956 -1621645 -1615570 -1594684 -1562739 -1525915 -1491768 
3333.490 -1466789 -1454800 -1456780 -1471081 -1494614 -1523695 -1555201 
3333.913 -1586590 -1615564 -1639976 -1657479 -1665806 -1663628 -1650950 
3334.335 -1629879 -1604201 -1579197 -1560211 -1551375 -1554805 -1569815 
3334.757 -1593058 -1618922 -1641230 -1654191 -1653626 -1638144 -1609019 
3335.179 -1570023 -1525979 -1482306 -1443587 -1412862 -1391839 -1380828 
3335.601 -1379114 -1385206 -1397015 -1411951 -1427004 -1439507 -1447705 
3336.023 -1451484 -1452567 -1454352 -1460756 -1474752 -1497303 -1526695 
3336.445 -1558942 -1588500 -1610363 -1621310 -1620671 -1610197 -1593291 
3336.867 -1573845 -1554910 -1538674 -1526439 -1519036 -1517491 -1523080 
3337.290 -1537030 -1560220 -1592668 -1633399 -1680542 -1731915 -1785085 
3337.712 -1837348 -1885868 -1926921 -1956059 -1968968 -1962071 -1934138 
3338.134 -1887087 -1826138 -1758498 -1691592 -1631986 -1583864 -1549316 
3338.556 -1528918 -1522482 -1529424 -1548593 -1577778 -1612700 -1647017 
3338.978 -1673503 -1685033 -1677434 -1651036 -1611465 -1568070 -1531404 
3339.400 -1510291 -1508361 -1523291 -1547336 -1570854 -1584887 -1584896 
3339.822 -1572237 -1553744 -1539169 -1537404 -1554156 -1589477 -1638339 
3340.244 -1691761 -1740437 -1776514 -1795196 -1795342 -1778451 -1747459 
3340.667 -1705372 -1655058 -1599235 -1540941 -1484474 -1435019 -1397961 
3341.089 -1377968 -1377236 -1394698 -1425580 -1462893 -1498276 -1524325 
3341.511 -1536800 -1535015 -1522105 -1503241 -1484314 -1469531 -1460302 
3341.933 -1455348 -1451686 -1446424 -1438250 -1428437 -1420408 -1418288 
3342.355 -1424635 -1438994 -1457267 -1473221 -1480084 -1473724 -1454288 
3342.777 -1426533 -1398112 -1376790 -1368254 -1373907 -1391172 -1414889 
3343.199 -1440206 -1464111 -1486559 -1509782 -1536649 -1568741 -1605321 
3343.621 -1643460 -1679407 -1710345 -1735264 -1755043 -1771218 -1784344 
3344.043 -1792735 -1792401 -1778308 -1746924 -1698258 -1637302 -1572915 
3344.466 -1516726 -1479213 -1466702 -1479959 -1513728 -1558293 -1601461 
3344.888 -1632685 -1644506 -1634302 -1604351 -1560911 -1512582 -1467654 
3345.310 -1433381 -1414110 -1410893 -1421797 -1442747 -1468656 -1494067 
3345.732 -1514506 -1526545 -1528013 -1518185 -1497613 -1468125 -1432387 
3346.154 -1393922 -1356398 -1322995 -1296543 -1279167 -1272597 -1278639 
3346.576 -1299022 -1335146 -1387253 -1453486 -1529194 -1606854 -1677975 
3346.998 -1733841 -1768158 -1778502 -1766516 -1737229 -1697203 -1653384 
3347.420 -1611059 -1573659 -1543026 -1519657 -1503317 -1492943 -1486655 
3347.843 -1481551 -1474204 -1461868 -1443488 -1420947 -1398818 -1383938 
3348.265 -1383055 -1400753 -1438218 -1492674 -1558168 -1627010 -1692264 
3348.687 -1748331 -1791727 -1820950 -1835518 -1835611 -1821735 -1795059 
3349.109 -1757728 -1712979 -1665289 -1619465 -1580085 -1550853 -1533777 
3349.531 -1528947 -1534247 -1545795 -1557935 -1564420 -1559980 -1541373 
3349.953 -1508861 -1466344 -1420976 -1380748 -1352438 -1339901 -1342892 
3350.375 -1357767 -1378976 -1401670 -1422756 -1441664 -1459549 -1477990 
3350.797 -1497463 -1516976 -1534273 -1547237 -1555147 -1559338 -1562819 
3351.219 -1569141 -1580957 -1598596 -1619870 -1640547 -1656050 -1662406 
3351.642 -1657738 -1642512 -1619356 -1592029 -1564267 -1539013 -1517430 
3352.064 -1498929 -1481586 -1463416 -1443526 -1423467 -1407351 -1401644 
3352.486 -1413205 -1446629 -1502540 -1576254 -1658924 -1738843 -1805594 
3352.908 -1852394 -1877222 -1882664 -1874058 -1857239 -1836322 -1813768 
3353.330 -1790977 -1769465 -1752080 -1742487 -1743729 -1756405 -1777242 
3353.752 -1799367 -1813476 -1811569 -1789164 -1747004 -1690492 -1628089 
3354.174 -1568425 -1517507 -1478508 -1451660 -1435830 -1429749 -1432730 
3354.596 -1444468 -1464024 -1489191 -1516281 -1540679 -1558417 -1567079 
3355.019 -1566514 -1558382 -1545351 -1529779 -1512787 -1494278 -1473224 
3355.441 -1448555 -1419783 -1387478 -1353232 -1319736 -1290236 -1268487 
3355.863 -1258472 -1263454 -1285520 -1324561 -1378023 -1440757 -1506272 
3356.285 -1568441 -1622437 -1666026 -1699434 -1724359 -1742646 -1755406 
3356.707 -1762590 -1763545 -1757993 -1747096 -1733618 -1721837 -1716248 
3357.129 -1720104 -1734828 -1759568 -1791737 -1827666 -1863654 -1896416 
3357.551 -1923105 -1941708 -1950639 -1948878 -1935998 -1912291 -1878714 
3357.973 -1836843 -1788936 -1737782 -1686543 -1639041 -1599075 -1569984 
3358.396 -1554082 -1551739 -1561166 -1578446 -1598657 -1616541 -1627808 
3358.818 -1630084 -1622826 -1607193 -1585225 -1559418 -1531986 -1504758 
3359.240 -1479306 -1456816 -1438157 -1423852 -1413991 -1408452 -1407310 
3359.662 -1411050 -1420796 -1437862 -1462983 -1495382 -1532274 -1569080 
3360.084 -1600049 -1620419 -1627770 -1623110 -1610526 -1596271 -1586829 
3360.506 -1586478 -1596584 -1614807 -1636396 -1655077 -1665311 -1663679 
3360.928 -1649371 -1624317 -1592339 -1558561 -1528000 -1505212 -1493897 
3361.350 -1496288 -1513178 -1543614 -1584976 -1632621 -1680500 -1722120 
3361.772 -1750925 -1762221 -1754257 -1728947 -1691617 -1650162 -1613284 
3362.195 -1587493 -1576040 -1577797 -1588331 -1601292 -1611021 -1614479 
3362.617 -1611503 -1604124 -1594645 -1583954 -1570579 -1551244 -1522744 
3363.039 -1484484 -1439818 -1396161 -1362179 -1345857 -1351189 -1377028 
3363.461 -1417317 -1463454 -1507357 -1543042 -1568386 -1584197 -1592553 
3363.883 -1594968 -1591576 -1581424 -1563723 -1539240 -1511011 -1483594 
3364.305 -1462147 -1450288 -1448866 -1455739 -1466558 -1476203 -1479844 
3364.727 -1474371 -1458472 -1432653 -1398943 -1360943 -1323693 -1292828 
3365.149 -1274537 -1273748 -1292802 -1330622 -1382414 -1440978 -1497796 
3365.572 -1545795 -1580487 -1600433 -1606640 -1601330 -1586679 -1563931 
3365.994 -1533713 -1496439 -1453060 -1405507 -1356572 -1309427 -1267622 
3366.416 -1234569 -1213576 -1207933 -1220116 -1251061 -1298868 -1358550 
3366.838 -1421588 -1477727 -1518227 -1537769 -1536969 -1521817 -1502172 
3367.260 -1487619 -1484413 -1494003 -1512941 -1534772 -1552375 -1560885 
3367.682 -1558449 -1546214 -1526954 -1503762 -1478848 -1453342 -1427995 
3368.104 -1403880 -1382779 -1367249 -1359713 -1361851 -1374248 -1396476 
3368.526 -1427578 -1466469 -1512067 -1562589 -1614791 -1663762 -1702639 
3368.948 -1724349 -1723741 -1699086 -1653393 -1593917 -1531346 -1476539 
3369.371 -1439372 -1426972 -1442366 -1484663 -1549156 -1628488 -1712820 
3369.793 -1791552 -1855147 -1895636 -1908927 -1895249 -1859328 -1808779 
3370.215 -1752513 -1698857 -1653135 -1617629 -1591566 -1572480 -1557295 
3370.637 -1543666 -1530547 -1518083 -1507232 -1499236 -1495158 -1495619 
3371.059 -1500680 -1509917 -1522485 -1537394 -1553692 -1570844 -1588720 
3371.481 -1607557 -1627534 -1648271 -1668417 -1685657 -1696894 -1699268 
3371.903 -1690814 -1671003 -1640792 -1602355 -1558593 -1512630 -1468214 
3372.325 -1429983 -1403130 -1393559 -1405937 -1441805 -1497738 -1564829 
3372.748 -1630164 -1678683 -1698653 -1684465 -1638859 -1571697 -1497738 
3373.170 -1432067 -1384946 -1360692 -1356810 -1366652 -1382057 -1397108 
3373.592 -1409873 -1422509 -1439946 -1467740 -1510211 -1568767 -1641354 
3374.014 -1722572 -1805016 -1879615 -1937500 -1971983 -1979132 -1959186 
3374.436 -1916229 -1857512 -1791142 -1724197 -1661791 -1606190 -1558027 
3374.858 -1517712 -1486543 -1467164 -1462387 -1473278 -1497345 -1527620 
3375.280 -1554217 -1565980 -1554965 -1519091 -1463569 -1399334 -1340383 
3375.702 -1300125 -1286736 -1302119 -1341449 -1395905 -1454733 -1508790 
3376.125 -1552957 -1586066 -1610612 -1630850 -1651260 -1674456 -1700542 
3376.547 -1726906 -1749375 -1763236 -1765126 -1754324 -1733275 -1707166 
3376.969 -1681960 -1663181 -1653598 -1652510 -1655945 -1658411 -1654909 
3377.391 -1642822 -1623180 -1600381 -1580877 -1570499 -1572896 -1588030 
3377.813 -1612343 -1639421 -1661973 -1673882 -1670917 -1651837 -1618162 
3378.235 -1573810 -1523912 -1474246 -1430659 -1397836 -1379413 -1377381 
3378.657 -1392009 -1421883 -1464130 -1514938 -1569514 -1622880 -1670455 
3379.079 -1708144 -1733430 -1745556 -1745909 -1737601 -1725066 -1713081 
3379.501 -1705417 -1704379 -1710246 -1721547 -1735458 -1748783 -1758782 
3379.924 -1763360 -1761486 -1753035 -1738616 -1719369 -1696834 -1672942 
3380.346 -1649645 -1629015 -1613087 -1603511 -1601844 -1609348 -1626797 
3380.768 -1654255 -1690620 -1733300 -1777923 -1819212 -1851648 -1870716 
3381.190 -1874287 -1862943 -1839755 -1808839 -1774297 -1738811 -1703333 
3381.612 -1667744 -1632078 -1597539 -1567079 -1544360 -1532274 -1531148 
3382.034 -1537871 -1546265 -1548941 -1540717 -1520492 -1492623 -1465232 
3382.456 -1448026 -1447859 -1465783 -1496071 -1528000 -1549543 -1550956 
3382.878 -1529158 -1488432 -1439600 -1395481 -1368103 -1364712 -1386178 
3383.301 -1427671 -1480689 -1536227 -1586104 -1624964 -1650283 -1661740 
3383.723 -1660649 -1649547 -1632043 -1612183 -1594355 -1582350 -1578161 
3384.145 -1581641 -1590423 -1600943 -1609444 -1613792 -1613920 -1611832 
3384.567 -1610232 -1611091 -1614491 -1618453 -1619608 -1614846 -1603163 
3384.989 -1586628 -1570579 -1561815 -1567332 -1591496 -1634500 -1691557 
3385.411 -1753760 -1809821 -1847666 -1858401 -1837809 -1787950 -1716324 
3385.833 -1634507 -1554933 -1487116 -1436692 -1404278 -1386875 -1379884 
3386.255 -1379910 -1386464 -1402424 -1432502 -1480971 -1548862 -1632477 
3386.677 -1722881 -1807568 -1874379 -1913350 -1919945 -1895677 -1847438 
3387.100 -1784951 -1717970 -1655087 -1601774 -1560709 -1532274 -1515101 
3387.522 -1506758 -1504073 -1504006 -1504002 -1502716 -1500264 -1498094 
3387.944 -1498126 -1501647 -1508547 -1517065 -1524405 -1527815 -1526103 
3388.366 -1520131 -1512723 -1507152 -1505731 -1508272 -1511942 -1511552 
3388.788 -1501580 -1478259 -1440728 -1391775 -1337189 -1284932 -1242942 
3389.210 -1218293 -1216440 -1240227 -1289892 -1362529 -1452384 -1550511 
3389.632 -1645967 -1728187 -1787883 -1819892 -1824025 -1804981 -1770598 
3390.054 -1729737 -1690352 -1657100 -1631201 -1610766 -1592457 -1572685 
3390.477 -1549165 -1521497 -1491083 -1460455 -1432349 -1409315 -1393200 
3390.899 -1385074 -1385649 -1395276 -1414042 -1441501 -1476318 -1515773 
3391.321 -1555540 -1590432 -1614616 -1623180 -1613486 -1585701 -1543176 
3391.743 -1491413 -1437202 -1386345 -1342786 -1308151 -1282081 -1263248 
3392.165 -1250402 -1243138 -1241641 -1246194 -1256309 -1270248 -1285234 
3392.587 -1298427 -1307797 -1313182 -1316281 -1320022 -1326923 -1338031 
3393.009 -1352281 -1366738 -1377698 -1382494 -1380722 -1374864 -1369631 
3393.431 -1370450 -1382266 -1407720 -1446532 -1495418 -1549028 -1600886 
3393.854 -1644452 -1674822 -1689071 -1687021 -1671201 -1646813 -1620687 
3394.276 -1599570 -1589279 -1592640 -1608971 -1633942 -1660828 -1681638 
3394.698 -1688535 -1676168 -1642423 -1589465 -1523240 -1453105 -1389680 
3395.120 -1341999 -1316419 -1314355 -1332273 -1362349 -1395378 -1423240 
3395.542 -1441148 -1449202 -1451679 -1455329 -1466023 -1487071 -1517747 
3395.964 -1554166 -1590723 -1622548 -1647291 -1665050 -1677593 -1686715 
3396.386 -1693007 -1695572 -1693032 -1685135 -1674060 -1664798 -1663899 
3396.808 -1676566 -1704891 -1745874 -1792481 -1834842 -1864054 -1874852 
3397.230 -1866610 -1843160 -1810880 -1776692 -1745521 -1720146 -1701390 
3397.653 -1689154 -1683417 -1684500 -1692567 -1706796 -1724776 -1742720 
3398.075 -1756004 -1760691 -1754546 -1737397 -1710919 -1677947 -1641785 
3398.497 -1605258 -1570972 -1541322 -1518377 -1504041 -1499380 -1504198 
3398.919 -1516928 -1535050 -1555949 -1577797 -1600362 -1624910 -1653432 
3399.341 -1687331 -1726314 -1767970 -1808645 -1844183 -1871545 -1889618 
3399.763 -1898763 -1899924 -1893298 -1877568 -1850191 -1808760 -1752707 
3400.185 -1684803 -1611659 -1542850 -1487795 -1454377 -1446157 -1461788 
3400.607 -1495347 -1538165 -1581331 -1616937 -1640244 -1649929 -1647716 
3401.030 -1637391 -1623790 -1611733 -1604769 -1605037 -1612860 -1627170 
3401.452 -1645833 -1666498 -1687289 -1706892 -1724693 -1740307 -1753054 
3401.874 -1761709 -1764474 -1759383 -1745193 -1721865 -1691085 -1655846 
3402.296 -1620218 -1588251 -1562988 -1546275 -1538354 -1538210 -1543985 
3402.718 -1553676 -1565421 -1577733 -1589653 -1600487 -1609613 -1616301 
3403.140 -1619500 -1617949 -1610647 -1597210 -1578570 -1557139 -1536761 
3403.562 -1521577 -1514848 -1517740 -1528573 -1542981 -1554997 -1559376 
3403.984 -1553034 -1536560 -1513926 -1491678 -1476526 -1473125 -1483037 
3404.406 -1504265 -1532194 -1560875 -1585187 -1601541 -1608307 -1605523 
3404.829 -1594281 -1576139 -1552855 -1526571 -1499889 -1475543 -1456265 
3405.251 -1443834 -1438558 -1439129 -1443142 -1447984 -1451948 -1455063 
3405.673 -1459183 -1467308 -1482028 -1504460 -1533086 -1564046 -1591598 
3406.095 -1610076 -1615535 -1606758 -1585804 -1557343 -1527735 -1502777 
3406.517 -1486799 -1481807 -1487404 -1501551 -1521631 -1545578 -1572125 
3406.939 -1600911 -1631807 -1663838 -1694616 -1720238 -1735611 -1736296 
3407.361 -1719783 -1686926 -1642158 -1593093 -1548762 -1516726 -1501925 
3407.783 -1504937 -1522325 -1547509 -1573183 -1593457 -1604874 -1607202 
3408.206 -1602572 -1594230 -1584951 -1576449 -1569275 -1563468 -1559408 
3408.628 -1558372 -1562170 -1572576 -1590043 -1613154 -1638291 -1660853 
3409.050 -1676608 -1682881 -1679646 -1669284 -1655741 -1642710 -1632841 
3409.472 -1626851 -1623815 -1621808 -1618810 -1613249 -1603964 -1590043 
3409.894 -1570489 -1544414 -1511686 -1473688 -1434070 -1398122 -1372177 
3410.316 -1361716 -1369438 -1394397 -1432038 -1475786 -1518243 -1553699 
3410.738 -1579232 -1594585 -1601547 -1602585 -1599893 -1594709 -1587772 
3411.160 -1580008 -1573110 -1569965 -1574103 -1588490 -1614657 -1651499 
3411.583 -1695132 -1738852 -1774714 -1794897 -1792910 -1765539 -1713362 
3412.005 -1641376 -1557708 -1473234 -1399315 -1344961 -1316094 -1313684 
3412.427 -1334047 -1369387 -1410296 -1448020 -1475892 -1491268 -1495360 
3412.849 -1492498 -1488099 -1487420 -1493874 -1508246 -1528935 -1552669 
3413.271 -1575906 -1595552 -1609836 -1618249 -1620988 -1618194 -1609405 
3413.693 -1593425 -1569000 -1535699 -1495014 -1450724 -1408968 -1377162 
3414.115 -1361787 -1367499 -1395333 -1442510 -1502386 -1566114 -1624033 
3414.537 -1666778 -1687704 -1683461 -1654991 -1607330 -1549341 -1492223 
3414.959 -1446462 -1420806 -1419424 -1441254 -1480430 -1528423 -1576631 
3415.382 -1618083 -1649240 -1669418 -1679595 -1680965 -1674360 -1660573 
3415.804 -1641376 -1620828 -1605095 -1600701 -1612592 -1641102 -1681058 
3416.226 -1722034 -1752083 -1761257 -1744843 -1705019 -1649789 -1590097 
3416.648 -1535271 -1491486 -1460465 -1440824 -1430300 -1427754 -1433685 
3417.070 -1449365 -1474950 -1507901 -1542396 -1571128 -1587158 -1586599 
3417.492 -1570342 -1544001 -1516422 -1496445 -1491281 -1504082 -1533556 
3417.914 -1574564 -1619800 -1661721 -1693714 -1711954 -1715722 -1707424 
3418.336 -1691407 -1672910 -1656229 -1643300 -1633543 -1624499 -1613479 
3418.759 -1598868 -1581238 -1562768 -1546125 -1532354 -1519958 -1504876 
3419.181 -1482601 -1450237 -1408923 -1364125 -1325075 -1301868 -1301958 
3419.603 -1328578 -1379287 -1447164 -1521765 -1592208 -1648663 -1683174 
3420.025 -1691302 -1672352 -1630441 -1573918 -1515318 -1468624 -1444831 
3420.447 -1449628 -1480455 -1527594 -1576305 -1612857 -1629059 -1624722 
3420.869 -1607103 -1587481 -1576768 -1580864 -1600078 -1630326 -1666807 
3421.291 -1706609 -1750489 -1801497 -1862334 -1932008 -2004485 -2068685 
3421.713 -2112526 -2126805 -2108761 -2063061 -1999546 -1928899 -1858102 
3422.135 -1789835 -1723120 -1656168 -1588775 -1523666 -1465732 -1420841 
3422.558 -1393123 -1383733 -1390607 -1409635 -1435936 -1465232 -1494982 
3422.980 -1524299 -1553699 -1584551 -1618533 -1656771 -1699131 -1743503 
3423.402 -1785632 -1819714 -1839238 -1839527 -1819205 -1781383 -1732475 
3423.824 -1680797 -1633623 -1594754 -1564471 -1540388 -1519747 -1501346 
3424.246 -1486770 -1479639 -1484192 -1502741 -1534241 -1573845 -1614661 
3424.668 -1649266 -1671940 -1680197 -1674545 -1657999 -1634695 -1609508 
3425.090 -1586947 -1570499 -1562084 -1561061 -1563905 -1564276 -1555205 
3425.512 -1530998 -1489700 -1434404 -1373060 -1316210 -1273047 -1249494 
3425.935 -1245981 -1258436 -1280106 -1304913 -1329629 -1354410 -1381890 
3426.357 -1415149 -1455640 -1502197 -1550991 -1596670 -1634350 -1660021 
3426.779 -1671395 -1667709 -1649355 -1617799 -1575660 -1527249 -1477884 
3427.201 -1433336 -1398805 -1377162 -1368726 -1371268 -1381419 -1395751 
3427.623 -1412127 -1430008 -1449766 -1471658 -1494764 -1516585 -1533700 
3428.045 -1542866 -1542102 -1531733 -1514333 -1494342 -1476603 -1465866 
3428.467 -1465857 -1478857 -1505811 -1546278 -1598708 -1660314 -1727559 
3428.889 -1796426 -1862239 -1920369 -1966055 -1994369 -2001122 -1983212 
3429.312 -1939956 -1873874 -1791543 -1702919 -1619152 -1551586 -1508377 
3429.734 -1492917 -1503237 -1532677 -1571601 -1609134 -1636495 -1647731 
3430.156 -1640802 -1617540 -1583066 -1544734 -1510131 -1486335 -1477839 
3430.578 -1485710 -1507523 -1538395 -1572780 -1605992 -1635981 -1663290 
3431.000 -1690014 -1717875 -1746673 -1773470 -1793571 -1802059 -1796239 
3431.422 -1776889 -1748277 -1716308 -1686065 -1660075 -1637366 -1614514 
3431.844 -1587727 -1555422 -1519433 -1485003 -1458613 -1446238 -1450888 
3432.266 -1471888 -1505270 -1545600 -1587925 -1628561 -1665640 -1698185 
3432.688 -1724951 -1744114 -1753324 -1750782 -1736509 -1713148 -1685941 
3433.111 -1661058 -1644471 -1639542 -1646031 -1659925 -1674918 -1684351 
3433.533 -1683136 -1669785 -1646864 -1620592 -1598523 -1587966 -1593575 
3433.955 -1615982 -1651562 -1693459 -1733758 -1764731 -1781199 -1781234 
3434.377 -1765880 -1738225 -1702311 -1662384 -1621983 -1584388 -1552858 
3434.799 -1530448 -1520233 -1524501 -1543915 -1576839 -1619085 -1664607 
3435.221 -1705866 -1736101 -1750527 -1747475 -1728947 -1700186 -1668532 
3435.643 -1640792 -1622015 -1613703 -1613719 -1617071 -1618223 -1613486 
3436.065 -1602230 -1587347 -1573822 -1566788 -1568949 -1579695 -1595249 
3436.488 -1610794 -1622299 -1628338 -1630247 -1630901 -1632417 -1634465 
3436.910 -1633747 -1625593 -1606554 -1576935 -1541936 -1510851 -1494704 
3437.332 -1501740 -1535255 -1591966 -1663523 -1738228 -1804707 -1855061 
3437.754 -1885208 -1895373 -1888762 -1870478 -1846002 -1820597 -1798795 
3438.176 -1783206 -1774014 -1768323 -1760885 -1745196 -1716200 -1672769 
3438.598 -1619155 -1564430 -1519577 -1494854 -1495418 -1519753 -1560016 
3439.020 -1605551 -1646251 -1676302 -1696152 -1711521 -1730629 -1759673 
3439.442 -1800127 -1846768 -1889368 -1914504 -1910750 -1872049 -1799704 
3439.865 -1702282 -1593617 -1489793 -1403903 -1344492 -1313909 -1309128 
3440.287 -1323764 -1350736 -1384715 -1422319 -1462128 -1503276 -1543950 
3440.709 -1581063 -1610750 -1629694 -1636980 -1634858 -1628517 -1623882 
3441.131 -1626177 -1637742 -1657655 -1682505 -1708230 -1731937 -1752488 
3441.553 -1770130 -1785202 -1796693 -1802069 -1798060 -1782585 -1756580 
3441.975 -1724767 -1694625 -1673174 -1664798 -1668691 -1679206 -1687503 
3442.397 -1685711 -1670369 -1644305 -1616040 -1597156 -1598567 -1625877 
3442.819 -1677790 -1745798 -1817537 -1878990 -1918721 -1930826 -1915199 
3443.241 -1877603 -1827542 -1777004 -1737034 -1716279 -1719840 -1748185 
3443.664 -1797237 -1858629 -1922094 -1976418 -2012337 -2024686 -2012388 
3444.086 -1978270 -1927467 -1866470 -1801398 -1737324 -1678096 -1625731 
3444.508 -1580823 -1543016 -1511763 -1487109 -1470047 -1462262 -1465508 
3444.930 -1480414 -1505683 -1537574 -1570671 -1599196 -1618048 -1624601 
3445.352 -1618900 -1603556 -1582417 -1559801 -1539489 -1523986 -1514947 
3445.774 -1513133 -1518752 -1531573 -1551055 -1576436 -1606908 -1641849 
3446.196 -1680637 -1722069 -1763857 -1801827 -1829995 -1842366 -1834480 
3446.618 -1805998 -1761617 -1710852 -1665289 -1634685 -1624731 -1634437 
3447.041 -1656851 -1680797 -1695565 -1693806 -1673796 -1639197 -1597280 
3447.463 -1555905 -1520546 -1493833 -1475738 -1465402 -1463070 -1471277 
3447.885 -1494755 -1539560 -1610951 -1711763 -1840804 -1992524 -2155917 
3448.307 -2314629 -2449858 -2541328 -2573055 -2538344 -2441934 -2298988 
3448.729 -2129799 -1956040 -1794888 -1657964 -1551941 -1478329 -1435279 
3449.151 -1418340 -1421739 -1438600 -1461698 -1484529 -1501179 -1507728 
3449.573 -1502847 -1488397 -1469086 -1451365 -1442196 -1446478 -1465927 
3449.995 -1498449 -1538920 -1580149 -1614747 -1637308 -1644870 -1637765 
3450.417 -1618996 -1593470 -1566530 -1542601 -1524766 -1514218 -1510813 
3450.840 -1513818 -1522572 -1536876 -1556605 -1581139 -1608447 -1634899 
3451.262 -1656124 -1668028 -1668771 -1659810 -1646022 -1633901 -1629046 
3451.684 -1633881 -1646057 -1658991 -1664112 -1654797 -1628612 -1588845 
3452.106 -1542847 -1499899 -1467253 -1447715 -1439401 -1437193 -1435644 
3452.528 -1431483 -1425218 -1420639 -1423022 -1436071 -1460657 -1493958 
3452.950 -1530898 -1565468 -1592866 -1610695 -1618638 -1617990 -1610440 
3453.372 -1597689 -1581027 -1561863 -1542121 -1524174 -1510627 -1503545 
3453.794 -1503577 -1509507 -1518236 -1525710 -1527373 -1519721 -1501205 
3454.217 -1472583 -1436981 -1399094 -1364526 -1337822 -1321989 -1317670 
3454.639 -1323513 -1336952 -1355544 -1378045 -1404692 -1436635 -1474582 
3455.061 -1517385 -1561233 -1600084 -1626736 -1635783 -1625376 -1598676 
3455.483 -1563122 -1529258 -1507997 -1507161 -1530444 -1575992 -1637538 
3455.905 -1705130 -1767938 -1816549 -1843935 -1847368 -1828320 -1792204 
3456.327 -1746310 -1698672 -1656130 -1622657 -1599759 -1586794 -1582286 
3456.749 -1584906 -1593860 -1608317 -1626241 -1643769 -1655227 -1654395 
3457.171 -1637343 -1604325 -1561118 -1517296 -1484173 -1470517 -1479226 
3457.594 -1506416 -1542866 -1578063 -1603393 -1616004 -1619012 -1619934 
3458.016 -1626493 -1643488 -1670365 -1701505 -1728037 -1741013 -1734981 
3458.438 -1708873 -1666338 -1613818 -1559236 -1509603 -1469915 -1443408 
3458.860 -1431425 -1434121 -1450808 -1480151 -1519900 -1566712 -1616407 
3459.282 -1663724 -1702964 -1729234 -1738776 -1730393 -1705771 -1669709 
3459.704 -1628772 -1589883 -1558842 -1538380 -1528013 -1524734 -1525019 
3460.126 -1526564 -1529773 -1537423 -1553312 -1579654 -1615101 -1653792 
3460.548 -1686830 -1705009 -1701546 -1675186 -1630591 -1577324 -1526091 
3460.970 -1486450 -1464095 -1459885 -1470671 -1490942 -1514976 -1537551 
3461.393 -1555147 -1565989 -1569943 -1568594 -1565325 -1565206 -1573634 
3461.815 -1595259 -1632062 -1682170 -1739607 -1795755 -1842445 -1873684 
3462.237 -1888083 -1888689 -1881817 -1874042 -1869752 -1869669 -1870726 
3462.659 -1867625 -1855226 -1831249 -1797301 -1758734 -1722445 -1695333 
3463.081 -1681868 -1683171 -1697433 -1720936 -1749550 -1779694 -1809176 
3463.503 -1837037 -1862915 -1886497 -1907085 -1923476 -1934376 -1938673 
3463.925 -1935976 -1926433 -1910617 -1888981 -1861455 -1827482 -1786452 
3464.347 -1738349 -1684570 -1628057 -1573404 -1526215 -1491592 -1473535 
3464.770 -1473685 -1491112 -1522332 -1562314 -1605756 -1647575 -1684188 
3465.192 -1713591 -1735200 -1749642 -1758199 -1762574 -1764340 -1765002 
3465.614 -1765641 -1766717 -1767919 -1768104 -1765403 -1757420 -1741860 
3466.036 -1717139 -1682747 -1639532 -1589493 -1535450 -1480065 -1425677 
3466.458 -1373962 -1326174 -1283806 -1249127 -1225270 -1216150 -1225029 
3466.880 -1253241 -1299009 -1357115 -1419699 -1477532 -1523311 -1553047 
3467.302 -1567476 -1571307 -1571918 -1576589 -1589944 -1613348 -1644886 
3467.724 -1680975 -1717996 -1754015 -1788971 -1823990 -1860112 -1897016 
3468.146 -1932595 -1963740 -1987409 -2002201 -2008864 -2009734 -2007165 
3468.569 -2001913 -1992337 -1974658 -1944531 -1898522 -1836074 -1760080 
3468.991 -1676512 -1592349 -1514486 -1448090 -1395876 -1358785 -1336550 
3469.413 -1328414 -1333273 -1349496 -1374463 -1404211 -1434141 -1459965 
3469.835 -1478800 -1490391 -1497124 -1503250 -1512931 -1528874 -1550985 
3470.257 -1576510 -1600656 -1618402 -1626050 -1621696 -1605574 -1579357 
3470.679 -1545725 -1507763 -1469470 -1436327 -1414831 -1412618 -1436462 
3471.101 -1489716 -1570678 -1671312 -1778922 -1877368 -1952103 -1993508 
3471.523 -1998597 -1971710 -1922677 -1864381 -1808347 -1763669 -1735544 
3471.946 -1725356 -1731718 -1751367 -1780032 -1812109 -1841537 -1862575 
3472.368 -1870478 -1863305 -1842588 -1813257 -1781930 -1755272 -1737757 
3472.790 -1730177 -1729578 -1730212 -1725696 -1710141 -1680012 -1634685 
3473.212 -1576474 -1510208 -1442536 -1381640 -1335165 -1309337 -1307022 
3473.634 -1326611 -1361649 -1402248 -1438484 -1462573 -1472119 -1470521 
3474.056 -1465873 -1467199 -1480827 -1507987 -1544164 -1580919 -1608946 
3474.478 -1622223 -1619516 -1604724 -1584417 -1565635 -1552922 -1547100 
3474.900 -1545945 -1545885 -1544030 -1539425 -1533317 -1528324 -1527236 
3475.323 -1531497 -1540672 -1552398 -1563317 -1569773 -1569141 -1560875 
3475.745 -1547177 -1533118 -1525630 -1532747 -1560725 -1612122 -1684108 
3476.167 -1768673 -1853562 -1924842 -1971590 -1987463 -1972442 -1931276 
3476.589 -1871459 -1800136 -1722315 -1641399 -1559897 -1480865 -1409148 
3477.011 -1350386 -1309996 -1291419 -1294774 -1316683 -1351212 -1391996 
3477.433 -1433099 -1470476 -1502312 -1528640 -1551128 -1572649 -1597303 
3477.855 -1629331 -1672030 -1726161 -1788417 -1850705 -1900967 -1926966 
3478.277 -1918692 -1872608 -1793024 -1691882 -1585347 -1488886 -1414982 
3478.699 -1369442 -1351716 -1356231 -1375291 -1400807 -1425664 -1444821 
3479.122 -1454605 -1453051 -1440125 -1418125 -1391759 -1367133 -1350852 
3479.544 -1347534 -1358460 -1380934 -1409430 -1437442 -1459744 -1474662 
3479.966 -1484324 -1494012 -1509622 -1536061 -1574893 -1623723 -1676327 
3480.388 -1724235 -1758906 -1772964 -1762492 -1727766 -1673468 -1607387 
3480.810 -1539412 -1479540 -1435295 -1411390 -1408958 -1426337 -1460052 
3481.232 -1506105 -1561019 -1621530 -1684685 -1747456 -1806395 -1858439 
3481.654 -1901411 -1934683 -1959201 -1976836 -1988954 -1995002 -1991919 
3482.076 -1974782 -1938831 -1881236 -1803077 -1709453 -1609195 -1512186 
3482.499 -1427790 -1363303 -1322343 -1305228 -1309372 -1330657 -1364035 
3482.921 -1404609 -1448696 -1493769 -1539240 -1586280 -1637560 -1696209 
3483.343 -1764668 -1843344 -1929730 -2018028 -2099960 -2167540 -2214837 
3483.765 -2239773 -2243924 -2231200 -2206013 -2171899 -2131456 -2086269 
3484.187 -2037188 -1984769 -1929394 -1871294 -1810959 -1749330 -1688421 
3484.609 -1631504 -1582650 -1546559 -1527169 -1526574 -1544587 -1578331 
3485.031 -1622880 -1671462 -1716948 -1752516 -1772242 -1772551 -1752631 
3485.453 -1715301 -1666472 -1614970 -1570409 -1540487 -1530089 -1539739 
3485.875 -1566325 -1604370 -1648379 -1694042 -1738394 -1779411 -1814401 
3486.298 -1838933 -1847641 -1835195 -1799148 -1741726 -1670595 -1597140 
3486.720 -1532782 -1486690 -1462394 -1457854 -1467007 -1483321 -1502360 
3487.142 -1523426 -1548823 -1581753 -1623381 -1671402 -1719945 -1761661 
3487.564 -1790719 -1804399 -1804214 -1794776 -1782038 -1770572 -1762670 
3487.986 -1758416 -1756793 -1757165 -1759832 -1765651 -1774866 -1785765 
3488.408 -1794570 -1795959 -1785441 -1761515 -1727072 -1689096 -1656985 
3488.830 -1640378 -1645642 -1674947 -1725763 -1792153 -1865676 -1937069 
3489.252 -1998021 -2041251 -2062015 -2058944 -2034428 -1994473 -1947342 
3489.675 -1902394 -1867070 -1845586 -1837891 -1840029 -1845297 -1846577 
3490.097 -1839025 -1820940 -1794360 -1763561 -1733485 -1707389 -1685855 
3490.519 -1666781 -1646733 -1622504 -1592448 -1557129 -1518985 -1481400 
3490.941 -1447462 -1419863 -1400935 -1392953 -1398998 -1422332 -1465440 
3491.363 -1528570 -1608431 -1697840 -1785950 -1861426 -1914038 -1937307 
3491.785 -1930265 -1897244 -1846758 -1788468 -1731963 -1684041 -1648044 
3492.207 -1624224 -1610366 -1603118 -1598721 -1594246 -1587848 -1579037 
3492.629 -1568486 -1557813 -1549066 -1544037 -1544110 -1549856 -1561109 
3493.052 -1577254 -1597533 -1621272 -1647677 -1675645 -1703212 -1727091 
3493.474 -1743248 -1747071 -1734602 -1703866 -1655527 -1593492 -1524072 
3493.896 -1455745 -1397214 -1355830 -1337013 -1342876 -1372302 -1420921 
3494.318 -1482335 -1548698 -1611832 -1665232 -1704276 -1727209 -1734955 
3494.740 -1730641 -1718372 -1701998 -1684625 -1667904 -1652191 -1636922 
3495.162 -1621010 -1603102 -1581737 -1555601 -1523835 -1486604 -1445651 
3495.584 -1404869 -1369907 -1346856 -1341289 -1355846 -1389237 -1435750 
3496.006 -1486764 -1532843 -1566095 -1583066 -1585232 -1578638 -1571026 
3496.428 -1569693 -1578114 -1594588 -1612550 -1623161 -1618718 -1594898 
3496.851 -1552695 -1497700 -1438930 -1385681 -1346085 -1325682 -1326820 
3497.273 -1349551 -1392552 -1454092 -1532063 -1623790 -1725607 -1831532 
3497.695 -1933777 -2023082 -2089209 -2123745 -2121722 -2083679 -2015921 
3498.117 -1930088 -1840603 -1760656 -1701196 -1668274 -1662269 -1677905 
3498.539 -1705417 -1732778 -1747892 -1742860 -1715760 -1671386 -1619021 
3498.961 -1569965 -1533585 -1514016 -1509693 -1514218 -1519881 -1520095 
3499.383 -1512448 -1499035 -1485377 -1477522 -1479469 -1491512 -1510138 
3499.805 -1529200 -1542143 -1544670 -1535706 -1517836 -1495869 -1475690 
3500.228 -1462009 -1457030 -1460286 -1468999 -1479396 -1488070 -1493622 
3500.650 -1497114 -1501816 -1511498 -1528739 -1552912 -1579810 -1601818 
3501.072 -1610794 -1601582 -1574289 -1535530 -1496240 -1468954 -1462387 
3501.494 -1479139 -1514762 -1560191 -1604728 -1640135 -1663433 -1676655 
3501.916 -1684819 -1692309 -1700593 -1707070 -1706733 -1694689 -1669517 
3502.338 -1634491 -1597178 -1566197 -1548647 -1547602 -1561575 -1585804 
3502.760 -1614676 -1644331 -1673308 -1702330 -1732408 -1762959 -1790777 
3503.182 -1810670 -1816892 -1805804 -1777277 -1735519 -1687943 -1644446 
3503.604 -1614925 -1606279 -1621217 -1656946 -1706338 -1759682 -1808391 
3504.027 -1847768 -1878320 -1905696 -1938533 -1985630 -2051444 -2133411 
3504.449 -2220101 -2294126 -2334974 -2327114 -2266541 -2162641 -2034858 
3504.871 -1905008 -1792675 -1710100 -1663089 -1652896 -1677628 -1733099 
3505.293 -1812284 -1905712 -2000524 -2082577 -2140518 -2167912 -2166109 
3505.715 -2142981 -2110456 -2079084 -2054469 -2035449 -2015026 -1983440 
3506.137 -1932642 -1860798 -1773397 -1681807 -1598363 -1533611 -1492847 
3506.559 -1475655 -1476917 -1488790 -1503180 -1512874 -1513590 -1504297 
3506.981 -1487375 -1467843 -1452695 -1449170 -1462083 -1492508 -1536406 
3507.404 -1585845 -1630361 -1660754 -1672042 -1664610 -1644047 -1618676 
3507.826 -1596900 -1583727 -1579848 -1581890 -1584721 -1583385 -1575391 
3508.248 -1561464 -1545015 -1530639 -1522357 -1522850 -1532594 -1550102 
3508.670 -1572157 -1594770 -1613680 -1625111 -1626876 -1618807 -1603112 
3509.092 -1583660 -1565270 -1552078 -1546160 -1547314 -1553267 -1560885 
3509.514 -1567169 -1570537 -1571039 -1570198 -1570288 -1573685 -1582197 
3509.936 -1596389 -1615024 -1634615 -1649901 -1654574 -1644063 -1618297 
3510.358 -1584043 -1554428 -1546818 -1579701 -1665822 -1807819 -1992733 
3510.781 -2193405 -2371103 -2489102 -2528001 -2491089 -2400804 -2284989 
3511.203 -2167644 -2061014 -1966935 -1881585 -1800998 -1725330 -1660439 
3511.625 -1615069 -1597133 -1608965 -1645613 -1695333 -1743780 -1779529 
3512.047 -1796312 -1794729 -1779857 -1758215 -1734564 -1711247 -1689246 
3512.469 -1669807 -1655652 -1650382 -1656200 -1671698 -1690406 -1702575 
3512.891 -1697627 -1669543 -1620167 -1559942 -1504198 -1467984 -1461541 
3513.313 -1486479 -1536374 -1599101 -1662132 -1714983 -1752026 -1772595 
3513.735 -1779236 -1775798 -1765924 -1753038 -1740170 -1730205 -1725674 
3514.157 -1727445 -1733812 -1739957 -1739454 -1725996 -1696356 -1652277 
3514.580 -1600876 -1552634 -1517616 -1502972 -1509853 -1533221 -1562988 
3515.002 -1587797 -1597929 -1587666 -1556905 -1510342 -1456306 -1403752 
3515.424 -1361450 -1336039 -1331033 -1347119 -1382041 -1431425 -1488979 
3515.846 -1548168 -1603163 -1649575 -1685511 -1711122 -1727935 -1737509 
3516.268 -1740606 -1736557 -1723837 -1701046 -1668491 -1629110 -1588934 
3516.690 -1555582 -1536249 -1535891 -1555051 -1589765 -1632311 -1674290 
3517.112 -1708157 -1729479 -1737553 -1734487 -1723572 -1707453 -1687369 
3517.534 -1663130 -1634092 -1600362 -1563407 -1525899 -1490772 -1459795 
3517.957 -1433096 -1409331 -1386945 -1365785 -1348202 -1338841 -1343907 
3518.379 -1368655 -1415203 -1481310 -1560236 -1642088 -1715273 -1770340 
3518.801 -1801405 -1807879 -1794070 -1768113 -1739556 -1716470 -1704398 
3519.223 -1704697 -1714865 -1729180 -1740959 -1744684 -1737394 -1719795 
3519.645 -1695670 -1670400 -1648500 -1632417 -1621824 -1614587 -1608320 
3520.067 -1602138 -1597405 -1597405 -1605507 -1623117 -1648283 -1675989 
3520.489 -1699806 -1714222 -1717133 -1710192 -1697993 -1685632 -1677229 
3520.911 -1674341 -1675989 -1679569 -1682215 -1682129 -1678693 -1672269 
3521.333 -1663599 -1653304 -1641833 -1629883 -1618740 -1609948 -1604865 
3521.756 -1603690 -1604993 -1605906 -1603393 -1595853 -1584353 -1572825 
3522.178 -1566792 -1571790 -1590780 -1623046 -1663953 -1706710 -1743850 
3522.600 -1769564 -1781444 -1780432 -1770420 -1756723 -1745521 -1742229 
3523.022 -1750562 -1771861 -1804160 -1842268 -1878184 -1903869 -1913147 
3523.444 -1904681 -1882978 -1858347 -1843855 -1850676 -1885872 -1949534 
3523.866 -2035702 -2133654 -2232028 -2321690 -2397277 -2457777 -2504490 
3524.288 -2538778 -2560256 -2566681 -2555052 -2523546 -2472516 -2404688 
3524.710 -2324061 -2235481 -2143953 -2055285 -1977067 -1917542 -1884790 
3525.133 -1884326 -1915998 -1972097 -2037005 -2091802 -2118014 -2105478 
3525.555 -2055872 -1981541 -1899734 -1825738 -1770047 -1735965 -1721318 
3525.977 -1720458 -1726843 -1734191 -1737378 -1733106 -1719697 -1697847 
3526.399 -1670987 -1646003 -1632101 -1638633 -1673085 -1737652 -1827472 
3526.821 -1929039 -2023310 -2088934 -2109130 -2078775 -2006102 -1909599 
3527.243 -1809548 -1723569 -1661450 -1624693 -1608272 -1603137 -1599580 
3527.665 -1589500 -1569614 -1542175 -1515046 -1499131 -1506723 -1548388 
3528.087 -1629953 -1750890 -1902506 -2068992 -2227341 -2353524 -2429012 
3528.510 -2444947 -2404808 -2321392 -2213042 -2097756 -1992154 -1909942 
3528.932 -1859845 -1845869 -1866057 -1913154 -1975089 -2037732 -2088006 
3529.354 -2115259 -2114777 -2088139 -2042876 -1989204 -1937465 -1895766 
3529.776 -1868400 -1857115 -1862328 -1884371 -1924094 -1982424 -2059244 
3530.198 -2151300 -2251169 -2347011 -2423130 -2465257 -2464653 -2421187 
3530.620 -2342431 -2240308 -2127171 -2012774 -1905160 -1810600 -1733688 
3531.042 -1677956 -1644522 -1631628 -1634251 -1645269 -1657045 -1663226 
3531.464 -1661258 -1653078 -1644959 -1644943 -1660978 -1697551 -1753993 
3531.886 -1823650 -1895036 -1955236 -1992128 -1999293 -1977697 -1935786 
3532.309 -1886002 -1841626 -1813218 -1805537 -1817763 -1844094 -1876368 
3532.731 -1905670 -1925131 -1931200 -1923346 -1903244 -1873189 -1835191 
3533.153 -1790560 -1740409 -1686582 -1631842 -1580120 -1535597 -1501365 
3533.575 -1478784 -1466939 -1463329 -1464675 -1468490 -1474095 -1482947 
3533.997 -1498183 -1523471 -1561754 -1613623 -1676595 -1744649 -1809653 
3534.419 -1861883 -1892375 -1895274 -1868822 -1816555 -1746530 -1670754 
3534.841 -1601742 -1549827 -1521535 -1517740 -1534407 -1563976 -1598373 
3535.263 -1630291 -1654775 -1669648 -1674421 -1669562 -1655779 -1634153 
3535.686 -1606608 -1576375 -1548392 -1527840 -1519065 -1523899 -1540804 
3536.108 -1565021 -1589972 -1609769 -1620477 -1621556 -1615404 -1606465 
3536.530 -1599356 -1597389 -1602240 -1613782 -1630636 -1650791 -1672227 
3536.952 -1693115 -1712317 -1729992 -1748280 -1771810 -1806891 -1860763 
3537.374 -1938749 -2041561 -2162443 -2286796 -2394147 -2461904 -2474303 
3537.796 -2426950 -2328851 -2197689 -2055019 -1919938 -1804771 -1716139 
3538.218 -1655049 -1618846 -1602393 -1599046 -1601113 -1599810 -1587337 
3538.640 -1558382 -1512166 -1453387 -1391846 -1339994 -1308318 -1303048 
3539.062 -1323317 -1362031 -1407576 -1448436 -1477051 -1491317 -1494732 
3539.485 -1494063 -1496730 -1507581 -1528199 -1557078 -1591177 -1627205 
3539.907 -1662556 -1695307 -1723120 -1742821 -1750483 -1741984 -1714900 
3540.329 -1669683 -1610507 -1544331 -1479876 -1425821 -1388386 -1370752 
3540.751 -1372578 -1390767 -1420123 -1454874 -1489885 -1520841 -1545248 
3541.173 -1562554 -1574014 -1582120 -1589832 -1599506 -1611634 -1624409 
3541.595 -1633677 -1634392 -1621709 -1593023 -1549108 -1494489 -1436641 
3542.017 -1383977 -1344607 -1323641 -1322513 -1338844 -1367856 -1403694 
3542.439 -1441074 -1476827 -1509786 -1540557 -1570323 -1599899 -1628785 
3542.862 -1655266 -1676834 -1691397 -1698303 -1698949 -1696486 -1695068 
3543.284 -1698647 -1709335 -1726846 -1748166 -1768660 -1783081 -1787724 
3543.706 -1781809 -1768380 -1753955 -1746947 -1756277 -1787867 -1842836 
3544.128 -1916026 -1997420 -2073812 -2132774 -2167108 -2175971 -2165103 
3544.550 -2143467 -2120466 -2102116 -2089841 -2081424 -2073506 -2064622 
3544.972 -2057512 -2058836 -2077094 -2118494 -2183096 -2263305 -2344603 
3545.394 -2410390 -2444603 -2437643 -2388738 -2306115 -2203997 -2098713 
3545.816 -2006437 -1939620 -1907817 -1918249 -1975662 -2082656 -2238168 
3546.239 -2436628 -2664354 -2898908 -3111339 -3267815 -3341117 -3320243 
3546.661 -3215582 -3053321 -2864671 -2675854 -2501156 -2345432 -2207137 
3547.083 -2082407 -1968024 -1862845 -1767537 -1684006 -1614153 -1559082 
3547.505 -1519376 -1495424 -1488259 -1500446 -1536032 -1600503 -1699963 
3547.927 -1839590 -2021991 -2244449 -2497302 -2758562 -2994703 -3166544 
3548.349 -3238354 -3194930 -3048524 -2834575 -2594762 -2365255 -2170279 
3548.771 -2019907 -1914901 -1849276 -1813714 -1797450 -1790777 -1787295 
3549.193 -1784532 -1784786 -1793645 -1818100 -1862934 -1928373 -2008177 
3549.615 -2090902 -2161462 -2205572 -2215126 -2190163 -2138969 -2073616 
3550.038 -2006586 -1946036 -1894852 -1851838 -1813845 -1778069 -1743512 
3550.460 -1711097 -1682801 -1660244 -1643415 -1630467 -1618197 -1603291 
3550.882 -1583165 -1556985 -1525924 -1493484 -1465040 -1447369 -1448209 
3551.304 -1474041 -1528599 -1610864 -1714493 -1827580 -1934972 -2022968 
3551.726 -2081766 -2109272 -2110980 -2098274 -2083534 -2075875 -2078888 
3552.148 -2089803 -2101617 -2105746 -2096007 -2070160 -2030662 -1983484 
3552.570 -1936505 -1897003 -1869476 -1855264 -1852429 -1857245 -1865940 
3552.992 -1877276 -1894231 -1925089 -1981585 -2076699 -2219506 -2409710 
3553.415 -2631568 -2851523 -3026221 -3112332 -3087528 -2960042 -2764538 
3553.837 -2544791 -2337872 -2167896 -2042360 -1957488 -1902981 -1867781 
3554.259 -1843208 -1824861 -1812201 -1806195 -1807323 -1814642 -1826399 
3554.681 -1841779 -1862299 -1892162 -1936451 -1998575 -2077252 -2165128 
3555.103 -2248628 -2311227 -2339631 -2326671 -2273416 -2186729 -2076251 
3555.525 -1951178 -1819177 -1687857 -1564896 -1458690 -1378013 -1329275 
3555.947 -1315095 -1332810 -1375387 -1432580 -1493887 -1551624 -1601256 
3556.369 -1641801 -1674354 -1700335 -1720343 -1733940 -1740466 -1740058 
3556.792 -1734309 -1726015 -1717885 -1711247 -1705000 -1695874 -1679292 
3557.214 -1651620 -1612036 -1563621 -1512832 -1467619 -1435663 -1421258 
3557.636 -1424381 -1440577 -1463050 -1484718 -1501026 -1511501 -1519865 
3558.058 -1532571 -1555844 -1593860 -1646491 -1709221 -1773604 -1830112 
3558.480 -1870329 -1888914 -1885034 -1861715 -1824464 -1778848 -1729603 
3558.902 -1679729 -1630620 -1582570 -1535037 -1487020 -1437058 -1383877 
3559.324 -1327193 -1268680 -1212377 -1164769 -1133604 -1125165 -1142628 
3559.746 -1184225 -1243702 -1311379 -1377288 -1434388 -1479751 -1515222 
3560.168 -1545674 -1576791 -1612151 -1651952 -1692726 -1729190 -1755800 
3560.591 -1768829 -1767617 -1754257 -1732902 -1708319 -1685740 -1670219 
3561.013 -1666619 -1680168 -1715470 -1775887 -1861734 -1968765 -2086181 
3561.435 -2195950 -2277582 -2312650 -2293039 -2224083 -2122060 -2007273 
3561.857 -1896914 -1803668 -1733542 -1687394 -1662633 -1654944 -1659638 
3562.279 -1672537 -1690530 -1710654 -1729384 -1742471 -1744655 -1731052 
3562.701 -1698873 -1648417 -1583855 -1512333 -1443561 -1387205 -1351648 
3563.123 -1342882 -1363171 -1411239 -1482393 -1569895 -1664993 -1758002 
3563.545 -1839905 -1902296 -1939516 -1949524 -1934268 -1898833 -1849924 
3563.968 -1794357 -1737404 -1682836 -1633527 -1591828 -1560796 -1544299 
3564.390 -1546550 -1572122 -1624792 -1706965 -1818973 -1958064 -2117408 
3564.812 -2283731 -2438742 -2560478 -2628343 -2631159 -2570772 -2462148 
3565.234 -2326593 -2187154 -2062132 -1962245 -1892039 -1850737 -1834826 
3565.656 -1840159 -1863280 -1901237 -1950202 -2004874 -2057531 -2099086 
3566.078 -2122148 -2122757 -2102486 -2067563 -2027535 -1992087 -1968867 
3566.500 -1963528 -1979853 -2021339 -2092275 -2197323 -2339580 -2516661 
3566.922 -2717964 -2920943 -3094326 -3209249 -3249627 -3221359 -3147990 
3567.344 -3062802 -2995383 -2965922 -2985761 -3058324 -3183452 -3359816 
3567.767 -3586103 -3856733 -4154444 -4444745 -4668292 -4756584 -4666730 
3568.189 -4408855 -4045011 -3651807 -3290333 -2990073 -2756870 -2583350 
3568.611 -2456331 -2363077 -2295192 -2250619 -2233935 -2255149 -2327274 
3569.033 -2465479 -2684153 -2994267 -3395655 -3871144 -4380422 -4859468 
3569.455 -5238048 -5457498 -5488482 -5337485 -5043172 -4663335 -4255431 
3569.877 -3865570 -3520174 -3227691 -2986395 -2788247 -2623493 -2482953 
3570.299 -2359497 -2248810 -2149784 -2064044 -1995056 -1946423 -1919821 
3570.721 -1913709 -1922332 -1936857 -1946242 -1940821 -1914812 -1867441 
3571.144 -1803048 -1729587 -1657026 -1594310 -1549063 -1526999 -1531839 
3571.566 -1565810 -1628635 -1716283 -1818277 -1917462 -1993141 -2024686 
3571.988 -2000891 -1924630 -1813635 -1693214 -1589279 -1520758 -1494047 
3572.410 -1504047 -1536601 -1575267 -1605436 -1619915 -1619995 -1613495 
3572.832 -1610347 -1618019 -1639436 -1672403 -1711718 -1751584 -1788195 
3573.254 -1819803 -1846012 -1866365 -1879237 -1882207 -1873494 -1853483 
3573.676 -1825715 -1795950 -1770544 -1753277 -1743789 -1737270 -1726922 
3574.098 -1706593 -1674041 -1632238 -1588870 -1553488 -1533425 -1531701 
3574.521 -1545444 -1567603 -1589078 -1602623 -1604568 -1595035 -1576660 
3574.943 -1552749 -1525771 -1496864 -1466770 -1437157 -1411274 -1394287 
3575.365 -1391746 -1407717 -1443693 -1497774 -1565529 -1640761 -1717627 
3575.787 -1791330 -1858401 -1916565 -1964031 -1999239 -2021096 -2029556 
3576.209 -2026112 -2013549 -1995768 -1976330 -1957415 -1939357 -1920810 
3576.631 -1899642 -1874112 -1843884 -1809999 -1774281 -1738308 -1702903 
3577.053 -1668159 -1634130 -1601930 -1574292 -1555211 -1549082 -1558791 
3577.475 -1584344 -1622159 -1666204 -1709431 -1745848 -1772605 -1790217 
3577.897 -1802148 -1813183 -1828393 -1851692 -1885266 -1929549 -1983231 
3578.320 -2043201 -2103935 -2157966 -2195984 -2208095 -2186927 -2129477 
3578.742 -2039363 -1926250 -1805168 -1692831 -1603511 -1547954 -1530473 
3579.164 -1549172 -1596316 -1660480 -1728553 -1787610 -1828400 -1846063 
3579.586 -1840940 -1817642 -1783857 -1748006 -1716655 -1693829 -1680079 
3580.008 -1673433 -1670767 -1669801 -1670244 -1674172 -1685128 -1706609 
3580.430 -1740377 -1785088 -1835735 -1884336 -1922497 -1943001 -1943134 
3580.852 -1925898 -1900051 -1877409 -1869482 -1885253 -1927993 -1994416 
3581.274 -2073664 -2149743 -2203002 -2215920 -2180064 -2099398 -1989967 
3581.697 -1873097 -1770140 -1695291 -1653511 -1641718 -1650925 -1669782 
3582.119 -1687423 -1697458 -1698682 -1695161 -1693752 -1701823 -1724111 
3582.541 -1760850 -1807104 -1853788 -1890357 -1906638 -1896375 -1858518 
3582.963 -1797762 -1723015 -1645942 -1578507 -1529424 -1503586 -1501077 
3583.385 -1518467 -1550460 -1592330 -1641405 -1697245 -1760850 -1832841 
3583.807 -1911711 -1993078 -2069791 -2133238 -2176337 -2194829 -2188871 
3584.229 -2162493 -2122599 -2077154 -2033302 -1997562 -1975117 -1970022 
3584.651 -1985254 -2021804 -2077830 -2147349 -2220740 -2285067 -2326386 
3585.073 -2334280 -2303852 -2237816 -2144886 -2037653 -1928636 -1827453 
3585.496 -1740842 -1671835 -1621058 -1587640 -1570192 -1567031 -1576225 
3585.918 -1595568 -1622248 -1653014 -1684934 -1715617 -1743958 -1770260 
3586.340 -1795844 -1822186 -1849968 -1878158 -1903768 -1922237 -1928655 
3586.762 -1919735 -1894992 -1857537 -1813174 -1769946 -1736219 -1718872 
3587.184 -1723193 -1752055 -1806538 -1887201 -1995670 -2136039 -2315741 
3587.606 -2545928 -2840109 -3210070 -3659833 -4168383 -4674672 -5084864 
3588.028 -5313585 -5342234 -5219110 -5013956 -4772021 -4508569 -4221982 
3588.450 -3910006 -3580507 -3254469 -2957807 -2715262 -2542157 -2440831 
3588.873 -2403180 -2411992 -2445527 -2479323 -2493213 -2475887 -2426612 
3589.295 -2354441 -2274120 -2202083 -2152001 -2135452 -2162676 -2244005 
3589.717 -2392758 -2626275 -2966829 -3432878 -4019302 -4658209 -5176211 
3590.139 -5366654 -5163298 -4699372 -4157639 -3652023 -3221298 -2863197 
3590.561 -2565838 -2317701 -2110595 -1940862 -1806697 -1706325 -1637047 
3590.983 -1595092 -1576458 -1577759 -1596868 -1632056 -1680621 -1737980 
3591.405 -1796534 -1846678 -1879621 -1889253 -1875318 -1843970 -1807374 
3591.827 -1779901 -1774017 -1797399 -1849752 -1922712 -2000533 -2065112 
3592.250 -2099019 -2090684 -2037896 -1947722 -1834594 -1715263 -1606758 
3592.672 -1521682 -1466379 -1441052 -1440542 -1456937 -1481996 -1510323 
3593.094 -1539962 -1572007 -1608770 -1651674 -1699523 -1748439 -1792592 
3593.516 -1826449 -1846936 -1854204 -1851654 -1844446 -1838263 -1837478 
3593.938 -1845354 -1865115 -1901116 -1960513 -2053123 -2189139 -2376437 
3594.360 -2615364 -2894147 -3180388 -3422761 -3562788 -3557058 -3404592 
3594.782 -3146671 -2845031 -2550693 -2295248 -2090453 -1934290 -1819113 
3595.204 -1736318 -1679799 -1646759 -1637142 -1651579 -1688911 -1744617 
3595.626 -1810422 -1874994 -1927543 -1960003 -1969380 -1958356 -1934667 
3596.049 -1909517 -1894954 -1903882 -1947791 -2035993 -2175706 -2371009 
3596.471 -2621450 -2916268 -3230794 -3519825 -3722278 -3787470 -3702539 
3596.893 -3502082 -3242779 -2978027 -2742327 -2552405 -2417245 -2340525 
3597.315 -2322695 -2359767 -2440612 -2544838 -2642881 -2705323 -2710338 
3597.737 -2653368 -2547544 -2417878 -2290376 -2182664 -2101501 -2044440 
3598.159 -2002388 -1964171 -1921558 -1871519 -1816565 -1762759 -1716970 
3598.581 -1684456 -1667355 -1665299 -1676655 -1700071 -1735095 -1782382 
3599.003 -1843027 -1917919 -2007213 -2110134 -2224404 -2346139 -2468966 
3599.426 -2583340 -2678362 -2743494 -2772061 -2763387 -2722511 -2657884 
3599.848 -2578373 -2492309 -2406046 -2324080 -2249876 -2185673 -2132878 
3600.270 -2092073 -2062887 -2044254 -2034782 -2033540 -2040631 -2057572 
3600.692 -2086737 -2130522 -2189482 -2261053 -2338230 -2410741 -2466947 
3601.114 -2495966 -2491323 -2451649 -2380941 -2286542 -2177805 -2064053 
3601.536 -1952996 -1851556 -1765870 -1701740 -1665850 -1664919 -1705178 
3601.958 -1791711 -1927077 -2109922 -2332519 -2580315 -2828012 -3041336 
3602.380 -3186384 -3239679 -3200957 -3092122 -2947877 -2799612 -2666788 
3602.802 -2557054 -2468124 -2393163 -2324759 -2258291 -2192381 -2128014 
3603.225 -2066502 -2008260 -1952486 -1898227 -1846132 -1799329 -1762857 
3603.647 -1742143 -1739925 -1754642 -1780086 -1808455 -1833581 -1854797 
3604.069 -1877666 -1912114 -1967214 -2045537 -2139073 -2228629 -2289446 
3604.491 -2297875 -2243499 -2133743 -1992609 -1850006 -1733271 -1660005 
3604.913 -1634188 -1648708 -1688889 -1738871 -1784414 -1816581 -1832307 
3605.335 -1832660 -1821099 -1801487 -1777761 -1753407 -1732100 -1718053 
3605.757 -1715231 -1726782 -1753725 -1794274 -1843354 -1893301 -1936033 
3606.179 -1964066 -1973398 -1964630 -1942985 -1916337 -1892613 -1877394 
3606.602 -1871821 -1872729 -1873811 -1868708 -1852953 -1825931 -1790560 
3607.024 -1751886 -1714521 -1680851 -1651001 -1623924 -1599494 -1580257 
3607.446 -1571301 -1578922 -1607953 -1659045 -1727967 -1806853 -1888806 
3607.868 -1971691 -2062138 -2174934 -2331803 -2555401 -2863914 -3262762 
3608.290 -3736338 -4237180 -4680143 -4966655 -5021878 -4836623 -4467531 
3608.712 -4003607 -3526086 -3087734 -2719595 -2433642 -2229255 -2098091 
3609.134 -2025084 -1991353 -1976881 -1966441 -1951865 -1933995 -1920227 
3609.556 -1920297 -1940511 -1980173 -2031908 -2085514 -2133607 -2175032 
3609.979 -2216672 -2271111 -2353471 -2476557 -2650266 -2883002 -3187289 
3610.401 -3583650 -4101865 -4772341 -5576468 -6360040 -6818912 -6725263 
3610.823 -6183523 -5471373 -4787677 -4203227 -3724802 -3340157 -3032077 
3611.245 -2786243 -2590280 -2432991 -2304585 -2196999 -2104658 -2024097 
3611.667 -1953867 -1893809 -1844221 -1805333 -1776861 -1757630 -1745406 
3612.089 -1736748 -1727289 -1712919 -1690620 -1659983 -1623589 -1587292 
3612.511 -1558619 -1544571 -1550486 -1578043 -1625230 -1686853 -1756583 
3612.933 -1828438 -1898183 -1964259 -2027386 -2090119 -2155854 -2228679 
3613.355 -2313058 -2413866 -2537187 -2690659 -2884124 -3129520 -3439851 
3613.778 -3823825 -4270500 -4730847 -5100435 -5256817 -5153076 -4858580 
3614.200 -4491252 -4134012 -3822123 -3556643 -3325231 -3114479 -2915450 
3614.622 -2725750 -2549125 -2391683 -2259034 -2153467 -2072767 -2010905 
3615.044 -1959578 -1911166 -1860445 -1807012 -1755574 -1716040 -1701228 
3615.466 -1724996 -1801487 -1942139 -2154369 -2437452 -2779387 -3148042 
3615.888 -3487743 -3731696 -3822890 -3748230 -3545322 -3283741 -3029923 
3616.310 -2827935 -2700416 -2648823 -2659885 -2708538 -2765495 -2802371 
3616.732 -2800352 -2755483 -2675951 -2576665 -2471671 -2371455 -2280710 
3617.155 -2199443 -2125124 -2054782 -1986722 -1921396 -1861388 -1810959 
3617.577 -1775156 -1758241 -1763233 -1790729 -1838520 -1900850 -1968746 
3617.999 -2031636 -2078137 -2099616 -2091969 -2056618 -2000059 -1933019 
3618.421 -1869273 -1822573 -1806659 -1833953 -1915113 -2060830 -2281911 
3618.843 -2589241 -2986454 -3459297 -3961660 -4406655 -4698699 -4783169 
3619.265 -4674202 -4430038 -4114754 -3776314 -3442934 -3133393 -2861085 
3619.687 -2634849 -2460651 -2338805 -2263988 -2226195 -2213130 -2212887 
3620.109 -2216200 -2219474 -2225078 -2240799 -2276569 -2342381 -2445642 
3620.531 -2591036 -2782082 -3024743 -3333118 -3728080 -4239534 -4891601 
3620.954 -5649975 -6351453 -6707774 -6534567 -5953495 -5229363 -4543687 
3621.376 -3958375 -3479037 -3091462 -2778551 -2527298 -2326907 -2168678 
3621.798 -2046283 -1955689 -1895582 -1867174 -1873027 -1916204 -1999046 
3622.220 -2122571 -2285501 -2482600 -2703187 -2925639 -3117618 -3242601 
3622.642 -3270507 -3193831 -3029978 -2812630 -2575622 -2345884 -2140909 
3623.064 -1968446 -1830668 -1725741 -1649808 -1598781 -1569636 -1560885 
3623.486 -1572125 -1603236 -1653199 -1719308 -1797126 -1880462 -1961628 
3623.908 -2032895 -2086797 -2117671 -2123353 -2105825 -2071572 -2029941 
3624.331 -1992030 -1967201 -1960392 -1970402 -1989650 -2006406 -2008573 
3624.753 -1989498 -1950278 -1900225 -1852826 -1822840 -1821207 -1851794 
3625.175 -1910585 -1986282 -2063816 -2126550 -2161563 -2161743 -2126521 
3625.597 -2061270 -1975836 -1882902 -1794799 -1722910 -1675186 -1654440 
3626.019 -1658047 -1678578 -1706564 -1732647 -1750941 -1760007 -1762310 
3626.441 -1762243 -1763825 -1768663 -1775172 -1779182 -1776011 -1763118 
3626.863 -1741571 -1716732 -1696875 -1692771 -1715301 -1773947 -1876337 
3627.285 -2026232 -2222043 -2453584 -2701895 -2937368 -3124119 -3232074 
3627.708 -3246042 -3173244 -3037774 -2871485 -2701344 -2543369 -2404325 
3628.130 -2283807 -2179207 -2088960 -2013941 -1956588 -1918651 -1898966 
3628.552 -1892508 -1891379 -1888207 -1879005 -1866743 -1861366 -1879259 
3628.974 -1938071 -2052336 -2230306 -2472012 -2770357 -3113452 -3492941 
3629.396 -3907060 -4366601 -4899058 -5544284 -6332682 -7221552 -7987049 
3629.818 -8264862 -7900093 -7129618 -6277480 -5517883 -4900931 -4422680 
3630.240 -4072621 -3843345 -3727554 -3719933 -3813389 -4001550 -4278785 
3630.662 -4646002 -5117443 -5717986 -6476260 -7365717 -8152625 -8354919 
3631.084 -7745806 -6729273 -5759097 -4983964 -4385909 -3916116 -3538915 
3631.507 -3232664 -2984385 -2787880 -2638341 -2531390 -2462978 -2429149 
3631.929 -2426358 -2450600 -2496407 -2554142 -2608806 -2642990 -2639380 
3632.351 -2587602 -2488066 -2352065 -2198681 -2049504 -1925853 -1842665 
3632.773 -1806996 -1817264 -1864823 -1936125 -2015570 -2089279 -2144722 
3633.195 -2172343 -2166758 -2127152 -2058441 -1970653 -1878504 -1797409 
3633.617 -1740479 -1716015 -1724846 -1760618 -1811550 -1865083 -1910294 
3634.039 -1940923 -1955743 -1957048 -1948583 -1933504 -1914099 -1892134 
3634.461 -1870269 -1853763 -1850286 -1869187 -1920052 -2010288 -2145028 
3634.884 -2327020 -2557510 -2833367 -3142751 -3459579 -3732909 -3896302 
3635.306 -3897562 -3735159 -3464416 -3161849 -2888152 -2669882 -2509112 
3635.728 -2393219 -2304707 -2227030 -2149683 -2070423 -1994442 -1931032 
3636.150 -1888682 -1872157 -1880256 -1906999 -1943761 -1983066 -2020173 
3636.572 -2053240 -2081813 -2104335 -2116620 -2112580 -2085918 -2033777 
3636.994 -1958967 -1870551 -1781339 -1703990 -1648564 -1619315 -1615130 
3637.416 -1630642 -1658924 -1693131 -1728094 -1761025 -1790799 -1817404 
3637.838 -1841235 -1862658 -1881788 -1898272 -1911023 -1918363 -1918077 
3638.260 -1908128 -1887746 -1858179 -1823247 -1788360 -1759682 -1742195 
3638.683 -1738015 -1746081 -1762641 -1783215 -1804383 -1825966 -1851511 
3639.105 -1887908 -1942893 -2022510 -2127635 -2251827 -2379655 -2488908 
3639.527 -2557823 -2570529 -2524087 -2428733 -2304588 -2174027 -2055705 
3639.949 -1962175 -1896974 -1855924 -1828886 -1803992 -1770394 -1721926 
3640.371 -1658886 -1587596 -1518313 -1461497 -1425936 -1415864 -1430621 
3640.793 -1465075 -1511558 -1561719 -1607847 -1644956 -1670783 -1685724 
3641.215 -1691662 -1690875 -1684644 -1672782 -1653933 -1626931 -1592269 
3641.637 -1553168 -1515248 -1485019 -1468185 -1467173 -1480449 -1502847 
3642.060 -1528010 -1550387 -1567626 -1581178 -1595377 -1615002 -1642732 
3642.482 -1677876 -1716553 -1753652 -1785066 -1809891 -1830782 -1852670 
3642.904 -1879964 -1914479 -1953687 -1991337 -2018768 -2028209 -2016026 
3643.326 -1984032 -1939322 -1891883 -1852940 -1832123 -1835989 -1867689 
3643.748 -1925926 -2004055 -2089279 -2165087 -2212730 -2217173 -2172687 
3644.170 -2084482 -1967594 -1841496 -1727320 -1642027 -1596766 -1596185 
3644.592 -1637468 -1710973 -1801265 -1891385 -1964446 -2007564 -2014745 
3645.014 -1987118 -1932915 -1864607 -1797116 -1743092 -1710122 -1699762 
3645.437 -1707612 -1725333 -1742879 -1751975 -1746724 -1724298 -1684421 
3645.859 -1628616 -1560016 -1483331 -1405892 -1337125 -1287270 -1266492 
3646.281 -1281827 -1335814 -1425609 -1543551 -1677532 -1812300 -1932772 
3646.703 -2024749 -2078111 -2089146 -2061251 -2004688 -1933698 -1864759 
3647.125 -1811604 -1782862 -1781329 -1804593 -1848190 -1909625 -1991521 
3647.547 -2102312 -2253173 -2452084 -2695592 -2961206 -3208156 -3383957 
3647.969 -3451406 -3409524 -3298146 -3176933 -3105269 -3131441 -3285792 
3648.391 -3583244 -4018157 -4564136 -5165110 -5749255 -6252718 -6634452 
3648.813 -6871206 -6937575 -6800789 -6448175 -5919493 -5304806 -4700466 
3649.236 -4170899 -3739786 -3400183 -3134447 -2923601 -2753107 -2615227 
3649.658 -2508281 -2433974 -2395170 -2393508 -2429040 -2500859 -2608278 
3650.080 -2750862 -2927377 -3135886 -3372274 -3631304 -3911142 -4215494 
3650.502 -4561118 -4982232 -5520285 -6155815 -6698586 -6868049 -6616199 
3650.924 -6121384 -5547803 -4976114 -4439420 -3954772 -3531135 -3177907 
3651.346 -2901307 -2702564 -2582038 -2538603 -2572674 -2688551 -2895291 
3651.768 -3205786 -3630073 -4166577 -4775936 -5350994 -5730922 -5784376 
3652.190 -5530960 -5121445 -4725323 -4443644 -4313447 -4346113 -4541356 
3652.613 -4890899 -5353733 -5830654 -6147933 -6132497 -5756363 -5151063 
3653.035 -4488261 -3876217 -3360301 -2946487 -2624198 -2380646 -2201752 
3653.457 -2073853 -1983839 -1920544 -1875683 -1844291 -1824870 -1817979 
3653.879 -1824581 -1844614 -1875896 -1914070 -1953510 -1987792 -2011458 
3654.301 -2021270 -2016700 -2000122 -1975826 -1948561 -1921425 -1895027 
3654.723 -1867079 -1833581 -1790093 -1733771 -1664789 -1586963 -1507037 
3655.145 -1432935 -1372768 -1332662 -1316043 -1323741 -1354179 -1404002 
3655.567 -1468439 -1542131 -1618737 -1691372 -1753767 -1800410 -1828044 
3655.990 -1836262 -1827657 -1807269 -1781431 -1757350 -1741262 -1737977 
3656.412 -1750209 -1777904 -1818249 -1865775 -1913956 -1955990 -1987356 
3656.834 -2007640 -2021624 -2038731 -2070552 -2128881 -2221946 -2353499 
3657.256 -2523259 -2730642 -2978531 -3277737 -3652736 -4140437 -4774381 
3657.678 -5532366 -6235810 -6570523 -6382707 -5843365 -5207241 -4614318 
3658.100 -4105054 -3674705 -3310199 -3001463 -2741506 -2527610 -2358552 
3658.522 -2232116 -2144590 -2089819 -2060198 -2047086 -2042774 -2041693 
3658.944 -2040410 -2037748 -2033603 -2027835 -2019521 -2006982 -1988736 
3659.366 -1964753 -1937415 -1911562 -1892841 -1886344 -1894072 -1913956 
3659.789 -1939788 -1963471 -1977324 -1976187 -1959059 -1928567 -1889675 
3660.211 -1847333 -1805362 -1765718 -1728890 -1694935 -1664434 -1638808 
3660.633 -1620167 -1610526 -1611216 -1622813 -1645240 -1678215 -1721031 
3661.055 -1772312 -1828673 -1883914 -1929809 -1956772 -1957285 -1929245 
3661.477 -1877727 -1814426 -1753983 -1710963 -1694320 -1706025 -1740597 
3661.899 -1787530 -1833409 -1865251 -1874201 -1856090 -1812186 -1747854 
3662.321 -1671465 -1592410 -1519507 -1460946 -1422614 -1407544 -1415479 
3662.743 -1442927 -1483552 -1529344 -1572975 -1608594 -1633329 -1647511 
3663.166 -1654130 -1657505 -1661545 -1669064 -1681010 -1696795 -1715152 
3663.588 -1735134 -1756631 -1780289 -1806802 -1835706 -1864299 -1887737 
3664.010 -1899274 -1892403 -1863426 -1812961 -1746911 -1675113 -1609712 
3664.432 -1560936 -1534692 -1531110 -1545204 -1568779 -1593448 -1613658 
3664.854 -1627160 -1634606 -1637685 -1637388 -1632870 -1622140 -1603517 
3665.276 -1577564 -1548097 -1522111 -1507203 -1509411 -1530902 -1569099 
3665.698 -1617374 -1667132 -1711008 -1743980 -1764862 -1775693 -1780785 
3666.120 -1784926 -1792233 -1805661 -1826176 -1852905 -1882264 -1908794 
3666.542 -1925080 -1923368 -1897976 -1846926 -1773938 -1687987 -1602872 
3666.965 -1533368 -1491352 -1483802 -1510138 -1562653 -1627585 -1689635 
3667.387 -1734194 -1751186 -1737636 -1697538 -1640748 -1579216 -1524997 
3667.809 -1486319 -1466219 -1462794 -1470851 -1484538 -1499249 -1513552 
3668.231 -1528749 -1547778 -1573014 -1604957 -1641501 -1678983 -1713222 
3668.653 -1741240 -1761820 -1775025 -1781192 -1779774 -1768893 -1746202 
3669.075 -1710396 -1662981 -1608981 -1557056 -1517977 -1501586 -1516077 
3669.497 -1566347 -1654245 -1779574 -1941769 -2141707 -2382622 -2672212 
3669.919 -3022691 -3447951 -3957957 -4536110 -5101982 -5499455 -5571117 
3670.342 -5308486 -4855803 -4372902 -3943508 -3587253 -3297978 -3061881 
3670.764 -2867214 -2706845 -2577183 -2477589 -2409259 -2373682 -2371819 
3671.186 -2402983 -2464496 -2551253 -2657289 -2778079 -2912017 -3061851 
3671.608 -3233947 -3436285 -3677031 -3963946 -4305136 -4716217 -5225811 
3672.030 -5882846 -6744248 -7776397 -8644323 -8814704 -8237385 -7347731 
3672.452 -6462402 -5672868 -4981133 -4376039 -3853895 -3412979 -3053710 
3672.874 -2773354 -2562861 -2410105 -2301706 -2226702 -2177616 -2150358 
3673.296 -2142057 -2148040 -2160866 -2170739 -2167001 -2141808 -2091568 
3673.719 -2017728 -1925508 -1822630 -1717598 -1618073 -1531682 -1465376 
3674.141 -1424590 -1412862 -1430015 -1471587 -1528714 -1590640 -1646631 
3674.563 -1688494 -1712804 -1720512 -1715891 -1703945 -1689221 -1674813 
3674.985 -1662846 -1656187 -1659482 -1679419 -1724668 -1803620 -1922972 
3675.407 -2085934 -2291344 -2532196 -2795036 -3063049 -3317898 -3546870 
3675.829 -3748154 -3933477 -4125335 -4351940 -4645945 -5041818 -5573658 
3676.251 -6255872 -7041824 -7747281 -8067382 -7841495 -7248555 -6590752 
3676.673 -6037318 -5631332 -5356451 -5183969 -5091153 -5061326 -5083980 
3677.095 -5153188 -5270058 -5445805 -5707371 -6101284 -6663946 -7305869 
3677.518 -7718462 -7641965 -7182421 -6578691 -5964766 -5387106 -4858586 
3677.940 -4385966 -3971869 -3615990 -3314914 -3060217 -2843091 -2658336 
3678.362 -2506973 -2397678 -2343401 -2354755 -2434911 -2573664 -2746847 
3678.784 -2915391 -3037063 -3079043 -3029688 -2903412 -2732468 -2553133 
3679.206 -2391404 -2261462 -2165980 -2100310 -2056653 -2026899 -2004542 
3679.628 -1984586 -1964047 -1941689 -1917681 -1893133 -1869504 -1847882 
3680.050 -1828565 -1811598 -1798111 -1791756 -1800464 -1836287 -1913306 
3680.472 -2047042 -2251440 -2537500 -2908807 -3355863 -3843991 -4299219 
3680.895 -4622889 -4730339 -4604556 -4301304 -3907229 -3494702 -3105349 
3681.317 -2761920 -2475089 -2249807 -2089525 -1993508 -1956113 -1966011 
3681.739 -2008497 -2067298 -2127146 -2177219 -2210482 -2223888 -2217292 
3682.161 -2192475 -2152508 -2101352 -2044074 -1985903 -1931609 -1885009 
3682.583 -1848171 -1821649 -1804914 -1796910 -1796318 -1801522 -1810527 
3683.005 -1820705 -1829061 -1833060 -1830957 -1822472 -1808645 -1791559 
3683.427 -1773546 -1756774 -1743184 -1734360 -1731628 -1735732 -1746116 
3683.849 -1760105 -1772611 -1777433 -1768476 -1742885 -1702903 -1656905 
3684.271 -1617007 -1595329 -1600049 -1631363 -1681198 -1734920 -1777153 
3684.694 -1795145 -1783177 -1743776 -1686671 -1625360 -1572276 -1536905 
3685.116 -1523141 -1530003 -1553344 -1588426 -1631622 -1681399 -1738410 
3685.538 -1804583 -1881912 -1971172 -2070704 -2175542 -2277720 -2365738 
3685.960 -2427069 -2451045 -2431292 -2368929 -2272934 -2159300 -2046229 
3686.382 -1951549 -1889028 -1864848 -1877540 -1917497 -1969969 -2016643 
3686.804 -2041121 -2033359 -1991600 -1923292 -1842255 -1765097 -1704433 
3687.226 -1665901 -1646535 -1637248 -1626797 -1607429 -1578906 -1549191 
3687.648 -1531673 -1539320 -1580558 -1654880 -1753328 -1860226 -1959255 
3688.071 -2037283 -2087409 -2110166 -2111624 -2100547 -2084617 -2070126 
3688.493 -2061680 -2062988 -2078092 -2110607 -2162462 -2232755 -2317622 
3688.915 -2411691 -2510589 -2613920 -2727141 -2861407 -3028177 -3237942 
3689.337 -3496026 -3803276 -4155402 -4548507 -4986241 -5484479 -6083315 
3689.759 -6852794 -7864320 -9026392 -9808410 -9603851 -8649658 -7553557 
3690.181 -6588970 -5783144 -5103216 -4520744 -4019704 -3596932 -3252326 
3690.603 -2984248 -2787796 -2650085 -2551909 -2470390 -2386129 -2287057 
3691.025 -2172302 -2051147 -1940035 -1856385 -1812551 -1814439 -1860836 
3691.448 -1946648 -2065598 -2213120 -2386060 -2580134 -2787728 -2995046 
3691.870 -3182476 -3330185 -3423110 -3458431 -3447332 -3414437 -3390240 
3692.292 -3403627 -3481579 -3647576 -3925586 -4339058 -4903314 -5590089 
3692.714 -6264449 -6678600 -6610809 -6089429 -5348167 -4607539 -3972574 
3693.136 -3462914 -3067167 -2763605 -2531474 -2354639 -2221511 -2125089 
3693.558 -2062009 -2030153 -2025919 -2041320 -2064309 -2079163 -2071746 
3693.980 -2035120 -1972046 -1894621 -1818999 -1760780 -1728731 -1723588 
3694.402 -1739040 -1765552 -1793654 -1817016 -1834127 -1847129 -1859918 
3694.824 -1875534 -1894982 -1916695 -1937687 -1954092 -1962463 -1960158 
3695.247 -1945906 -1920474 -1887363 -1853270 -1826503 -1815885 -1827475 
3695.669 -1861671 -1911730 -1964794 -2006580 -2025435 -2017914 -1989315 
3696.091 -1951669 -1917938 -1897520 -1893387 -1901786 -1914707 -1923796 
3696.513 -1924386 -1916273 -1902975 -1888666 -1875794 -1863578 -1849019 
3696.935 -1828905 -1802587 -1773196 -1747564 -1733453 -1737840 -1764855 
3697.357 -1814941 -1885405 -1971093 -2065826 -2161743 -2249798 -2320475 
3697.779 -2364116 -2374197 -2349391 -2295000 -2221127 -2139780 -2061118 
3698.201 -1990115 -1926855 -1867924 -1809659 -1750664 -1693395 -1643205 
3698.624 -1606714 -1588445 -1589104 -1605353 -1631612 -1662712 -1696222 
3699.046 -1733539 -1779026 -1837415 -1910512 -1994546 -2078961 -2148964 
3699.468 -2187907 -2183884 -2133866 -2044864 -1931638 -1812345 -1704844 
3699.890 -1621249 -1566983 -1540007 -1532843 -1535031 -1537420 -1535907 
3700.312 -1532136 -1532738 -1545204 -1574548 -1619650 -1673146 -1723314 
3700.734 -1759841 -1778171 -1782490 -1784054 -1797689 -1835404 -1900904 
3701.156 -1987432 -2078882 -2156405 -2203563 -2213779 -2190831 -2146018 
3701.578 -2091713 -2037081 -1986289 -1938841 -1892330 -1845011 -1797275 
3702.000 -1751393 -1709874 -1673646 -1641447 -1610750 -1580174 -1552100 
3702.423 -1534161 -1538994 -1583261 -1683321 -1853772 -2105162 -2444336 
3702.845 -2874096 -3393975 -4002290 -4684775 -5400971 -6061759 -6510171 
3703.267 -6579457 -6219510 -5564777 -4824412 -4146774 -3586109 -3136133 
3703.689 -2773161 -2474707 -2225761 -2020549 -1859312 -1744263 -1676936 
3704.111 -1655336 -1673965 -1724773 -1799647 -1891388 -1993195 -2098479 
3704.533 -2198706 -2282675 -2338350 -2354071 -2322783 -2244871 -2128941 
3704.955 -1989675 -1843506 -1706691 -1591464 -1505980 -1454868 -1438965 
3705.377 -1455845 -1499701 -1562410 -1633434 -1701568 -1757455 -1794322 
3705.800 -1810263 -1808467 -1797046 -1786382 -1786385 -1804383 -1842560 
3706.222 -1897831 -1962587 -2027747 -2084981 -2129730 -2162430 -2187586 
3706.644 -2210831 -2235289 -2259641 -2277846 -2281433 -2262207 -2216499 
3707.066 -2146633 -2061077 -1970858 -1886630 -1815300 -1758632 -1714789 
3707.488 -1681020 -1656710 -1645090 -1652889 -1687968 -1756793 -1860877 
3707.910 -1995208 -2146965 -2298300 -2428100 -2516123 -2549031 -2522402 
3708.332 -2442429 -2322921 -2183042 -2042316 -1916546 -1817410 -1749693 
3708.754 -1711575 -1695345 -1690377 -1685979 -1674459 -1653795 -1627460 
3709.177 -1603077 -1589295 -1594185 -1623142 -1678304 -1759036 -1862067 
3709.599 -1981712 -2108603 -2230448 -2332723 -2400995 -2426304 -2408087 
3710.021 -2356183 -2287761 -2225393 -2191855 -2205868 -2283134 -2435807 
3710.443 -2675624 -3016123 -3475495 -4073803 -4814594 -5654764 -6442771 
3710.865 -6905562 -6816300 -6227038 -5429826 -4682193 -4099242 -3685393 
3711.287 -3401228 -3200188 -3041003 -2893620 -2740470 -2578086 -2414221 
3711.709 -2263761 -2141770 -2061007 -2029046 -2047800 -2114395 -2221861 
3712.131 -2360696 -2517981 -2679393 -2830570 -2957767 -3051570 -3108082 
3712.553 -3129610 -3122697 -3096340 -3060192 -3023402 -2996595 -2992550 
3712.976 -3025433 -3111262 -3264536 -3496555 -3813086 -4216384 -4708205 
3713.398 -5290608 -5972428 -6755636 -7588154 -8271491 -8455337 -7991247 
3713.820 -7185294 -6408281 -5793453 -5324768 -4954876 -4643107 -4362331 
3714.242 -4096730 -3838947 -3588558 -3351048 -3134320 -2947326 -2797223 
3714.664 -2687034 -2615286 -2575182 -2555695 -2542138 -2520041 -2478600 
3715.086 -2412917 -2325849 -2226825 -2129222 -2044974 -1981879 -1941144 
3715.508 -1918147 -1904789 -1893729 -1882312 -1874376 -1879827 -1911369 
3715.930 -1981851 -2099379 -2264104 -2463645 -2672699 -2853397 -2964979 
3716.353 -2982160 -2904493 -2755651 -2568343 -2373789 -2193587 -2039101 
3716.775 -1915735 -1824117 -1762361 -1727209 -1714674 -1720254 -1738581 
3717.197 -1763917 -1789546 -1808318 -1814242 -1803166 -1774679 -1732383 
3717.619 -1683853 -1638518 -1605123 -1590097 -1595303 -1618153 -1652625 
3718.041 -1692076 -1731135 -1767620 -1802844 -1840530 -1884574 -1936515 
3718.463 -1993761 -2049147 -2092626 -2112832 -2101501 -2055891 -1980515 
3718.885 -1886230 -1788538 -1704328 -1646644 -1623155 -1633837 -1672103 
3719.307 -1726502 -1784900 -1838310 -1882220 -1917320 -1947639 -1978587 
3719.729 -2014583 -2058874 -2114480 -2185598 -2279374 -2405971 -2576134 
3720.152 -2797431 -3067254 -3367028 -3652940 -3861956 -3932808 -3835262 
3720.574 -3592472 -3267477 -2931580 -2633034 -2394201 -2216234 -2088015 
3720.996 -1995195 -1925825 -1874103 -1840591 -1830147 -1847422 -1892733 
3721.418 -1958980 -2031873 -2092121 -2122893 -2114508 -2068344 -1995388 
3721.840 -1912558 -1836722 -1779071 -1744470 -1730982 -1732867 -1743344 
3722.262 -1758222 -1777249 -1803881 -1843074 -1898906 -1972439 -2061181 
3722.684 -2159706 -2261500 -2361317 -2455792 -2543794 -2625851 -2703598 
3723.106 -2779769 -2859130 -2950493 -3067167 -3227285 -3452060 -3760046 
3723.529 -4155456 -4607158 -5036330 -5321820 -5367222 -5171511 -4825112 
3723.951 -4440709 -4096272 -3830882 -3649556 -3538371 -3471993 -3421248 
3724.373 -3358525 -3265120 -3136657 -2980474 -2810248 -2638818 -2476356 
3724.795 -2329168 -2200621 -2092575 -2005074 -1936011 -1881223 -1835801 
3725.217 -1795915 -1761442 -1737216 -1733071 -1760993 -1829820 -1940739 
3725.639 -2082903 -2234939 -2367229 -2453863 -2483260 -2464073 -2422572 
3726.061 -2393696 -2411663 -2498078 -2656397 -2863647 -3071866 -3212769 
3726.483 -3229112 -3109189 -2894532 -2654568 -2450155 -2321474 -2282103 
3726.906 -2326744 -2435347 -2578232 -2718471 -2818453 -2852556 -2812652 
3727.328 -2711701 -2576284 -2439594 -2331181 -2271564 -2274614 -2347830 
3727.750 -2496063 -2722075 -3026391 -3398838 -3801952 -4162871 -4384196 
3728.172 -4403140 -4239624 -3974076 -3683853 -3409876 -3164905 -2945849 
3728.594 -2746473 -2564770 -2404541 -2274287 -2184240 -2140774 -2143805 
3729.016 -2184312 -2245500 -2302960 -2330961 -2311915 -2242143 -2135342 
3729.438 -2016219 -1913921 -1851207 -1839930 -1878593 -1952505 -2036237 
3729.860 -2099243 -2117358 -2078506 -1987954 -1864797 -1736633 -1629854 
3730.282 -1562180 -1541696 -1565654 -1624064 -1702582 -1787708 -1868920 
3730.705 -1940210 -2000486 -2052051 -2098883 -2144602 -2191599 -2240113 
3731.127 -2288255 -2332192 -2367225 -2389030 -2394383 -2382243 -2353835 
3731.549 -2312464 -2262610 -2209528 -2158587 -2114114 -2079934 -2058944 
3731.971 -2053151 -2063974 -2091925 -2136522 -2195906 -2266922 -2344908 
3732.393 -2423265 -2494393 -2549862 -2581892 -2585794 -2561249 -2513709 
3732.815 -2453566 -2396361 -2360291 -2362939 -2420457 -2544491 -2743011 
3733.237 -3022086 -3393372 -3880881 -4526751 -5392494 -6510713 -7734977 
3733.659 -8592469 -8606505 -7907498 -6972533 -6101345 -5370364 -4766932 
3734.082 -4265434 -3844276 -3490122 -3196340 -2957476 -2768875 -2625087 
3734.504 -2519651 -2445649 -2395684 -2363451 -2341175 -2321392 -2297332 
3734.926 -2263569 -2218369 -2164769 -2111141 -2069140 -2052386 -2074703 
3735.348 -2147611 -2280553 -2479320 -2745332 -3072296 -3444893 -3840479 
3735.770 -4230180 -4590318 -4911512 -5204343 -5493674 -5807607 -6160951 
3736.192 -6537546 -6871874 -7051214 -6972437 -6619417 -6097181 -5555813 
3736.614 -5118026 -4843274 -4744849 -4809640 -4998088 -5237725 -5422858 
3737.036 -5461986 -5321198 -5036463 -4675023 -4297928 -3945862 -3641049 
3737.458 -3400002 -3234439 -3151876 -3156754 -3248738 -3425578 -3685807 
3737.881 -4036035 -4493597 -5085427 -5839961 -6734256 -7589654 -8030524 
3738.303 -7756863 -6933194 -5969494 -5125639 -4461608 -3951898 -3557211 
3738.725 -3242607 -2983156 -2762604 -2571053 -2404105 -2261651 -2146107 
3739.147 -2061927 -2014134 -2007203 -2045221 -2131456 -2268655 -2459008 
3739.569 -2703791 -3000513 -3335766 -3680301 -3981898 -4173765 -4205389 
3739.991 -4070418 -3812737 -3496717 -3180937 -2901527 -2673614 -2500868 
3740.413 -2379043 -2300320 -2254765 -2231820 -2220869 -2212160 -2198996 
3740.835 -2177676 -2147983 -2112201 -2073834 -2035965 -2000296 -1967277 
3741.258 -1936806 -1909650 -1888885 -1879805 -1889069 -1922611 -1982649 
3741.680 -2065845 -2162660 -2260434 -2345956 -2410425 -2452028 -2475568 
3742.102 -2490047 -2505053 -2529242 -2568589 -2627757 -2712125 -2828487 
3742.524 -2984419 -3183705 -3420048 -3667175 -3875848 -3989540 -3968240 
3742.946 -3815644 -3573852 -3299931 -3039044 -2815937 -2638482 -2501431 
3743.368 -2393495 -2302369 -2219597 -2142180 -2072776 -2016633 -1978410 
3743.790 -1958945 -1954501 -1957751 -1961076 -1959642 -1952436 -1942089 
3744.212 -1932829 -1928284 -1930053 -1937947 -1951447 -1971438 -2001657 
3744.635 -2048496 -2119214 -2220293 -2354909 -2522533 -2719545 -2942818 
3745.057 -3193083 -3477890 -3815450 -4235975 -4780474 -5493437 -6395732 
3745.479 -7441405 -8494117 -9374256 -9975629 -10314722 -10504356 -10678088 
3745.901 -10975856 -11567053 -12637985 -14213115 -15751164 -16382925 
3746.263 -15938096 -14861655 -13501753 -11994765 -10433974 -8939277 -7611927 
3746.685 -6501505 -5599748 -4869389 -4270008 -3772159 -3360868 -3028779 
3747.107 -2774243 -2594700 -2481773 -2421532 -2396117 -2389331 -2389393 
3747.529 -2392416 -2400995 -2420934 -2456065 -2504818 -2558604 -2605277 
3747.951 -2633068 -2634973 -2610669 -2564910 -2505150 -2438921 -2374162 
3748.373 -2319253 -2283502 -2278264 -2314343 -2399453 -2533987 -2707424 
3748.795 -2895006 -3058373 -3158399 -3168291 -3088645 -2945700 -2778868 
3749.218 -2622074 -2493326 -2396728 -2326006 -2271740 -2226510 -2188758 
3749.640 -2163016 -2157837 -2181193 -2237652 -2326543 -2443215 -2581002 
3750.062 -2734603 -2902491 -3086867 -3293189 -3528707 -3800692 -4117530 
3750.484 -4490869 -4939179 -5499773 -6246733 -7326796 -9010718 -11644808 
3750.906 -14885604 -16267668 -14404216 -11666672 -9514511 -7983405 -6851546 
3751.328 -5960760 -5226422 -4607337 -4087826 -3665001 -3335536 -3094714 
3751.750 -2931019 -2826525 -2760048 -2713239 -2676235 -2649297 -2641416 
3752.172 -2664641 -2728277 -2832427 -2965205 -3103436 -3221513 -3298828 
3752.594 -3328021 -3316234 -3281747 -3247185 -3232578 -3254447 -3322496 
3753.017 -3440124 -3604571 -3808797 -4043263 -4296287 -4559098 -4827184 
3753.439 -5106480 -5424343 -5852953 -6545580 -7738764 -9489623 -10974379 
3753.861 -11064668 -10040234 -8743321 -7556054 -6551091 -5713771 -5018794 
3754.283 -4446025 -3976547 -3596373 -3292934 -3053083 -2864630 -2715548 
3754.705 -2595293 -2495966 -2413829 -2349523 -2307482 -2293149 -2310017 
3755.127 -2355831 -2420636 -2486042 -2529073 -2531433 -2485015 -2396361 
3755.549 -2282609 -2166292 -2067090 -1997385 -1962036 -1958102 -1977235 
3755.971 -2007440 -2036749 -2054738 -2054564 -2034482 -1997761 -1952372 
3756.394 -1908521 -1877593 -1868473 -1884882 -1923986 -1976567 -2029540 
3756.816 -2068641 -2083856 -2071939 -2037685 -1991603 -1946857 -1914346 
3757.238 -1898998 -1899870 -1911692 -1928779 -1949081 -1976260 -2020716 
3757.660 -2099067 -2230420 -2434024 -2725284 -3110731 -3574862 -4062193 
3758.082 -4474657 -4691059 -4640065 -4350567 -3925002 -3467084 -3039646 
3758.504 -2669358 -2358439 -2100636 -1890268 -1724560 -1604795 -1534177 
3758.926 -1514448 -1543480 -1613399 -1711759 -1822186 -1927983 -2015817 
3759.348 -2076406 -2106703 -2109080 -2089875 -2056672 -2016396 -1973990 
3759.771 -1931663 -1890012 -1849556 -1812519 -1784452 -1774370 -1793104 
3760.193 -1852026 -1958910 -2114682 -2308993 -2519538 -2713588 -2855116 
3760.615 -2921064 -2911596 -2852692 -2782706 -2742909 -2767137 -2879901 
3761.037 -3101783 -3450374 -3938391 -4550694 -5213580 -5766571 -6007883 
3761.459 -5847228 -5376377 -4773383 -4173726 -3646357 -3212695 -2870024 
3761.881 -2609733 -2419238 -2284096 -2188660 -2118065 -2060584 -2008696 
3762.303 -1960177 -1916597 -1881103 -1855899 -1840750 -1832450 -1825982 
3762.725 -1815646 -1797126 -1768998 -1733195 -1694673 -1660031 -1636160 
3763.147 -1627725 -1635943 -1658028 -1688306 -1719608 -1745743 -1763927 
3763.570 -1775280 -1784210 -1795721 -1813063 -1835125 -1856318 -1867736 
3763.992 -1861223 -1832819 -1784910 -1725728 -1666941 -1619857 -1591097 
3764.414 -1581488 -1586008 -1596565 -1604478 -1604210 -1595169 -1581756 
3764.836 -1571636 -1572860 -1591589 -1629315 -1682244 -1741376 -1795457 
3765.258 -1832758 -1844707 -1828645 -1788564 -1734637 -1680102 -1639587 
3765.680 -1624805 -1642139 -1691572 -1766538 -1855147 -1941784 -2011518 
3766.102 -2051903 -2056021 -2024180 -1963863 -1888019 -1811076 -1747605 
3766.524 -1708733 -1701263 -1728916 -1793769 -1899169 -2052475 -2266916 
3766.947 -2561952 -2960138 -3480364 -4115170 -4795894 -5374662 -5659578 
3767.369 -5552854 -5129263 -4560739 -3989664 -3486744 -3073651 -2744931 
3767.791 -2488971 -2295666 -2157433 -2069004 -2024774 -2017089 -2034808 
3768.213 -2064410 -2093005 -2109367 -2107038 -2084459 -2043827 -1989254 
3768.635 -1925131 -1855934 -1786032 -1720643 -1665847 -1626985 -1607598 
3769.057 -1607739 -1623985 -1650379 -1680959 -1711992 -1742605 -1774386 
3769.479 -1809103 -1846431 -1882838 -1912101 -1927720 -1926322 -1909545 
3769.901 -1884339 -1860131 -1846336 -1848533 -1867009 -1897317 -1932535 
3770.323 -1966251 -1994315 -2016010 -2033277 -2049586 -2068694 -2094890 
3770.746 -2133497 -2191048 -2276384 -2400340 -2576094 -2820483 -3155592 
3771.168 -3610597 -4213512 -4968750 -5799209 -6486588 -6763679 -6550519 
3771.590 -6021136 -5397308 -4812820 -4312851 -3897359 -3555004 -3270956 
3772.012 -3030884 -2822225 -2634418 -2460003 -2295248 -2140001 -1996474 
3772.434 -1867651 -1755431 -1660413 -1582312 -1521065 -1478063 -1456332 
3772.856 -1459318 -1489216 -1544686 -1619915 -1704541 -1786843 -1856004 
3773.278 -1904437 -1929166 -1930924 -1913052 -1880132 -1837831 -1792319 
3773.700 -1749289 -1713572 -1687181 -1668522 -1652360 -1631909 -1601461 
3774.123 -1559338 -1509357 -1460407 -1423673 -1407987 -1417477 -1449622 
3774.545 -1496871 -1548539 -1594664 -1628517 -1646414 -1647696 -1633364 
3774.967 -1605631 -1567808 -1525301 -1485893 -1457991 -1449260 -1463579 
3775.389 -1499188 -1548683 -1601240 -1646784 -1678399 -1694884 -1699494 
3775.811 -1697637 -1693262 -1687264 -1677822 -1662677 -1641900 -1619711 
3776.233 -1603393 -1601180 -1617955 -1652401 -1696027 -1735659 -1758037 
3776.655 -1753347 -1719353 -1661542 -1591739 -1523426 -1469249 -1437997 
3777.077 -1433044 -1453092 -1493052 -1546038 -1603805 -1658592 -1704343 
3777.500 -1737015 -1755759 -1762492 -1761302 -1756561 -1751596 -1747421 
3777.922 -1742478 -1733134 -1715098 -1685055 -1641606 -1586078 -1522280 
3778.344 -1456537 -1396399 -1349512 -1322870 -1320585 -1343284 -1387398 
3778.766 -1446286 -1511418 -1574768 -1631469 -1680341 -1723776 -1765578 
3779.188 -1808877 -1853578 -1895889 -1928671 -1944338 -1937402 -1906508 
3779.610 -1854982 -1789670 -1719088 -1650851 -1591704 -1546985 -1520591 
3780.032 -1515261 -1531816 -1568962 -1622168 -1685794 -1754935 -1827552 
3780.454 -1906936 -2002764 -2131194 -2312788 -2572137 -2934736 -3422994 
3780.876 -4040356 -4745643 -5428580 -5910741 -6040884 -5799713 -5299143 
3781.299 -4683772 -4060211 -3487523 -2989411 -2576690 -2254114 -2020577 
3781.721 -1871145 -1794468 -1774049 -1789139 -1819123 -1847260 -1861963 
3782.143 -1859255 -1841502 -1815681 -1789756 -1770470 -1761168 -1760875 
3782.565 -1764926 -1766710 -1760468 -1743073 -1715760 -1683576 -1654414 
3782.987 -1635783 -1632340 -1644328 -1667317 -1693634 -1714680 -1724349 
3783.409 -1720203 -1704388 -1682126 -1660254 -1644631 -1638514 -1642391 
3783.831 -1654200 -1670295 -1686033 -1696913 -1699106 -1690113 -1669791 
3784.253 -1640831 -1609054 -1581967 -1568115 -1574346 -1603706 -1654280 
3784.676 -1719114 -1787915 -1848365 -1889767 -1904928 -1891398 -1851975 
3785.098 -1793953 -1727597 -1663114 -1609986 -1575231 -1562883 -1574957 
3785.520 -1612113 -1674842 -1764031 -1880820 -2025498 -2194803 -2380229 
3785.942 -2565194 -2724674 -2832057 -2866845 -2825786 -2725181 -2595714 
3786.364 -2468916 -2366052 -2296584 -2257779 -2239521 -2228065 -2211574 
3786.786 -2182595 -2139395 -2085271 -2026068 -1967698 -1914320 -1868971 
3787.208 -1834242 -1813095 -1809214 -1825874 -1864258 -1922049 -1992885 
3787.630 -2066922 -2132150 -2178246 -2198407 -2191338 -2161005 -2115269 
3788.052 -2063093 -2011534 -1965086 -1924886 -1889640 -1857185 -1826214 
3788.475 -1797301 -1773044 -1756694 -1750460 -1753417 -1760993 -1765244 
3788.897 -1757254 -1730985 -1685488 -1626902 -1566689 -1519587 -1497863 
3789.319 -1507421 -1545866 -1603466 -1666393 -1720802 -1758012 -1775410 
3789.741 -1776241 -1766268 -1750798 -1731861 -1708071 -1676601 -1636421 
3790.163 -1590723 -1548033 -1519545 -1515302 -1540324 -1591506 -1657789 
3790.585 -1722916 -1771937 -1794878 -1791190 -1769309 -1744515 -1732733 
3791.007 -1744521 -1781828 -1836570 -1893501 -1933935 -1943163 -1913797 
3791.429 -1848076 -1756220 -1653917 -1557593 -1479396 -1426077 -1397676 
3791.852 -1389282 -1393052 -1401346 -1408577 -1411579 -1409597 -1403184 
3792.274 -1393318 -1380773 -1366388 -1351549 -1338535 -1330667 -1331621 
3792.696 -1344042 -1368735 -1403755 -1444763 -1485605 -1520335 -1544574 
3793.118 -1556499 -1557228 -1550297 -1540609 -1532674 -1530259 -1535635 
3793.540 -1549645 -1572125 -1602179 -1638189 -1677558 -1716716 -1751179 
3793.962 -1775872 -1786595 -1780874 -1758903 -1723553 -1679639 -1632819 
3794.384 -1587692 -1547723 -1514941 -1490657 -1476456 -1474399 -1486584 
3794.806 -1513917 -1554680 -1603750 -1652516 -1691713 -1713212 -1712922 
3795.229 -1692111 -1656758 -1615458 -1575944 -1543771 -1520911 -1506838 
3795.651 -1500430 -1501880 -1513158 -1537206 -1575660 -1627030 -1685565 
3796.073 -1743302 -1791915 -1826529 -1847723 -1861540 -1876883 -1901430 
3796.495 -1938679 -1985773 -2034675 -2074532 -2096620 -2096898 -2077811 
3796.917 -2046865 -2014675 -1991454 -1983766 -1994448 -2022766 -2066458 
3797.339 -2123499 -2194217 -2282323 -2395762 -2546806 -2752140 -3031344 
3797.761 -3402879 -3869392 -4389641 -4857415 -5116931 -5070010 -4759628 
3798.183 -4321691 -3878029 -3491149 -3180142 -2937814 -2747643 -2591666 
3798.605 -2455072 -2329140 -2212897 -2111911 -2036018 -1994996 -1994344 
3799.028 -2033742 -2106053 -2199465 -2298275 -2387640 -2456446 -2498841 
3799.450 -2514488 -2506201 -2477045 -2428517 -2360479 -2272548 -2165841 
3799.872 -2044978 -1918677 -1798464 -1698220 -1630148 -1602234 -1617144 
3800.294 -1671331 -1755972 -1858004 -1963768 -2060499 -2138922 -2194854 
3800.716 -2228585 -2243823 -2245594 -2239584 -2230996 -2224275 -2223353 
3801.138 -2230848 -2247580 -2272148 -2301357 -2331310 -2359484 -2386665 
3801.560 -2417740 -2460686 -2523437 -2611118 -2722520 -2849453 -2977062 
3801.982 -3089879 -3178138 -3242687 -3295149 -3353526 -3435719 -3552989 
3802.405 -3708526 -3897571 -4112777 -4346086 -4596235 -4876775 -5226343 
3802.827 -5718814 -6440857 -7341682 -7999643 -8005943 -7524868 -6903055 
3803.249 -6299394 -5743708 -5229066 -4747556 -4298279 -3885050 -3517320 
3803.671 -3203777 -2949468 -2756892 -2624030 -2547119 -2523190 -2551799 
3804.093 -2635603 -2778542 -2982674 -3241709 -3533570 -3818205 -4035649 
3804.515 -4127239 -4064272 -3863024 -3573971 -3252873 -2942904 -2666143 
3804.937 -2431362 -2240947 -2094435 -1991135 -1929004 -1903219 -1904865 
3805.359 -1921783 -1941673 -1953741 -1952356 -1937554 -1913911 -1887556 
3805.781 -1863166 -1841874 -1820934 -1795145 -1759469 -1711820 -1654287 
3806.204 -1593087 -1536381 -1492834 -1468740 -1466834 -1486130 -1522396 
3806.626 -1569409 -1619781 -1666973 -1705716 -1732825 -1747628 -1751921 
3807.048 -1749776 -1746717 -1749572 -1765224 -1799294 -1855525 -1934211 
3807.470 -2031646 -2139758 -2248244 -2346584 -2427182 -2488542 -2536181 
3807.892 -2582182 -2641363 -2729260 -2858671 -3039415 -3279851 -3592256 
3808.314 -4000507 -4543090 -5263022 -6134554 -6914009 -7198912 -6889226 
3808.736 -6271823 -5611907 -5013622 -4494254 -4046158 -3662543 -3337914 
3809.158 -3066238 -2841369 -2654537 -2496723 -2360840 -2243883 -2147396 
3809.581 -2076153 -2034532 -2024047 -2040742 -2075733 -2115805 -2146955 
3810.003 -2157774 -2140588 -2093320 -2019094 -1925581 -1822964 -1722792 
3810.425 -1636405 -1572065 -1534187 -1522015 -1530182 -1549645 -1570412 
3810.847 -1584596 -1587573 -1579155 -1562694 -1543407 -1525908 -1512618 
3811.269 -1503061 -1494303 -1482012 -1462112 -1432474 -1393684 -1349528 
3811.691 -1305977 -1270766 -1251087 -1251721 -1273999 -1315050 -1368507 
3812.113 -1425699 -1478614 -1521321 -1551323 -1569809 -1580628 -1588810 
3812.535 -1598558 -1612665 -1631884 -1655186 -1680204 -1703811 -1722544 
3812.958 -1732838 -1732065 -1719423 -1696961 -1669559 -1644720 -1630460 
3813.380 -1632283 -1651409 -1683461 -1719964 -1750260 -1765765 -1762838 
3813.802 -1743592 -1714620 -1683984 -1658079 -1638699 -1623142 -1605666 
3814.224 -1580938 -1546304 -1503305 -1456636 -1412336 -1374739 -1344794 
3814.646 -1319855 -1295382 -1267384 -1234772 -1200560 -1171784 -1157991 
3815.068 -1167875 -1207856 -1279849 -1380719 -1502220 -1632356 -1757767 
3815.490 -1864461 -1941566 -1983250 -1990046 -1968943 -1931992 -1893802 
3815.912 -1866613 -1858382 -1870656 -1899359 -1936996 -1976567 -2015014 
3816.334 -2054447 -2101453 -2163789 -2247020 -2350925 -2469054 -2590424 
3816.757 -2705061 -2808217 -2904592 -3008330 -3141940 -3331090 -3599753 
3817.179 -3967137 -4447628 -5057316 -5816661 -6765514 -7963031 -9428295 
3817.601 -10919167 -11687943 -11154456 -9836613 -8488793 -7367766 -6456726 
3818.023 -5694870 -5040405 -4471375 -3980655 -3564104 -3216652 -2932363 
3818.445 -2702318 -2517462 -2370529 -2256832 -2173825 -2119415 -2090242 
3818.867 -2080373 -2081848 -2086797 -2088584 -2084024 -2073294 -2059206 
3819.289 -2045581 -2036097 -2033799 -2040799 -2058533 -2087567 -2127102 
3819.711 -2174017 -2222679 -2266060 -2296596 -2309065 -2302350 -2280037 
3820.134 -2249225 -2218114 -2193742 -2179384 -2174638 -2176371 -2180906 
3820.556 -2184838 -2185424 -2180225 -2166443 -2141682 -2105557 -2061981 
3820.978 -2020192 -1994046 -2000549 -2054273 -2163284 -2323773 -2518944 
3821.400 -2719311 -2891847 -3014426 -3084691 -3121787 -3155466 -3218055 
3821.822 -3334496 -3522095 -3794004 -4164545 -4651193 -5263498 -5976958 
3822.244 -6669022 -7095483 -7051169 -6587689 -5947861 -5329405 -4822170 
3822.666 -4444499 -4189510 -4050728 -4023413 -4107843 -4309748 -4643557 
3823.088 -5130255 -5782024 -6564348 -7300170 -7650470 -7382618 -6645449 
3823.510 -5775843 -4985798 -4340090 -3832838 -3443090 -3154147 -2950279 
3823.933 -2815617 -2730826 -2674671 -2626413 -2571163 -2503908 -2429475 
3824.355 -2359685 -2307020 -2280254 -2279475 -2296169 -2314805 -2319187 
3824.777 -2297577 -2246686 -2172684 -2088214 -2007387 -1940134 -1891680 
3825.199 -1862705 -1851991 -1858852 -1884612 -1932164 -2004384 -2101119 
3825.621 -2216716 -2337593 -2444512 -2515529 -2531911 -2486139 -2384457 
3826.043 -2246003 -2094924 -1955816 -1845783 -1771049 -1727823 -1704805 
3826.465 -1688660 -1668462 -1640454 -1608160 -1580500 -1566712 -1572851 
3826.887 -1598548 -1637506 -1679407 -1714531 -1737986 -1751055 -1760328 
3827.310 -1773833 -1797777 -1833622 -1878571 -1927375 -1975886 -2023715 
3827.732 -2076497 -2145772 -2249194 -2408538 -2646968 -2986454 -3439212 
3828.154 -3993952 -4586648 -5091866 -5356620 -5286310 -4916347 -4376827 
3828.576 -3807896 -3299221 -2895127 -2605189 -2417286 -2308826 -2252142 
3828.998 -2222059 -2199273 -2175356 -2151597 -2135232 -2133509 -2149358 
3829.420 -2178946 -2213218 -2240727 -2252201 -2243776 -2216798 -2175905 
3829.842 -2125900 -2070442 -2011518 -1950491 -1889504 -1831761 -1780909 
3830.264 -1740004 -1710183 -1690645 -1679668 -1676187 -1680507 -1694112 
3830.687 -1718130 -1751428 -1789610 -1825868 -1852353 -1863594 -1858201 
3831.109 -1839069 -1811553 -1781059 -1750613 -1720025 -1687127 -1650127 
3831.531 -1609939 -1570978 -1539979 -1522892 -1522802 -1538223 -1564420 
3831.953 -1595623 -1628482 -1663455 -1704585 -1756748 -1823088 -1902623 
3832.375 -1990837 -2081336 -2169545 -2255564 -2345269 -2449520 -2581948 
3832.797 -2758260 -2995442 -3313594 -3735943 -4286528 -4969013 -5718526 
3833.219 -6358769 -6640291 -6442462 -5886049 -5193925 -4523954 -3940132 
3833.641 -3456758 -3064827 -2749378 -2495550 -2288645 -2115919 -1968043 
3834.063 -1840556 -1733806 -1651719 -1598420 -1575861 -1581523 -1608866 
3834.486 -1648194 -1689934 -1726897 -1754884 -1773123 -1783135 -1787689 
3834.908 -1789874 -1793228 -1801722 -1819231 -1849089 -1892578 -1947788 
3835.330 -2008924 -2067333 -2114016 -2141430 -2146816 -2133017 -2108622 
3835.752 -2085287 -2075960 -2092446 -2143022 -2233259 -2367128 -2550009 
3836.174 -2791084 -3105753 -3516336 -4042294 -4678087 -5346547 -5856703 
3836.596 -5992943 -5707197 -5163224 -4559113 -4011436 -3556964 -3191387 
3837.018 -2901223 -2671552 -2489243 -2344126 -2228201 -2135821 -2063737 
3837.440 -2010791 -1976858 -1961298 -1961656 -1972730 -1987273 -1998382 
3837.863 -2001097 -1994625 -1982474 -1971625 -1969785 -1982592 -2012236 
3838.285 -2056925 -2112690 -2175700 -2245308 -2325352 -2424399 -2553396 
3838.707 -2723675 -2943778 -3218461 -3547517 -3927832 -4357629 -4837127 
3839.129 -5377795 -6011105 -6798336 -7823734 -9096182 -10242812 -10463555 
3839.551 -9577984 -8287767 -7105264 -6137236 -5349227 -4696154 -4151947 
3839.973 -3702454 -3339056 -3055409 -2840736 -2681076 -2560640 -2465272 
3840.395 -2384620 -2313454 -2250830 -2197824 -2155113 -2121867 -2096276 
3840.817 -2077716 -2068609 -2076346 -2112129 -2189148 -2320538 -2516374 
3841.240 -2781970 -3114318 -3499340 -3901905 -4263247 -4514300 -4598521 
3841.662 -4503889 -4265461 -3944461 -3599009 -3271515 -2991072 -2773733 
3842.084 -2629859 -2567184 -2592215 -2713233 -2939796 -3280988 -3729026 
3842.506 -4234632 -4686589 -4923255 -4838416 -4466643 -3945030 -3404846 
3842.928 -2923378 -2532546 -2235899 -2028193 -1900498 -1841486 -1837621 
3843.350 -1872570 -1928820 -1986897 -2029034 -2041772 -2017500 -1957187 
3843.772 -1870209 -1772999 -1683225 -1616164 -1580325 -1575372 -1593687 
3844.194 -1623863 -1656194 -1685508 -1713247 -1745565 -1790564 -1854318 
3844.616 -1939167 -2044649 -2170408 -2319865 -2503467 -2739409 -3052215 
3845.039 -3465539 -3989839 -4593239 -5171876 -5557860 -5593157 -5256697 
3845.461 -4675466 -4021782 -3414186 -2906154 -2510295 -2217170 -2012581 
3845.883 -1881852 -1811639 -1790023 -1806093 -1850121 -1911638 -1979844 
3846.305 -2043893 -2092714 -2117942 -2115704 -2087810 -2041007 -1985051 
3846.727 -1929543 -1880494 -1839651 -1804393 -1769961 -1731737 -1688086 
3847.149 -1641322 -1597513 -1563973 -1546499 -1547483 -1564951 -1593620 
3847.571 -1626860 -1659571 -1688864 -1714391 -1737050 -1757445 -1774758 
3847.993 -1786738 -1790506 -1784214 -1767964 -1744158 -1716598 -1689386 
3848.416 -1666211 -1649320 -1639829 -1637771 -1642222 -1651119 -1661217 
3848.838 -1668615 -1669218 -1660595 -1643201 -1621102 -1601027 -1590282 
3849.260 -1594415 -1614622 -1647416 -1685641 -1721830 -1750428 -1770051 
3849.682 -1783272 -1794738 -1808216 -1824279 -1839816 -1849594 -1849219 
3850.104 -1837786 -1819364 -1802282 -1796716 -1810377 -1846513 -1902356 
3850.526 -1970919 -2043097 -2111788 -2174628 -2234379 -2297505 -2370915 
3850.948 -2459098 -2560996 -2668981 -2769133 -2846021 -2887042 -2887402 
3851.370 -2851169 -2788719 -2711925 -2629644 -2547041 -2465107 -2382277 
3851.792 -2296191 -2205364 -2109888 -2011774 -1914317 -1821836 -1739581 
3852.215 -1673174 -1629190 -1614479 -1634660 -1692838 -1787451 -1911673 
3852.637 -2053177 -2197815 -2333589 -2454186 -2562240 -2668891 -2791817 
3853.059 -2950072 -3162330 -3445104 -3816606 -4300755 -4936656 -5789756 
3853.481 -6938151 -8391126 -9839910 -10476938 -9805135 -8411330 -7050693 
3853.903 -5979664 -5179999 -4577032 -4108340 -3736612 -3441863 -3214089 
3854.325 -3050782 -2950567 -2910471 -2924453 -2983679 -3078982 -3203887 
3854.747 -3358614 -3551563 -3798789 -4121658 -4541858 -5074848 -5727454 
3855.169 -6488734 -7335146 -8242981 -9207784 -10276795 -11584724 -13421854 
3855.592 -16300622 -21031208 -28323988 -35911240 -35315436 -26449474 
3855.953 -18473556 -13604386 -10779992 -9041534 -7856885 -6966480 -6244182 
3856.375 -5627473 -5084920 -4600992 -4169419 -3786121 -3450307 -3162543 
3856.798 -2922464 -2729743 -2582116 -2474616 -2399105 -2344874 -2300735 
3857.220 -2256492 -2206186 -2148794 -2087810 -2028929 -1977732 -1937605 
3857.642 -1908762 -1889200 -1876416 -1869377 -1869380 -1879897 -1905115 
3858.064 -1948932 -2013663 -2100424 -2210016 -2344428 -2507496 -2704544 
3858.486 -2940582 -3215865 -3519526 -3825369 -4086939 -4248407 -4267882 
3858.908 -4136256 -3881835 -3552293 -3196393 -2849763 -2534990 -2265406 
3859.330 -2046027 -1877584 -1757429 -1680745 -1641903 -1635582 -1657409 
3859.752 -1702744 -1765781 -1838536 -1909834 -1967825 -2002362 -2007570 
3860.175 -1984162 -1939288 -1885059 -1834242 -1798296 -1784271 -1793912 
3860.597 -1824448 -1869926 -1923162 -1975985 -2020707 -2050677 -2060982 
3861.019 -2050130 -2020849 -1980230 -1937554 -1902506 -1881703 -1876337 
3861.441 -1881677 -1888530 -1886998 -1868984 -1831720 -1778476 -1718254 
3861.863 -1662677 -1623394 -1609504 -1624818 -1667646 -1730836 -1804056 
3862.285 -1874810 -1931647 -1967084 -1978596 -1969611 -1947975 -1925001 
3862.707 -1912206 -1920094 -1958334 -2036009 -2164085 -2357353 -2634921 
3863.129 -3015901 -3505297 -4071194 -4605686 -4938118 -4937898 -4622093 
3863.552 -4132867 -3616813 -3163189 -2800361 -2526260 -2326436 -2182790 
3863.974 -2078468 -1999274 -1934880 -1877267 -1820597 -1761177 -1698006 
3864.396 -1634411 -1578507 -1543352 -1542655 -1586918 -1678434 -1808366 
3864.818 -1956164 -2093709 -2195846 -2246381 -2244430 -2202180 -2140237 
3865.240 -2079889 -2037966 -2027149 -2055247 -2127294 -2246362 -2412553 
3865.662 -2620012 -2852547 -3084364 -3281151 -3412360 -3466041 -3456391 
3866.084 -3418875 -3394175 -3420703 -3526733 -3734344 -4064097 -4539682 
3866.506 -5179173 -5956251 -6735399 -7216431 -7110555 -6457560 -5570994 
3866.928 -4717581 -4000507 -3431965 -2992198 -2659106 -2417756 -2255766 
3867.351 -2161740 -2122091 -2120634 -2138282 -2155065 -2154867 -2126742 
3867.773 -2068499 -1986476 -1894072 -1806878 -1737623 -1694112 -1676927 
3868.195 -1680844 -1696929 -1716556 -1733602 -1745804 -1754028 -1759835 
3868.617 -1763068 -1760824 -1747943 -1719732 -1674854 -1617167 -1555230 
3869.039 -1499816 -1461138 -1444760 -1450397 -1471994 -1500795 -1528039 
3869.461 -1548267 -1560891 -1569940 -1582440 -1605676 -1645683 -1705060 
3869.883 -1782557 -1873335 -1970567 -2067153 -2157733 -2241542 -2323860 
3870.305 -2417232 -2539700 -2714904 -2968708 -3324804 -3791114 -4336485 
3870.728 -4867899 -5233228 -5312717 -5111367 -4747151 -4349284 -4003363 
3871.150 -3748750 -3593476 -3536438 -3574209 -3709381 -3952101 -4322621 
3871.572 -4844098 -5492287 -6110678 -6412632 -6245932 -5765564 -5198623 
3871.994 -4663076 -4187090 -3769556 -3406804 -3097578 -2846307 -2657161 
3872.416 -2530027 -2460357 -2438786 -2454540 -2497862 -2562430 -2643925 
3872.838 -2736289 -2829158 -2905491 -2944186 -2928736 -2853685 -2729615 
3873.260 -2578217 -2425236 -2290156 -2181177 -2096304 -2026289 -1960231 
3873.682 -1890012 -1814235 -1738145 -1671590 -1624103 -1602144 -1606790 
3874.104 -1634210 -1676955 -1726508 -1775538 -1817995 -1850048 -1869809 
3874.527 -1877251 -1874544 -1866337 -1859998 -1864159 -1888438 -1942111 
3874.949 -2032996 -2167713 -2350853 -2584208 -2863299 -3174805 -3495671 
3875.371 -3794639 -4044607 -4234241 -4375206 -4496262 -4634943 -4824631 
3875.793 -5080968 -5384290 -5660384 -5792949 -5675912 -5304528 -4777786 
3876.215 -4218471 -3704203 -3262378 -2892858 -2584008 -2325553 -2112501 
3876.637 -1944012 -1821763 -1745833 -1711788 -1709794 -1726174 -1747332 
3877.059 -1761804 -1763933 -1753948 -1736566 -1717881 -1702980 -1694635 
3877.481 -1693086 -1697254 -1705984 -1718735 -1735239 -1754626 -1774831 
3877.904 -1792090 -1802113 -1801557 -1789120 -1766322 -1736690 -1704595 
3878.326 -1673200 -1644018 -1616806 -1590742 -1565686 -1543320 -1527044 
3878.748 -1521596 -1531254 -1558229 -1601515 -1656398 -1715196 -1768209 
3879.170 -1806786 -1824756 -1820159 -1795880 -1759151 -1719999 -1687684 
3879.592 -1668825 -1664467 -1669970 -1675798 -1671127 -1647690 -1602527 
3880.014 -1539812 -1469960 -1407111 -1364019 -1349933 -1368299 -1416861 
3880.436 -1489127 -1576516 -1671003 -1765011 -1852248 -1927273 -1984883 
3880.858 -2021510 -2036651 -2034852 -2025840 -2024293 -2047943 -2113464 
3881.281 -2236252 -2428905 -2703159 -3070810 -3546159 -4145388 -4869540 
3881.703 -5674426 -6423199 -6881138 -6861008 -6395809 -5705808 -5003926 
3882.125 -4411067 -3969232 -3678078 -3527427 -3498835 -3565282 -3682237 
3882.547 -3788405 -3817920 -3721913 -3498147 -3188678 -2855789 -2550078 
3882.969 -2301521 -2119030 -1996508 -1921133 -1878203 -1855905 -1846008 
3883.391 -1844478 -1849282 -1857493 -1863911 -1861410 -1843017 -1805753 
3883.813 -1752869 -1694434 -1643370 -1612228 -1607739 -1628239 -1664071 
3884.235 -1701928 -1731380 -1749741 -1765339 -1795489 -1862769 -1985804 
3884.657 -2171477 -2405199 -2650120 -2850834 -2954721 -2937411 -2811363 
3885.080 -2618799 -2409353 -2227681 -2100629 -2036948 -2030953 -2067184 
3885.502 -2125856 -2187583 -2239030 -2272881 -2287120 -2282260 -2258748 
3885.924 -2216307 -2155069 -2077716 -1990749 -1903888 -1828756 -1774571 
3886.346 -1745992 -1742261 -1758693 -1789142 -1829210 -1878526 -1941138 
3886.768 -2024897 -2140001 -2299010 -2517418 -2816521 -3223147 -3766758 
3887.190 -4460989 -5262077 -6041187 -6633883 -6950406 -6999855 -6829915 
3887.612 -6478366 -5980238 -5379217 -4733703 -4101883 -3531202 -3048861 
3888.034 -2664008 -2376035 -2174881 -2045370 -1968325 -1923650 -1892435 
3888.457 -1860864 -1823345 -1781606 -1742443 -1713116 -1698134 -1696496 
3888.879 -1702410 -1707096 -1703114 -1686811 -1659390 -1625600 -1591400 
3889.301 -1561134 -1535635 -1512554 -1488124 -1459847 -1428117 -1396643 
3889.723 -1370841 -1355759 -1353396 -1361851 -1375817 -1389237 -1397579 
3890.145 -1399719 -1398272 -1398529 -1406242 -1425205 -1456518 -1498516 
3890.567 -1548046 -1601684 -1656848 -1712002 -1765657 -1815850 -1859483 
3890.989 -1892489 -1911175 -1913252 -1898874 -1870656 -1833349 -1792319 
3891.411 -1751924 -1715279 -1683764 -1657451 -1635742 -1617782 -1602457 
3891.833 -1588589 -1575382 -1563273 -1555205 -1556995 -1577896 -1629279 
3892.256 -1721955 -1865295 -2065984 -2329997 -2664628 -3083602 -3609965 
3892.678 -4270368 -5079299 -5984170 -6782081 -7148345 -6895708 -6196835 
3893.100 -5374621 -4644051 -4071474 -3646095 -3337497 -3111031 -2935200 
3893.522 -2782843 -2634609 -2480706 -2322168 -2168230 -2032060 -1925695 
3893.944 -1855845 -1824251 -1827730 -1860474 -1914159 -1979303 -2045733 
3894.366 -2101715 -2136468 -2142086 -2116253 -2063911 -1997008 -1931777 
3894.788 -1882832 -1860420 -1866610 -1895369 -1934464 -1970459 -1994157 
3895.210 -2003422 -2004479 -2009278 -2032227 -2084245 -2169296 -2281257 
3895.633 -2405046 -2518450 -2598654 -2630080 -2606793 -2533968 -2424014 
3896.055 -2293721 -2159754 -2035920 -1932851 -1855712 -1804574 -1774822 
3896.477 -1759233 -1749811 -1740103 -1727266 -1711759 -1696572 -1685128 
3896.899 -1679709 -1680082 -1683700 -1686349 -1684099 -1674485 -1657259 
3897.321 -1634322 -1608993 -1584938 -1564765 -1549706 -1539348 -1532248 
3897.743 -1526606 -1521247 -1516102 -1512173 -1510906 -1513277 -1518796 
3898.165 -1525166 -1528615 -1525134 -1512413 -1491227 -1466267 -1444808 
3898.587 -1435490 -1445026 -1475732 -1524526 -1583548 -1642557 -1691273 
3899.010 -1723343 -1737827 -1739712 -1737897 -1743242 -1765756 -1811594 
3899.432 -1882426 -1974725 -2080944 -2190037 -2290200 -2371314 -2425972 
3899.854 -2451286 -2448433 -2421990 -2378284 -2324994 -2271111 -2226381 
3900.276 -2203002 -2215539 -2279949 -2414788 -2640274 -2979757 -3458945 
3900.698 -4105115 -4935967 -5914748 -6886276 -7529215 -7521499 -6874083 
3901.120 -5928134 -5010832 -4258342 -3684151 -3254589 -2930771 -2682823 
3901.542 -2488755 -2332723 -2202728 -2089648 -1986916 -1890913 -1801462 
3901.964 -1721318 -1655183 -1607589 -1582155 -1580350 -1601355 -1642426 
3902.386 -1699568 -1768120 -1842684 -1917928 -1988900 -2051754 -2105415 
3902.809 -2152360 -2199475 -2257294 -2340258 -2466290 -2657239 -2938823 
3903.231 -3335665 -3855735 -4451453 -4998265 -5350258 -5454389 -5369702 
3903.653 -5184134 -4952334 -4690489 -4396313 -4066001 -3704385 -3327020 
3904.075 -2956158 -2612703 -2314484 -2072021 -1889273 -1765657 -1695451 
3904.497 -1668896 -1672741 -1693927 -1721388 -1749171 -1777560 -1812160 
3904.919 -1861194 -1931638 -2027010 -2145640 -2282141 -2429366 -2582672 
3905.341 -2743071 -2919849 -3132751 -3414348 -3810688 -4374972 -5131922 
3905.763 -5986838 -6650984 -6786377 -6366399 -5657978 -4915660 -4254680 
3906.186 -3700847 -3250774 -2892337 -2616050 -2414979 -2281119 -2205506 
3906.608 -2177449 -2186133 -2220242 -2268331 -2318863 -2358571 -2375655 
3907.030 -2363504 -2324894 -2273702 -2233237 -2232327 -2296549 -2443863 
3907.452 -2676113 -2973999 -3287848 -3542931 -3665881 -3615118 -3408623 
3907.874 -3108773 -2789962 -2504421 -2275695 -2105598 -1982535 -1890773 
3908.296 -1816288 -1751075 -1693271 -1645942 -1613645 -1599835 -1604501 
3908.718 -1624112 -1652232 -1681740 -1706742 -1723668 -1732186 -1734796 
3909.140 -1736136 -1741099 -1753572 -1774634 -1801707 -1828473 -1846459 
3909.562 -1847923 -1827828 -1786598 -1730256 -1669667 -1616461 -1579775 
3909.985 -1563516 -1565376 -1577957 -1591611 -1598641 -1595112 -1582427 
3910.407 -1565868 -1552868 -1549776 -1559897 -1582880 -1615251 -1652054 
3910.829 -1688386 -1721260 -1749623 -1773858 -1794528 -1811525 -1823307 
3911.251 -1827482 -1821531 -1804354 -1777274 -1744725 -1713540 -1691557 
3911.673 -1686091 -1701186 -1736659 -1787409 -1845161 -1899581 -1940837 
3912.095 -1962384 -1961365 -1939360 -1901107 -1853515 -1803541 -1757041 
3912.517 -1718687 -1691177 -1675514 -1670917 -1675042 -1683959 -1692592 
3912.939 -1696104 -1690495 -1674194 -1648545 -1617831 -1587957 -1564522 
3913.362 -1551678 -1550591 -1559517 -1574496 -1591241 -1606404 -1618810 
3913.784 -1629525 -1641077 -1656223 -1676541 -1702008 -1731042 -1761461 
3914.206 -1791368 -1820000 -1847644 -1874915 -1901713 -1926354 -1945336 
3914.628 -1954495 -1950069 -1930398 -1896816 -1853851 -1807975 -1765447 
3915.050 -1731125 -1706691 -1690900 -1680526 -1672278 -1664112 -1655926 
3915.472 -1649170 -1645916 -1647626 -1654564 -1666074 -1681323 -1700249 
3915.894 -1723544 -1751841 -1784385 -1817432 -1844379 -1856883 -1846996 
3916.316 -1810803 -1750425 -1674714 -1596242 -1528711 -1482486 -1461779 
3916.739 -1465258 -1487619 -1522956 -1566648 -1616946 -1673805 -1736614 
3917.161 -1802263 -1864321 -1914362 -1946001 -1958067 -1957396 -1956978 
3917.583 -1974041 -2024265 -2116541 -2248533 -2403215 -2550624 -2652483 
3918.005 -2678833 -2618989 -2485222 -2305040 -2112384 -1940020 -1813006 
3918.427 -1751946 -1771946 -1884152 -2096854 -2413211 -2825675 -3294845 
3918.849 -3737326 -4035489 -4097831 -3931794 -3631045 -3301727 -3007177 
3919.271 -2772300 -2596910 -2469201 -2374162 -2296615 -2224080 -2147318 
3919.693 -2062167 -1969212 -1872773 -1778546 -1691802 -1615529 -1549527 
3920.115 -1490952 -1435958 -1382128 -1330005 -1283777 -1249719 -1234579 
3920.538 -1242716 -1274572 -1326820 -1393960 -1470428 -1551819 -1635726 
3920.960 -1720547 -1804488 -1885605 -1962850 -2038620 -2120561 -2223170 
3921.382 -2365782 -2568065 -2841493 -3175711 -3524204 -3798558 -3906775 
3921.804 -3805889 -3532788 -3171959 -2808738 -2498953 -2264157 -2105396 
3922.226 -2009171 -1955936 -1924535 -1898487 -1868869 -1834385 -1799376 
3922.648 -1769971 -1750667 -1741991 -1740412 -1739568 -1732883 -1715079 
3923.070 -1684041 -1641274 -1591860 -1543080 -1502296 -1475267 -1463515 
3923.492 -1463621 -1467465 -1465312 -1448334 -1412012 -1358133 -1294613 
3923.915 -1233342 -1185692 -1160540 -1161446 -1186769 -1230936 -1286974 
3924.337 -1348363 -1409982 -1468977 -1524264 -1576356 -1627087 -1679700 
3924.759 -1738270 -1806335 -1885459 -1973208 -2062751 -2142947 -2201969 
3925.181 -2231383 -2229091 -2200558 -2156617 -2110270 -2071898 -2048508 
3925.603 -2043486 -2057576 -2090286 -2139862 -2202520 -2270246 -2330858 
3926.025 -2370545 -2377657 -2349425 -2294406 -2232211 -2186719 -2182510 
3926.447 -2239723 -2369230 -2568486 -2815040 -3066815 -3264271 -3355716 
3926.869 -3322681 -3186162 -2989241 -2773223 -2566737 -2382400 -2223309 
3927.292 -2087662 -1971622 -1871339 -1783476 -1705513 -1635611 -1572825 
3927.714 -1517123 -1469319 -1430835 -1403200 -1387709 -1384975 -1394628 
3928.136 -1415129 -1443827 -1476712 -1508691 -1534797 -1550690 -1554233 
3928.558 -1546134 -1529859 -1510406 -1492488 -1479379 -1471978 -1469492 
3928.980 -1471017 -1477317 -1491803 -1520092 -1567533 -1637072 -1726687 
3929.402 -1829289 -1932940 -2024126 -2091157 -2125332 -2123038 -2085180 
3929.824 -2016526 -1924135 -1816819 -1704691 -1597558 -1505097 -1435237 
3930.246 -1392471 -1377727 -1388361 -1420136 -1469022 -1533467 -1614536 
3930.668 -1714276 -1832669 -1964278 -2095546 -2207298 -2278497 -2294513 
3931.091 -2253906 -2169393 -2063052 -1956924 -1868790 -1807399 -1773527 
3931.513 -1763093 -1770604 -1791991 -1825979 -1873751 -1936790 -2014049 
3931.935 -2099897 -2182034 -2242580 -2263035 -2228707 -2136891 -1999144 
3932.357 -1839616 -1685715 -1560310 -1477573 -1439811 -1439552 -1461897 
3932.779 -1490401 -1510176 -1512528 -1496938 -1470338 -1444815 -1433461 
3933.201 -1448725 -1499355 -1590123 -1722569 -1895369 -2103530 -2335725 
3933.623 -2574910 -2798370 -2984799 -3123632 -3219187 -3286090 -3336619 
3934.045 -3370411 -3368513 -3300732 -3139977 -2884723 -2564701 -2231099 
3934.468 -1933057 -1707140 -1571803 -1526510 -1556471 -1635448 -1733838 
3934.890 -1822878 -1883800 -1910753 -1908876 -1889510 -1864785 -1844694 
3935.312 -1834928 -1838015 -1854467 -1883375 -1921758 -1963442 -1999322 
3935.734 -2017791 -2008981 -1968854 -1900745 -1814366 -1722155 -1636839 
3936.156 -1567802 -1520745 -1497809 -1497943 -1518022 -1553366 -1598762 
3936.578 -1648050 -1694954 -1734169 -1761960 -1777452 -1782623 -1781755 
3937.000 -1779618 -1780165 -1785940 -1797634 -1814756 -1835804 -1858607 
3937.422 -1879729 -1894319 -1896946 -1882400 -1848127 -1795921 -1732724 
3937.844 -1668844 -1615101 -1580120 -1567188 -1574334 -1595751 -1625166 
3938.267 -1657958 -1692669 -1730100 -1770906 -1813149 -1851476 -1877409 
3938.689 -1882750 -1862839 -1818716 -1757280 -1689549 -1627843 -1581622 
3939.111 -1556330 -1552708 -1568121 -1598021 -1637707 -1683346 -1731498 
3939.533 -1779281 -1824276 -1864321 -1898170 -1925416 -1946242 -1960709 
3939.955 -1968322 -1967701 -1957399 -1936508 -1905658 -1867111 -1824648 
3940.377 -1782471 -1744149 -1712256 -1687783 -1670365 -1658452 -1649834 
3940.799 -1641788 -1631325 -1615973 -1594240 -1566434 -1534775 -1503273 
3941.221 -1476616 -1458754 -1452416 -1458539 -1476926 -1506963 -1548292 
3941.644 -1600557 -1662343 -1730256 -1798079 -1857432 -1900717 -1923051 
3942.066 -1925077 -1912776 -1896165 -1884961 -1884672 -1894782 -1909000 
3942.488 -1918249 -1914133 -1892803 -1855613 -1808331 -1757767 -1709657 
3942.910 -1666667 -1628571 -1593796 -1561310 -1531762 -1507216 -1489895 
3943.332 -1480676 -1478537 -1481125 -1486325 -1494028 -1507043 -1531257 
3943.754 -1574688 -1645687 -1753063 -1905407 -2111096 -2376628 -2702508 
3944.176 -3076129 -3459759 -3791605 -3999534 -4032934 -3891697 -3622322 
3944.598 -3291727 -2956443 -2655818 -2408764 -2218133 -2077893 -1976760 
3945.021 -1902464 -1843973 -1793705 -1747481 -1703993 -1664026 -1629963 
3945.443 -1605417 -1594489 -1601381 -1628951 -1677328 -1742815 -1817861 
3945.865 -1892530 -1955816 -1999322 -2019021 -2015823 -1994404 -1961266 
3946.287 -1923026 -1884787 -1850308 -1821871 -1799815 -1782213 -1764560 
3946.709 -1740670 -1703690 -1649374 -1578241 -1497201 -1417945 -1354581 
3947.131 -1320000 -1321176 -1357773 -1421668 -1500315 -1578657 -1643071 
3947.553 -1683978 -1695298 -1674893 -1623598 -1544961 -1444866 -1331807 
3947.975 -1217184 -1113253 -1032283 -984461 -975274 -1005404 -1070666 
3948.397 -1164037 -1276622 -1400005 -1527636 -1654379 -1776854 -1892359 
3948.820 -1997015 -2084858 -2146832 -2171817 -2150969 -2082716 -1977023 
3949.242 -1853420 -1737327 -1651952 -1612298 -1624722 -1684835 -1778546 
3949.664 -1881877 -1967391 -2010386 -1997290 -1931530 -1831453 -1722614 
3950.086 -1626701 -1557899 -1520022 -1508461 -1513248 -1522956 -1528324 
3950.508 -1523765 -1508842 -1487260 -1465027 -1447414 -1437452 -1434984 
3950.930 -1437859 -1443933 -1454012 -1473275 -1511843 -1582174 -1694648 
3951.352 -1852934 -2048736 -2259405 -2447387 -2573396 -2611015 -2561168 
3951.774 -2451314 -2323173 -2214182 -2144363 -2117178 -2122098 -2142530 
3952.197 -2160829 -2164719 -2149330 -2115850 -2068581 -2011468 -1946559 
3952.619 -1874334 -1795870 -1714964 -1637931 -1572908 -1526644 -1501797 
3953.041 -1496263 -1504038 -1518077 -1532482 -1544759 -1555537 -1567047 
3953.463 -1581123 -1597852 -1615500 -1631638 -1644098 -1651859 -1654813 
3953.885 -1652909 -1645508 -1631702 -1611535 -1587513 -1565494 -1554322 
3954.307 -1562717 -1596565 -1655731 -1733405 -1816333 -1888045 -1934404 
3954.729 -1946062 -1921555 -1866022 -1788780 -1699131 -1604185 -1509277 
3955.151 -1418616 -1337295 -1272403 -1231410 -1220809 -1243067 -1294803 
3955.573 -1366061 -1441805 -1506121 -1544011 -1545955 -1509821 -1441225 
3955.996 -1352002 -1257506 -1174300 -1115378 -1088927 -1097199 -1136912 
3956.418 -1200676 -1279093 -1363332 -1445385 -1519177 -1580468 -1626094 
3956.840 -1654127 -1663937 -1656698 -1635397 -1604699 -1570387 -1537730 
3957.262 -1511011 -1492856 -1484141 -1484282 -1491723 -1504252 -1518732 
3957.684 -1531532 -1538914 -1537733 -1526996 -1508883 -1489386 -1476891 
3958.106 -1480801 -1508688 -1563471 -1642129 -1735344 -1830211 -1911904 
3958.528 -1968702 -1995173 -1993157 -1970646 -1938584 -1907855 -1885253 
3958.950 -1872684 -1866946 -1861778 -1849752 -1825496 -1787966 -1741189 
3959.373 -1693140 -1652749 -1627540 -1620212 -1627996 -1643230 -1656883 
3959.795 -1661724 -1655346 -1640955 -1625874 -1618019 -1621859 -1636919 
3960.217 -1657808 -1677070 -1687633 -1686100 -1673544 -1654733 -1635726 
3960.639 -1621610 -1615229 -1616787 -1624910 -1637972 -1654902 -1674969 
3961.061 -1696964 -1718588 -1736016 -1745126 -1743152 -1729995 -1708931 
3961.483 -1685597 -1666418 -1655802 -1655148 -1662228 -1672482 -1680009 
3961.905 -1679292 -1666593 -1640174 -1600841 -1551749 -1498641 -1448741 
3962.327 -1409600 -1387738 -1386024 -1402790 -1431518 -1463579 -1490487 
3962.750 -1507792 -1517062 -1525854 -1545076 -1584366 -1649071 -1737044 
3963.172 -1839069 -1940175 -2025021 -2081794 -2105002 -2096291 -2062331 
3963.594 -2011449 -1949873 -1880830 -1804733 -1721057 -1630397 -1535885 
3964.016 -1442920 -1358836 -1290837 -1244603 -1223321 -1226527 -1250115 
3964.438 -1286961 -1329391 -1370386 -1405847 -1435474 -1462314 -1491368 
3964.860 -1527188 -1572362 -1626018 -1684201 -1740705 -1789537 -1826256 
3965.282 -1848832 -1857741 -1854991 -1842915 -1822948 -1795473 -1760096 
3965.704 -1716646 -1666290 -1612183 -1559312 -1514317 -1483568 -1472023 
3966.126 -1482047 -1512496 -1558743 -1613364 -1668433 -1716572 -1753009 
3966.549 -1776444 -1788300 -1791517 -1788573 -1780464 -1766128 -1743375 
3966.971 -1710196 -1666428 -1614427 -1559117 -1506236 -1461449 -1428957 
3967.393 -1410822 -1407531 -1418420 -1442110 -1476321 -1517696 -1561665 
3967.815 -1602454 -1634893 -1655486 -1663593 -1661437 -1652995 -1642094 
3968.237 -1630492 -1617719 -1601933 -1582206 -1560492 -1542351 -1535146 
3968.659 -1545549 -1575353 -1619733 -1667081 -1703512 -1716502 -1699806 
3969.081 -1655661 -1594131 -1529440 -1474265 -1437148 -1419998 -1419632 
3969.503 -1430460 -1447859 -1470005 -1497566 -1532133 -1574049 -1620802 
3969.926 -1667327 -1706914 -1733443 -1743636 -1737801 -1720069 -1696939 
3970.348 -1676541 -1666274 -1671615 -1695221 -1736000 -1788904 -1845196 
3970.770 -1895033 -1929482 -1943556 -1937763 -1917497 -1890760 -1864759 
3971.192 -1844465 -1831030 -1822437 -1814664 -1803490 -1785756 -1759657 
3971.614 -1724897 -1682231 -1633527 -1581791 -1531769 -1489626 -1461413 
3972.036 -1451734 -1461356 -1486415 -1518288 -1546470 -1561630 -1557909 
3972.458 -1534986 -1497300 -1452192 -1406739 -1366568 -1335149 -1314387 
3972.880 -1306128 -1312793 -1336894 -1379949 -1440847 -1515286 -1595977 
3973.302 -1675176 -1746571 -1806786 -1855871 -1896067 -1929920 -1958508 
3973.725 -1981088 -1995590 -2000410 -1995575 -1983415 -1967708 -1952689 
3974.147 -1941471 -1935545 -1935060 -1939189 -1946515 -1954951 -1961390 
3974.569 -1961042 -1947896 -1916343 -1862731 -1787975 -1698290 -1605532 
3974.991 -1523979 -1467100 -1445004 -1461298 -1512893 -1590452 -1681482 
3975.413 -1771399 -1846625 -1897605 -1919285 -1912494 -1883013 -1840327 
3975.835 -1794411 -1752806 -1719018 -1691429 -1664457 -1630795 -1584960 
3976.257 -1525304 -1455230 -1381810 -1314040 -1259428 -1221682 -1200460 
3976.679 -1192105 -1192015 -1196434 -1204327 -1217297 -1238698 -1271766 
3977.102 -1318409 -1378019 -1447433 -1520690 -1589842 -1646650 -1683251 
3977.524 -1694619 -1680063 -1644082 -1595482 -1545159 -1503570 -1476382 
3977.946 -1463230 -1457678 -1450519 -1432801 -1399835 -1352866 -1298697 
3978.368 -1247214 -1207540 -1186115 -1184477 -1199751 -1225828 -1255864 
3978.790 -1283548 -1303833 -1313754 -1312050 -1299504 -1278906 -1255211 
3979.212 -1234836 -1223795 -1226607 -1244362 -1274402 -1310855 -1346917 
3979.634 -1376851 -1397435 -1408612 -1412644 -1412737 -1411541 -1410857 
3980.056 -1411810 -1415319 -1422739 -1435349 -1453599 -1476033 -1499185 
3980.479 -1518416 -1529443 -1530793 -1524776 -1517523 -1516461 -1528189 
3980.901 -1555524 -1596447 -1644312 -1690221 -1726161 -1746520 -1749868 
3981.323 -1738324 -1716353 -1688749 -1659338 -1630457 -1602808 -1576101 
3981.745 -1549642 -1522882 -1495782 -1469156 -1444728 -1425580 -1415508 
3982.167 -1418189 -1436327 -1470197 -1517081 -1571023 -1624441 -1669297 
3982.589 -1698946 -1709963 -1702132 -1678285 -1642975 -1601968 -1561118 
3983.011 -1525716 -1500821 -1490442 -1497213 -1522076 -1563858 -1619277 
3983.433 -1683209 -1750056 -1813949 -1869787 -1913959 -1944078 -1959037 
3983.855 -1958771 -1943945 -1915693 -1875366 -1824422 -1764152 -1695948 
3984.278 -1621741 -1544187 -1467442 -1397300 -1340196 -1303074 -1291728 
3984.700 -1309472 -1356720 -1430531 -1525192 -1632286 -1742102 -1844475 
3985.122 -1929093 -1987884 -2015710 -2011800 -1980198 -1929657 -1871707 
3985.544 -1817140 -1774501 -1747287 -1733736 -1728011 -1722865 -1712113 
3985.966 -1692165 -1662796 -1626222 -1585695 -1544075 -1503801 -1467439 
3986.388 -1438295 -1421422 -1422605 -1446250 -1493189 -1558318 -1630716 
3986.810 -1694476 -1734067 -1738260 -1703799 -1636983 -1552647 -1470668 
3987.232 -1409270 -1382308 -1394833 -1442751 -1514147 -1593211 -1664964 
3987.655 -1717537 -1745556 -1749900 -1736283 -1711874 -1682996 -1652979 
3988.077 -1621718 -1587177 -1547858 -1505187 -1465027 -1436731 -1430015 
3988.499 -1451916 -1502591 -1574123 -1650835 -1714802 -1750129 -1748127 
3988.921 -1710202 -1646892 -1574346 -1507721 -1458325 -1430185 -1420921 
3989.343 -1424314 -1434131 -1446638 -1460830 -1477448 -1496640 -1516326 
3989.765 -1532536 -1540781 -1538770 -1528240 -1515206 -1507913 -1513053 
3990.187 -1533397 -1565865 -1602936 -1634845 -1654031 -1657613 -1647971 
3990.609 -1631025 -1613588 -1600372 -1592304 -1587043 -1580737 -1570560 
3991.031 -1555949 -1539224 -1524226 -1515213 -1515078 -1524920 -1544260 
3991.454 -1571537 -1604450 -1639765 -1673544 -1700947 -1717222 -1719467 
3991.876 -1707759 -1685925 -1660174 -1637672 -1623257 -1617831 -1618233 
3992.298 -1619216 -1616186 -1607946 -1597398 -1590183 -1591480 -1602578 
3992.720 -1619676 -1634826 -1639686 -1628466 -1601467 -1564874 -1529293 
3993.142 -1504918 -1498010 -1508928 -1532562 -1560617 -1584753 -1599759 
3993.564 -1603722 -1597558 -1583181 -1562259 -1535840 -1504963 -1471949 
3993.986 -1440654 -1415890 -1402071 -1401150 -1411852 -1430018 -1450904 
3994.408 -1470886 -1489351 -1508557 -1532172 -1562883 -1600257 -1640046 
3994.831 -1675377 -1699300 -1707045 -1698487 -1678565 -1656542 -1642803 
3995.253 -1646857 -1674475 -1725728 -1794560 -1869495 -1936892 -1982525 
3995.675 -1996163 -1973952 -1919089 -1840702 -1750861 -1661749 -1581382 
3996.097 -1513261 -1457046 -1411213 -1376068 -1355676 -1356819 -1386849 
3996.519 -1448920 -1538626 -1642088 -1739260 -1809545 -1837142 -1817191 
3996.941 -1755997 -1668911 -1573934 -1488576 -1425760 -1391605 -1386214 
3997.363 -1404176 -1436776 -1472843 -1501871 -1516406 -1513882 -1498414 
3997.785 -1480244 -1473781 -1491794 -1541523 -1620407 -1716378 -1809557 
3998.208 -1878768 -1909159 -1895687 -1845580 -1774924 -1704592 -1652277 
3998.630 -1628431 -1634571 -1663947 -1704468 -1741730 -1763554 -1760675 
3999.052 -1728782 -1669173 -1589139 -1501317 -1421085 -1365274 -1346496 
3999.474 -1370260 -1432695 -1521401 -1617964 -1701973 -1757773 -1776454 
3999.896 -1757843 -1708733 -1640990 -1568076 -1501762 -1452044 -1425215 
4000.318 -1423560 -1445340 -1484878 -1533422 -1580564 -1617700 -1639740 
4000.740 -1646873 -1643827 -1638045 -1636156 -1641067 -1651135 -1661144 
4001.162 -1665353 -1660200 -1646704 -1630093 -1618003 -1616486 -1627703 
4001.584 -1648452 -1671749 -1688723 
##END=
