##TITLE=Background, Tue Mar 03 18:39:13 2026 (GMT-07:00)
##JCAMP-DX=5.01  $$ Nicolet v. 1
##DATATYPE=INFRARED SPECTRUM
##ORIGIN=Thermo Fisher Scientific Corporation
##OWNER=Nicolet
##LONGDATE=2026/03/03
##TIME=18:40:12
##SPECTROMETER/DATA SYSTEM=Nicolet iS20
##DATA PROCESSING=
Truncated
##COMMENTS=
Number of sample scans: 4
Collection length: 21.22 sec
Sample gain: 4.0
Number of background scans: 0
Background gain: 0.0
Sample spacing:  1.000
Number of scan points: 50541
Resolution points: 65536
Number of FFT points: 524288
Apodization: N-B strong;
Phase correction: Mertz;
Laser frequency: 15798.00 cm-1
Number of rejected sample scans: 0
Number of rejected background scans: -1
Bench serial number: BEP2311074;
##RESOLUTION= 0.500
##XUNITS=1/CM
##YUNITS=ARBITRARY UNITS
##FIRSTX=399.976074
##LASTX=4000.001953
##FIRSTY=0.269106
##MAXX=4000.001953
##MINX=399.976074
##MAXY=13.045214
##MINY=0.035918
##XFACTOR=1.000000
##YFACTOR=1.000000E-07
##NPOINTS=59738
##DELTAX=0.060265
##ZPD=1525
##XYDATA=(X++(Y..Y))
399.976 2691057 2949314 3267382 3588507 3852589 4013610 4046233 3954389 
400.458 3767945 3535779 3308957 3122700 2990931 2903631 2837891 2770275 
400.940 2691503 2610949 2553298 2544113 2596740 2700472 2821627 2909722 
401.423 2915307 2810072 2595642 2307269 2000543 1740040 1574747 1525559 
401.905 1581318 1705580 1849876 1969377 2040464 2064677 2068353 2089679 
402.387 2169145 2333791 2588797 2916083 3279391 3635675 3942480 4171967 
402.869 4314409 4378343 4384267 4357293 4317909 4274899 4225714 4160594 
403.351 4071674 3960943 3845151 3752049 3713949 3751970 3866033 4029402 
403.833 4196960 4316931 4348420 4277884 4121542 3919203 3714150 3539534 
404.316 3402658 3285793 3155128 2980353 2750291 2480632 2208523 1979795 
404.798 1832696 1781825 1816035 1902870 2004182 2084777 2123302 2113702 
405.280 2060289 1972312 1859472 1732939 1607028 1502967 1451643 1487445 
405.762 1645018 1951034 2415838 3030065 3761602 4560530 5356615 6070873 
406.244 6628735 6965953 7049511 6885522 6524732 6049909 5563429 5165729 
406.727 4924867 4869263 4979513 5200619 5451697 5648575 5723066 5626309 
407.209 5339768 4873862 4268155 3583431 2897343 2297209 1858229 1637113 
407.691 1657365 1904667 2328425 2852335 3394574 3873139 4225508 4415593 
408.173 4434290 4301080 4059769 3775328 3516762 3349513 3319736 3440760 
408.655 3691153 4019050 4361583 4656182 4861614 4964635 4975690 4918183 
409.137 4815216 4682724 4527807 4357317 4188628 4053135 3996859 4067786 
409.620 4296715 4686065 5201117 5779060 6335954 6791962 7087276 7187765 
410.102 7090990 6819778 6416291 5929346 5412156 4916019 4481974 4142169 
410.584 3914016 3799332 3785673 3849730 3962799 4092196 4207937 4284086 
411.066 4300287 4246770 4126516 3958532 3774425 3616768 3528799 3541799 
411.548 3670281 3905834 4221545 4576292 4927575 5239191 5484159 5649000 
412.031 5730822 5735464 5674143 5562119 5415805 5248689 5070584 4885964 
412.513 4696177 4504557 4321177 4164751 4061644 4035369 4097260 4237455 
412.995 4425614 4616528 4765614 4847488 4862994 4840352 4820377 4842877 
413.477 4926916 5064594 5223922 5364463 5453109 5475750 5441949 5379177 
413.959 5321929 5297076 5319118 5386200 5483733 5586681 5664489 5685578 
414.441 5617974 5438846 5141818 4745445 4293674 3852242 3495458 3279848 
414.924 3231762 3334207 3535072 3758606 3933811 4019153 4011762 3948813 
415.406 3890468 3902523 4028165 4276679 4618684 4998606 5347122 5601596 
415.888 5725903 5714693 5595655 5416888 5238283 5111724 5068987 5118328 
416.370 5244006 5414193 5588742 5732379 5817598 5827483 5755890 5604448 
416.852 5381821 5101851 4784165 4450013 4116540 3792330 3472604 3141727 
417.334 2780591 2380992 1957199 1553568 1233348 1067597 1108409 1365761 
417.817 1797009 2310111 2790549 3117894 3206590 3024699 2600811 2015034 
418.299 1381700 829552 464370 359177 536980 969293 1581014 2268393 2929476 
418.841 3476990 3866151 4099682 4222078 4297738 4386709 4524297 4706718 
419.323 4894949 5028532 5052609 4932032 4666511 4288393 3857731 3445625 
419.806 3117454 2928372 2909656 3066531 3376315 3793693 4256368 4696393 
420.288 5061661 5323727 5487191 5582546 5653959 5736344 5837620 5931984 
420.770 5967655 5887718 5650043 5250621 4728797 4163968 3649114 3277007 
421.252 3118866 3209418 3549335 4106326 4826204 5633320 6442917 7171406 
421.734 7738174 8085616 8186328 8049511 7718369 7263510 6769427 6310009 
422.217 5942022 5690854 5548457 5476314 5416151 5307096 5095815 4757268 
422.699 4302509 3782600 3274085 2864243 2628938 2606758 2793955 3145472 
423.181 3596769 4078778 4541264 4961346 5335655 5668022 5954129 6172775 
423.663 6291678 6280373 6127665 5853677 5511924 5178966 4928033 4817285 
424.145 4871460 5080368 5404588 5789228 6178562 6519757 6773361 6912833 
424.627 6923710 6804864 6567211 6232638 5828295 5385757 4937136 4512307 
425.110 4144473 3869062 3720751 3730290 3910512 4247050 4690631 5167255 
425.592 5590334 5881980 6000348 5946449 5764823 5521781 5289398 5119455 
426.074 5032207 5021632 5067989 5155884 5285871 5476140 5752715 6133404 
426.556 6611517 7147957 7673616 8110983 8385791 8451071 8298433 7957861 
427.038 7488114 6957977 6436177 5971925 5592050 5303899 5101644 4975649 
427.520 4919712 4934225 5024289 5194940 5445852 5767678 6141770 6543595 
428.003 6943009 7309587 7613817 7826043 7922444 7888211 7725374 7457545 
428.485 7133721 6822574 6592923 6503441 6580598 6811375 7144033 7504429 
428.967 7817813 8022141 8086486 8009410 7812463 7526173 7182163 6807784 
429.449 6424977 6057542 5733405 5482110 5333147 5305443 5400955 5601213 
429.931 5870730 6163956 6432257 6638549 6761780 6802315 6779886 6728821 
430.414 6685899 6674440 6694638 6716874 6691259 6560988 6292621 5896820 
430.896 5441541 5035064 4801040 4839009 5181204 5779384 6510512 7225091 
431.378 7778845 8087089 8144926 8019932 7819035 7643721 7561620 7582338 
431.860 7666877 7747802 7764083 7678427 7489585 7226639 6939482 6683122 
432.342 6503273 6434833 6494344 6679001 6964997 7311471 7666903 7977535 
432.824 8205598 8335622 8377565 8356819 8301018 8222828 8112256 7939044 
433.307 7668231 7280403 6786270 6231761 5687746 5236906 4943902 4843052 
433.789 4929348 5163705 5481356 5807290 6076776 6239629 6273161 6184494 
434.271 6009729 5804225 5626855 5527454 5526471 5609870 5731377 5833098 
434.753 5862954 5796420 5645421 5453492 5277347 5161065 5123291 5149136 
435.235 5202115 5239778 5237243 5197782 5154128 5153575 5242864 5449972 
435.717 5772048 6173129 6588775 6943841 7158589 7171600 6956155 6531573 
436.200 5968926 5381487 4913425 4692700 4802894 5251730 5964555 6794660 
436.682 7562158 8117503 8368891 8317337 8044219 7688372 7390382 7247976 
437.164 7296329 7501446 7784051 8049664 8229769 8295219 8261581 8172108 
437.646 8080039 8025639 8023606 8064590 8123085 8171537 8188945 8168812 
438.128 8117741 8051650 7988471 7944692 7933008 7960710 8030366 8138099 
438.611 8272572 8411717 8524275 8575826 8533220 8377924 8113487 7770744 
439.093 7401458 7070348 6842175 6761696 6848650 7092268 7458516 7895866 
439.575 8348224 8766629 9108570 9344336 9456521 9439263 9300439 9062708 
440.057 8765131 8455181 8185411 8002906 7936494 7993985 8158988 8398393 
440.539 8667493 8923569 9135705 9287557 9380545 9429336 9456294 9481434 
441.021 9516886 9562187 9605097 9624934 9600031 9515843 9367163 9158649 
441.504 8899384 8598022 8258805 7884010 7482164 7075996 6708739 6443122 
441.986 6341433 6451091 6781704 7297653 7919478 8546306 9089355 9487291 
442.468 9726261 9832578 9857568 9850900 9845120 9850376 9859685 9861461 
442.950 9849747 9826324 9794006 9746372 9663801 9515900 9278124 8949251 
443.432 8564136 8189172 7904473 7781169 7850056 8092892 8445118 8824581 
443.915 9151265 9374212 9481536 9491992 9439061 9351256 9243944 9116618 
444.397 8961638 8774461 8560963 8338514 8132619 7968172 7867144 7845680 
444.879 7912599 8068935 8303270 8588977 8878994 9113897 9235846 9201774 
445.361 9003748 8673633 8279782 7901126 7608800 7443084 7403237 7454367 
445.843 7545249 7633658 7698496 7748033 7810115 7918495 8093000 8329485 
446.325 8596739 8847476 9029148 9098530 9036140 8849650 8575445 8268057 
446.808 7996056 7824217 7797836 7935619 8220451 8603994 9012820 9372722 
447.290 9623582 9734511 9712040 9595605 9445254 9318387 9259233 9283791 
447.772 9379317 9509771 9630533 9704318 9711140 9657750 9576066 9517951 
448.254 9536818 9677000 9958901 10371867 10874213 11402067 11888508 12270809 
448.736 12507597 12582873 12502391 12287329 11965783 11569536 11129059 
449.158 10677114 10250572 9885055 9612944 9452943 9402469 9434350 9501652 
449.640 9552372 9539445 9439633 9259399 9034956 8818709 8665580 8617378 
450.123 8687948 8861061 9093298 9330331 9515871 9609475 9596245 9487153 
450.605 9314182 9117488 8936027 8793218 8694187 8628059 8577534 8528841 
451.087 8480985 8447476 8452571 8519998 8660273 8863328 9096771 9315220 
451.569 9468308 9519418 9454708 9287781 9055213 8809604 8608838 8498899 
452.051 8508635 8639580 8864708 9126705 9347460 9446145 9349390 9019212 
452.533 8466658 7761896 7020283 6385072 5999761 5961452 6304708 6984530 
453.016 7893522 8875759 9769203 10448346 10834975 10917732 10740136 10385966 
453.498 9948195 9510553 9137474 8863840 8703016 8652496 8700992 8830416 
453.980 9015511 9224151 9412128 9528639 9524829 9358924 9011108 8489543 
454.462 7835144 7113381 6408390 5810593 5393265 5207253 5268037 5555376 
454.944 6016543 6579411 7171347 7725495 8197429 8566658 8831662 9002694 
455.427 9092985 9113821 9073368 8982234 8859732 8734730 8646865 8636484 
455.909 8731579 8940747 9246693 9611238 9980416 10300738 10526407 10622032 
456.391 10566473 10348724 9968874 9440318 8796372 8093562 7403195 6808467 
456.873 6379958 6156059 6132664 6260344 6457861 6627222 6686765 6583121 
457.355 6301163 5861965 5315270 4728936 4173992 3727119 3459631 3427851 
457.837 3668877 4184848 4938368 5849005 6813424 7722198 8481866 9042727 
458.320 9401183 9597512 9693197 9754837 9830005 9935833 10062152 10181618 
458.802 10267283 10305647 10306444 10300223 10329297 10426941 10602733 
459.224 10828813 11044713 11164829 11106379 10821624 10315788 9658128 
459.646 8962755 8370341 7996626 7902081 8076020 8443947 8892443 9304654 
460.128 9603536 9761293 9801802 9777205 9747402 9754912 9815431 9922805 
460.610 10058544 10202346 10333817 10432185 10470402 10413600 10230118 
461.032 9902841 9445966 8908119 8371627 7930783 7662077 7611403 7778215 
461.514 8123785 8582768 9087586 9580245 10014853 10360111 10591013 10688156 
461.996 10643456 10467974 10199997 9899544 9644084 9503915 9521163 9700539 
462.478 10007064 10380925 10753860 11075953 11324074 11504301 11641153 
462.900 11764337 11893203 12027730 12147597 12218477 12204977 12079341 
463.322 11834923 11490966 11095493 10714012 10418795 10273405 10310342 
463.744 10523269 10862522 11251665 11598525 11823226 11880069 11762017 
464.166 11501551 11155158 10791919 10471598 10237466 10115010 10111461 
464.588 10221416 10429325 10713385 11044631 11390475 11721460 12013178 
465.010 12252963 12440115 12582400 12689532 12766980 12813095 12820776 
465.432 12782712 12697945 12575207 12432904 12293693 12175769 12089510 
465.854 12035069 12006894 12000250 12017763 12071108 12178484 12354786 
466.276 12602638 12904036 13221532 13500870 13682810 13721608 13592242 
466.697 13301207 12883713 12401145 11925249 11522355 11246724 11125593 
467.119 11157784 11313406 11542693 11781096 11959312 12020922 11927510 
467.541 11672566 11284896 10831158 10403115 10094754 9987950 10121464 
467.963 10480628 10994582 11559838 12063317 12413225 12569994 12549770 
468.385 12417960 12257656 12148793 12137483 12226555 12381898 12551837 
468.807 12690690 12772895 12801628 12800801 12801224 12821921 12861300 
469.229 12894691 12886144 12799901 12618694 12353644 12048117 11768310 
469.651 11584975 11559912 11721328 12055559 12504101 12982136 13394290 
470.073 13660053 13739173 13634994 13391435 13069406 12729856 12409264 
470.495 12112857 11821843 11511089 11168569 10808303 10468433 10199528 
470.916 10045304 10022339 10115094 10280799 10470519 10643333 10783408 
471.338 10900315 11019417 11163479 11337229 11519316 11668068 11733910 
471.760 11675315 11476352 11150856 10740832 10300350 9886277 9540353 9278811 
472.242 9091057 8942896 8788752 8581616 8292495 7920815 7502199 7101141 
472.725 6802512 6691885 6826658 7224272 7849354 8624689 9439238 10179719 
473.207 10759350 11128772 11290643 11291181 11208603 11123769 11103498 
473.629 11184349 11364540 11609554 11864812 12078559 12213640 12262766 
474.051 12247885 12213796 12208923 12266709 12393675 12564437 12729948 
474.473 12832669 12832648 12720773 12528735 12317871 12167867 12149202 
474.894 12299062 12612398 13039705 13504058 13914742 14198569 14314029 
475.316 14257972 14061615 13778565 13468393 13176069 12927334 12724032 
475.738 12550915 12383796 12201052 11991426 11756306 11509260 11271964 
476.160 11071718 10934741 10884835 10940409 11109651 11387731 11752400 
476.582 12166276 12575307 12918882 13143474 13208330 13099283 12830840 
477.004 12445978 12003847 11569363 11202027 10939276 10794119 10752847 
477.426 10783634 10844411 10897958 10924464 10925211 10921917 10945427 
477.848 11024592 11170795 11373152 11600885 11818818 12001628 12148006 
478.270 12282071 12445544 12677404 12992424 13370374 13757695 14088277 
478.692 14301822 14371802 14312322 14172565 14011087 13872786 13768654 
479.113 13672057 13529515 13284727 12906355 12400866 11817048 11229422 
479.535 10726914 10385180 10252208 10344380 10643839 11104380 11655797 
479.957 12221076 12721050 13088837 13285952 13304753 13170969 12931019 
480.379 12642348 12353946 12096432 11884382 11721232 11610482 11563282 
480.801 11596262 11723982 11946286 12241385 12564011 12855902 13065182 
481.223 13154067 13109174 12937294 12657340 12290857 11859463 11391670 
481.645 10926991 10522015 10246159 10158138 10288864 10618632 11077553 
482.067 11551210 11914980 12074379 11983312 11662745 11187110 10667162 
482.489 10209411 9894904 9765636 9819508 10020139 10308605 10623162 10904273 
482.971 11108103 11214608 11228777 11180376 11113557 11077224 11104432 
483.393 11201349 11341995 11477969 11552088 11518711 11362840 11104927 
483.815 10797851 10507224 10300431 10224620 10296279 10499631 10790541 
484.237 11107715 11381049 11553841 11593645 11504776 11329238 11141832 
484.659 11030060 11061288 11265150 11614562 12035886 12424207 12685983 
485.080 12771660 12691914 12513720 12334043 12245239 12292321 12459660 
485.502 12672834 12834437 12852165 12679660 12332380 11884546 11441932 
485.924 11103313 10936929 10953795 11111095 11325061 11506791 11584966 
486.346 11528918 11355909 11123333 10907832 10773900 10758826 10856464 
486.768 11024501 11197225 11314753 11344173 11290108 11191479 11105764 
487.190 11087366 11163561 11328435 11545266 11766230 11946690 12063667 
487.612 12120112 12139693 12154016 12190046 12265530 12386914 12555047 
488.034 12769895 13031415 13335625 13667563 13999496 14289768 14493709 
488.456 14579467 14537309 14387757 14174478 13955325 13779278 13672360 
488.878 13629982 13620192 13594615 13505427 13325562 13056376 12731559 
489.299 12404659 12139890 11989937 11980544 12105373 12327783 12594935 
489.721 12851692 13063217 13222352 13350189 13482087 13652439 13876084 
490.143 14140418 14407773 14630656 14772887 14821073 14791812 14721837 
490.565 14654896 14620639 14626135 14656011 14684778 14690202 14665656 
490.987 14621898 14580082 14557521 14555434 14554404 14520309 14419084 
491.409 14228467 13950057 13608464 13245592 12904345 12620984 12419517 
491.831 12310990 12300073 12388989 12578261 12863238 13228457 13645778 
492.253 14072824 14464312 14783533 15011549 15155439 15246170 15331711 
492.675 15459071 15665123 15964174 16344202 16767290 17176800 17511374 
493.097 17708998 17723914 17535036 17150978 16610872 15979115 15337821 
493.519 14762857 14314189 14020531 13873830 13833554 13840021 13837239 
493.940 13784689 13673893 13528183 13397081 13336641 13392212 13585616 
494.362 13906878 14318062 14763075 15188293 15550946 15830575 16029969 
494.784 16169627 16278080 16380770 16495531 16627173 16768732 16903222 
495.206 17008936 17062490 17042740 16937240 16745390 16482546 16177281 
495.628 15869869 15601274 15400714 15280038 15228539 15219139 15216762 
496.050 15194528 15142057 15068132 14993155 14937592 14907949 14890168 
496.472 14850574 14748598 14556074 14269801 13920683 13565816 13279248 
496.894 13125131 13141414 13330460 13659872 14072556 14501804 14893419 
497.316 15210885 15441687 15592854 15682819 15731219 15750921 15746081 
497.738 15712446 15642306 15529698 15375558 15189455 14988911 14793171 
498.160 14619131 14475558 14360745 14264163 14171489 14071741 13961090 
498.581 13844875 13733754 13638123 13560724 13493881 13420929 13325108 
499.003 13198199 13049639 12906576 12811130 12806808 12921870 13160900 
499.425 13498707 13888445 14269594 14589288 14814272 14936790 14974117 
499.847 14960321 14935536 14931519 14967933 15048358 15163080 15292107 
500.269 15410206 15491543 15509074 15439616 15266825 14984871 14603754 
500.691 14152061 13678129 13238556 12892329 12685229 12634848 12725474 
501.113 12907828 13115151 13274517 13334135 13278276 13131937 12950386 
501.535 12797912 12722739 12730882 12779241 12783891 12656810 12334238 
501.957 11815456 11171142 10539906 10084828 9939582 10175391 10767692 
502.379 11608113 12530240 13376354 14034499 14469981 14724075 14887928 
502.800 15058584 15293707 15596071 15912575 16164472 16274164 16202188 
503.222 15958269 15598060 15198343 14834930 14564118 14409280 14366878 
503.644 14414376 14523004 14661161 14798148 14905702 14955473 14925863 
504.066 14807953 14610484 14359987 14094760 13855653 13670261 13547695 
504.488 13476712 13434646 13396971 13349717 13295099 13250245 13239005 
504.910 13280442 13381000 13528546 13694385 13837172 13916823 13902619 
505.332 13783659 13574529 13316731 13072408 12905692 12872801 13000391 
505.754 13277295 13654000 14058596 14419771 14684482 14837949 14901378 
506.176 14919299 14932219 14957606 14976196 14941216 14794712 14498731 
506.598 14057084 13523835 12989680 12551949 12291785 12242390 12385868 
507.020 12661771 12996894 13326522 13615154 13862653 14093963 14341159 
507.441 14623071 14934951 15245851 15509839 15675899 15707594 15592140 
507.863 15344759 15004386 14627581 14279424 14016305 13882371 13899432 
508.285 14064020 14348339 14706342 15086032 15434363 15711731 15896748 
508.707 15985912 15990690 15930678 15827466 15697765 15553809 15404595 
509.129 15258452 15126903 15024440 14964973 14958773 15006965 15100570 
509.551 15221826 15351701 15476940 15596035 15720577 15871412 16069510 
509.973 16323916 16624377 16937856 17217136 17406198 17457642 17344596 
510.395 17065148 16644410 16128951 15583795 15077461 14678123 14444948 
510.817 14413409 14589570 14940363 15399240 15868348 16243680 16444552 
511.239 16428488 16209816 15851734 15452152 15105261 14878085 14793932 
511.660 14832209 14945101 15082401 15216160 15346552 15497389 15696032 
512.082 15955826 16261873 16574670 16840846 17018320 17091530 17078394 
512.504 17020866 16970016 16965894 17021492 17121616 17229532 17304782 
512.926 17313402 17240562 17091100 16885058 16648046 16403453 16169223 
513.347 15954975 15765206 15602256 15468526 15367918 15305202 15283695 
513.769 15302948 15355933 15428748 15500163 15547323 15552024 15506461 
514.191 15418638 15311928 15220844 15177720 15204495 15302998 15454303 
514.612 15622033 15763853 15845515 15845758 15762383 15608487 15407861 
515.034 15186682 14969878 14780985 14639803 14564509 14570056 14664248 
515.456 14845549 15100625 15407410 15736303 16057382 16345751 16581198 
515.878 16750232 16843534 16853122 16772184 16594883 16318079 15943696 
516.299 15481668 14953213 14390658 13842736 13370386 13036716 12902348 
516.721 13004497 13345032 13881602 14534897 15201654 15774076 16173906 
517.143 16361045 16341192 16153206 15854440 15499538 15126357 14759985 
517.564 14417746 14119738 13897090 13785412 13813925 13991406 14296888 
517.986 14680406 15074909 15421823 15682697 15851594 15949425 16011610 
518.408 16068798 16133751 16199596 16246923 16257505 16225774 16164418 
518.829 16100606 16065699 16079723 16143662 16234989 16315528 16337329 
519.251 16257759 16051550 15715841 15274618 14774382 14281504 13863993 
519.673 13580660 13468510 13531184 13739517 14038411 14367861 14673924 
520.094 14926056 15121119 15276616 15417709 15562803 15717124 15872700 
520.516 16017661 16147181 16270595 16410276 16591933 16828898 17112210 
520.938 17406780 17663470 17829576 17870182 17778928 17579472 17316882 
521.360 17043918 16812674 16661832 16618110 16697533 16904940 17232346 
521.781 17653112 18122406 18574458 18937420 19154670 19198316 19085664 
522.203 18874770 18654008 18508004 18494832 18627816 18873234 19162346 
522.625 19414716 19569046 19592618 19489164 19287432 19028396 18747074 
523.046 18463194 18182190 17899868 17611610 17319516 17034776 16776817 
523.468 16569308 16432768 16382021 16420882 16540045 16714836 16908052 
523.890 17078258 17186504 17213178 17167320 17092332 17054320 17127596 
524.311 17371862 17807180 18406414 19097358 19789442 20389492 20831692 
524.733 21090068 21172866 21109996 20934078 20671174 20336480 19943856 
525.155 19518284 19097858 18730732 18456246 18281826 18168752 18033130 
525.576 17775392 17306310 16593776 15682502 14699286 13815041 13200462 
525.998 12983905 13204545 13809302 14665780 15615708 16503770 17222428 
526.420 17731854 18049564 18231644 18340852 18429002 18519240 18608894 
526.842 18679542 18712178 18697440 18640518 18557294 18467916 18388132 
527.263 18323912 18273182 18231288 18198934 18188520 18223942 18333150 
527.685 18537856 18837920 19203054 19569522 19858218 19988418 19904282 
528.107 19596534 19109420 18535184 17984592 17570664 17371200 17412788 
528.528 17670278 18080040 18562860 19043160 19472806 19831130 20119722 
528.950 20348628 20523316 20636982 20674022 20618768 20470148 20249936 
529.372 20006702 19802996 19698070 19731902 19906932 20185546 20495002 
529.793 20753030 20882168 20832928 20596184 20201476 19707242 19179668 
530.215 18683022 18261184 17934166 17702170 17552292 17467328 17431622 
530.637 17435318 17472678 17539898 17633228 17747476 17876864 18016666 
531.058 18163676 18316314 18473250 18631116 18783322 18919656 19026584 
531.480 19090850 19101226 19051376 18942096 18782436 18590000 18387772 
531.902 18204174 18067206 17998864 18012914 18109912 18277348 18490034 
532.324 18717012 18925562 19086670 19182404 19206598 19166436 19078646 
532.745 18966622 18852774 18751174 18663600 18576860 18466792 18303848 
533.167 18066508 17750422 17375936 16984426 16632751 16378442 16260045 
533.589 16290282 16449957 16697655 16978542 17244060 17465066 17635246 
534.010 17770502 17899584 18054876 18259538 18523618 18841558 19195734 
534.432 19559234 19901728 20196814 20423486 20571622 20642976 20650196 
534.854 20612084 20547538 20470960 20387678 20295764 20190830 20072700 
535.275 19950288 19842108 19768726 19745504 19771634 19827128 19873432 
535.697 19866164 19769352 19565092 19261314 18887934 18489190 18106834 
536.119 17773632 17507904 17314602 17192534 17140396 17159730 17253148 
536.540 17418770 17645032 17906430 18168406 18394712 18555610 18639078 
536.962 18652368 18619410 18568630 18523670 18491842 18461720 18406902 
537.384 18299136 18123546 17889184 17632236 17406876 17272626 17268842 
537.806 17402112 17639092 17919270 18168978 18326392 18362718 18285192 
538.227 18132400 17954046 17797580 17690848 17640758 17641010 17683318 
538.649 17765738 17893456 18071246 18293164 18534906 18759540 18926068 
539.071 19009194 19012416 18971192 18940672 18972380 19096628 19305836 
539.492 19558396 19791408 19949668 20001924 19952454 19835086 19701410 
539.914 19601616 19567988 19613124 19729690 19898220 20090764 20276714 
540.336 20424958 20504524 20493980 20387662 20203096 19977916 19763704 
540.757 19608450 19536948 19543784 19594324 19643430 19652646 19612120 
541.179 19544578 19498530 19524160 19653254 19885358 20188882 20512560 
541.601 20803754 21026918 21163502 21207778 21155884 20997520 20718524 
542.022 20312554 19796396 19217922 18651842 18187358 17894420 17806886 
542.444 17909710 18149030 18448160 18735238 18966930 19130104 19238444 
542.866 19315286 19380626 19440948 19491330 19523566 19536226 19540090 
543.288 19558156 19616782 19739562 19939534 20216166 20555962 20934742 
543.709 21322542 21682802 21979368 22182414 22272802 22249760 22130630 
544.131 21946750 21729484 21500954 21265630 21012686 20726196 20400978 
544.553 20052642 19720164 19451730 19283014 19220454 19231780 19256604 
544.974 19226518 19099912 18879294 18617270 18392436 18284984 18340134 
545.396 18549552 18853162 19163008 19400682 19518580 19518906 19443014 
545.818 19351814 19293276 19286332 19316312 19349414 19351798 19310802 
546.239 19242610 19188202 19195168 19295666 19495016 19766454 20062458 
546.661 20326962 20517904 20616466 20630150 20585594 20518310 20459784 
547.083 20425918 20414786 20407128 20375294 20289610 20130742 19896966 
547.504 19608098 19302500 19029420 18841138 18775932 18852168 19063050 
547.926 19380910 19762482 20159564 20531378 20845086 21080646 21229822 
548.348 21294208 21285310 21224318 21143616 21079640 21066850 21127336 
548.770 21260212 21438546 21614056 21736388 21767122 21700380 21566784 
549.191 21429074 21357246 21400396 21566302 21810124 22044444 22159938 
549.613 22069624 21731970 21172078 20472064 19756784 19155714 18761948 
550.035 18619476 18709478 18966742 19296490 19609842 19844230 19972454 
550.456 20004716 19976286 19932564 19909750 19928704 19990564 20082522 
550.878 20185602 20285182 20377578 20471218 20582940 20730438 20925476 
551.300 21166970 21439732 21715526 21961834 22145622 22240366 22231548 
551.721 22116420 21905026 21617516 21284900 20944342 20634316 20392656 
552.143 20246176 20206538 20266850 20403996 20583096 20765934 20922946 
552.565 21035634 21099644 21121040 21111090 21080454 21036250 20983242 
552.986 20925424 20868166 20818656 20782834 20762660 20753732 20746966 
553.408 20732152 20704334 20668060 20639052 20640368 20694662 20819784 
553.830 21022412 21297982 21632090 22004578 22390396 22758072 23072722 
554.252 23293894 23381874 23309644 23070220 22686018 22204890 21696556 
554.673 21231968 20865838 20629384 20523762 20528434 20611446 20743790 
555.095 20902896 21071954 21236010 21374600 21462106 21475666 21403160 
555.517 21254360 21061404 20875438 20747776 20713994 20783262 20935740 
555.938 21131828 21327808 21496118 21632406 21756886 21901004 22094408 
556.360 22347452 22644730 22945068 23195096 23345702 23364226 23247724 
556.782 23023042 22742162 22463232 22239592 22103164 22055330 22067914 
557.203 22092410 22079744 21993192 21826336 21605170 21384080 21224578 
557.625 21176230 21260272 21460634 21728750 21997908 22209518 22324472 
558.047 22336052 22266090 22156012 22049802 21979620 21961692 21993778 
558.468 22061518 22144110 22222290 22280336 22307410 22298822 22256040 
558.890 22188050 22110056 22043112 22008018 22018314 22075656 22166450 
559.312 22264976 22337806 22356028 22302044 22175000 21990586 21777842 
559.734 21572444 21406246 21304884 21281570 21335722 21452932 21607160 
560.155 21765428 21889626 21946652 21913658 21783018 21565170 21287432 
560.577 20989612 20712616 20495440 20367368 20344512 20432610 20627978 
560.999 20920262 21291544 21716482 22160730 22577794 22917652 23130936 
561.420 23179606 23050022 22758154 22351530 21895980 21469040 21138126 
561.842 20944626 20900490 20986414 21162738 21378526 21588642 21758806 
562.264 21866830 21902196 21860828 21744210 21560936 21332666 21097544 
562.685 20905194 20813334 20867338 21083662 21438074 21866348 22277386 
563.107 22572338 22681460 22579488 22297570 21908988 21513286 21203312 
563.529 21035276 21021778 21130056 21302166 21472402 21594394 21651368 
563.950 21655760 21637624 21629710 21653020 21708260 21777678 21833024 
564.372 21848836 21808610 21710336 21563452 21384328 21189582 20993044 
564.794 20807710 20646474 20524334 20456856 20453224 20510020 20605774 
565.216 20705864 20768358 20761170 20676508 20537292 20392566 20299354 
565.637 20305830 20427592 20641822 20891240 21109188 21239608 21259012 
566.059 21183908 21063986 20962210 20927944 20985436 21124874 21312384 
566.481 21501786 21654014 21746090 21771598 21736556 21651716 21527686 
566.902 21373060 21198136 21017814 20850502 20717006 20633528 20606744 
567.324 20633134 20701410 20798034 20910224 21028130 21141622 21235930 
567.746 21292208 21289700 21215108 21072528 20890240 20719190 20618140 
568.167 20643844 20829492 21176030 21651032 22199452 22756662 23257826 
568.589 23652796 23903966 23986334 23888290 23611354 23175384 22618802 
569.011 22003040 21401994 20886868 20517536 20324530 20306380 20432300 
569.432 20655872 20926564 21200836 21452556 21670418 21855710 22015968 
569.854 22160500 22296204 22425780 22547572 22656136 22743958 22803256 
570.276 22829538 22823512 22792170 22746308 22698016 22656614 22626248 
570.698 22607482 22600932 22611404 22650940 22735996 22880570 23088400 
571.119 23345686 23620390 23865562 24035216 24093500 24025330 23839350 
571.541 23563960 23238198 22898720 22577278 22295520 22066696 21900468 
571.963 21803348 21777958 21819122 21910912 22024770 22121546 22163134 
572.384 22118902 21977560 21752092 21481018 21220366 21027868 20954214 
572.806 21024734 21233628 21543040 21895608 22228388 22488392 22650320 
573.228 22718032 22720514 22694778 22673436 22670422 22679638 22683054 
573.649 22666320 22632410 22608330 22636778 22759878 23000164 23344496 
574.071 23741918 24113760 24383512 24492790 24422676 24195254 23866004 
574.493 23503716 23169200 22909446 22748978 22695580 22747124 22895802 
574.914 23128092 23420722 23741126 24045752 24287932 24431724 24457602 
575.336 24369736 24190810 23954396 23689880 23412668 23122302 22807254 
575.758 22456288 22071310 21674514 21310372 21038076 20911882 20971050 
576.180 21223312 21642248 22168398 22725174 23239036 23650270 23932008 
576.601 24091320 24165104 24203158 24254816 24353592 24507076 24698514 
577.023 24893710 25056276 25155644 25177944 25127072 25021238 24884712 
577.445 24739842 24602800 24479554 24367668 24259246 24145808 24021428 
577.866 23885868 23744916 23609752 23493218 23405028 23348846 23319964 
578.288 23307716 23299918 23290816 23286240 23305914 23376548 23524136 
578.710 23761010 24077180 24437042 24785792 25066628 25230004 25251298 
579.131 25134776 24911544 24627382 24329924 24059228 23836694 23666194 
579.553 23536962 23431902 23333548 23231042 23123404 23018972 22931688 
579.975 22874332 22853056 22862030 22883852 22892866 22866500 22793636 
580.396 22682064 22556772 22454432 22409992 22442356 22549908 22711216 
580.818 22897482 23083314 23259588 23434442 23626322 23849268 24100818 
581.240 24355588 24573676 24711960 24742054 24662830 24501172 24302520 
581.661 24111202 23959528 23855600 23786318 23725552 23648282 23539388 
582.083 23396304 23226346 23040912 22850836 22664266 22490098 22340954 
582.505 22233062 22185540 22213246 22320728 22499260 22728414 22982004 
582.927 23233002 23461762 23656478 23812160 23928368 24006832 24051272 
583.348 24067864 24066620 24059854 24058446 24069406 24093178 24125724 
583.770 24163092 24207248 24268550 24363648 24505630 24694042 24904770 
584.192 25092546 25194462 25149060 24918088 24497706 23926842 23277216 
584.613 22645440 22124252 21786588 21676534 21800758 22134014 22625006 
585.035 23211896 23824942 24396918 24873744 25212958 25392232 25411016 
585.457 25290992 25071984 24804574 24544638 24336884 24208386 24161566 
585.878 24174556 24206144 24208066 24143292 23994898 23775518 23521676 
586.300 23286050 23116496 23040168 23056118 23136572 23239104 23322032 
586.722 23362790 23362060 23340876 23325866 23337198 23377478 23433276 
587.143 23483576 23514964 23531564 23557148 23624184 23758226 23963322 
587.565 24215868 24469970 24673316 24791484 24819310 24786450 24742802 
587.987 24744020 24826538 24994750 25220054 25452840 25641198 25744574 
588.409 25747864 25659530 25504796 25311564 25103016 24891930 24681640 
588.830 24472258 24266572 24073360 23908474 23790452 23735042 23751286 
589.252 23836998 23978200 24149168 24318948 24454476 24527870 24524804 
589.674 24447418 24316446 24164628 24032206 23953562 23948098 24017640 
590.095 24147512 24314662 24496026 24678338 24858944 25042340 25231916 
590.517 25422260 25595468 25726910 25792028 25779610 25698060 25575784 
590.939 25450050 25352088 25294692 25264184 25224166 25126612 24932944 
591.360 24624384 24209904 23719588 23196074 22679260 22196202 21763890 
591.782 21393638 21100296 20910222 20856510 20970554 21268484 21738570 
592.204 22336792 22991328 23624598 24162938 24556648 24788766 24871722 
592.625 24840632 24740308 24620402 24524034 24485194 24527662 24659610 
593.047 24872262 25137832 25416436 25660438 25827902 25895698 25863182 
593.469 25752564 25597742 25435236 25289760 25170134 25072958 24991498 
593.891 24925926 24890092 24907988 25006516 25201242 25485392 25824364 
594.312 26160386 26428968 26567358 26534774 26319842 25941994 25445306 
594.734 24889352 24341286 23858188 23483620 23239860 23125064 23115680 
595.156 23172954 23256480 23331346 23381080 23410402 23442510 23507432 
595.577 23628878 23813258 24044352 24286912 24497694 24644708 24717196 
595.999 24733470 24732828 24765528 24870918 25061182 25314440 25579292 
596.421 25791676 25891330 25847526 25667840 25400142 25114114 24886178 
596.842 24774924 24802340 24952018 25174980 25411096 25602646 25715978 
597.264 25747036 25717828 25663198 25616298 25597494 25607944 25633886 
597.686 25655758 25660278 25646256 25625994 25617682 25637336 25688270 
598.107 25757906 25818944 25839760 25794774 25672290 25479216 25238374 
598.529 24982446 24742578 24545420 24409506 24345966 24363474 24469666 
598.951 24670322 24966096 25347448 25792176 26263906 26720942 27121944 
599.373 27432460 27632052 27711242 27668688 27506954 27231614 26854620 
599.794 26398968 25907256 25438824 25059690 24833076 24795402 24946094 
600.216 25242968 25617190 25988504 26288872 26484100 26575076 26593090 
600.638 26580112 26575334 26599228 26651282 26715858 26773108 26808068 
601.059 26813952 26791188 26742000 26666162 26560612 26422880 26256780 
601.481 26074984 25899618 25755722 25662680 25629840 25653232 25719450 
601.903 25810470 25911100 26011026 26104066 26186264 26253312 26301220 
602.324 26329686 26346390 26369284 26423016 26535638 26728138 27007870 
602.746 27365764 27778506 28213902 28635556 29012156 29318216 29536840 
603.168 29662234 29700118 29668588 29593506 29505002 29425776 29362202 
603.589 29300130 29209008 29054288 28812304 28486142 28109928 27743168 
604.011 27446484 27265272 27209246 27250336 27330782 27387348 27377482 
604.433 27291970 27160240 27036050 26980528 27034516 27206824 27469956 
604.855 27773046 28054966 28264220 28375378 28391020 28339502 28260496 
605.276 28194322 28164692 28171470 28189706 28179634 28100620 27926290 
605.698 27658650 27330944 27001996 26734188 26580538 26565032 26677266 
606.120 26876652 27107628 27318842 27471380 27548820 27553390 27499918 
606.541 27407886 27298782 27195654 27120366 27093074 27124796 27210584 
606.963 27325254 27428170 27478362 27447824 27338922 27185796 27047348 
607.385 26980550 27019790 27160402 27360788 27556272 27685778 27718902 
607.806 27663512 27562018 27467322 27423930 27445910 27515550 27592862 
608.228 27638432 27630888 27576514 27504944 27457044 27467566 27549858 
608.650 27692428 27861692 28015458 28110110 28114484 28016344 27824102 
609.071 27565722 27282936 27025962 26837574 26745510 26754224 26845250 
609.493 26983618 27131738 27265446 27379456 27487766 27611832 27768366 
609.915 27957036 28160204 28350336 28507044 28628688 28736982 28865926 
610.337 29046800 29288400 29568784 29837386 30033420 30111560 30055432 
610.758 29886668 29653390 29416124 29222362 29095784 29034748 29020676 
611.180 29030194 29045558 29059444 29070452 29076960 29072462 29044710 
611.602 28981184 28876028 28734498 28572752 28412598 28275566 28174866 
612.023 28114224 28089352 28092814 28117724 28160498 28220860 28300266 
612.445 28400324 28521928 28664854 28826988 29002952 29181582 29346690 
612.867 29478822 29560268 29583334 29554682 29496438 29437674 29406860 
613.288 29418626 29467978 29531300 29576678 29578142 29524986 29427194 
613.710 29309290 29199466 29113774 29049160 28982804 28884160 28726418 
614.132 28501518 28224988 27934592 27677706 27495246 27413570 27435468 
614.553 27543474 27705774 27888824 28063748 28211076 28323006 28399994 
614.975 28448036 28475044 28489950 28501222 28516004 28540308 28577568 
615.397 28628118 28688908 28754320 28817130 28869450 28904410 28915390 
615.819 28895556 28837716 28733314 28574204 28355732 28080110 27760120 
616.240 27419438 27093626 26821678 26639452 26572874 26629500 26797542 
616.662 27047152 27340304 27635222 27895854 28098480 28229566 28285238 
617.084 28266736 28176672 28017084 27790142 27501292 27162054 26793406 
617.505 26427690 26102604 25859862 25736242 25753654 25915492 26202586 
617.927 26578734 26994512 27402100 27765682 28065242 28299156 28476966 
618.349 28610148 28702764 28748202 28731784 28640594 28472330 28242970 
618.770 27983814 27737450 27542896 27424728 27390234 27430510 27529070 
619.192 27670014 27844658 28049694 28281452 28530210 28776296 28994240 
619.614 29163620 29276950 29346804 29401016 29474408 29591066 29753640 
620.035 29939228 30108828 30220500 30245614 30180982 30048774 29888142 
620.457 29737196 29623708 29555352 29522858 29508460 29498388 29490690 
620.879 29496520 29533060 29613038 29733734 29872592 29988214 30030690 
621.301 29960826 29761110 29448506 29071010 28703114 28422622 28288370 
621.722 28327964 28526588 28834270 29178010 29490170 29722126 29856472 
622.144 29905650 29901072 29876962 29855292 29842982 29833834 29818540 
622.566 29793446 29765276 29748006 29756114 29795506 29860568 29936368 
622.987 30007400 30063894 30105854 30139626 30170586 30195066 30198868 
623.409 30160748 30064662 29910216 29718578 29526576 29375030 29294092 
623.831 29289526 29341894 29413848 29468782 29481942 29451348 29394780 
624.252 29341884 29319572 29341726 29406894 29501136 29605816 29703586 
624.674 29783692 29840376 29870124 29869434 29833874 29760036 29648128 
625.096 29503676 29337068 29161002 28990000 28838268 28720346 28652620 
625.517 28649984 28722492 28868664 29071434 29296286 29497374 29633078 
625.939 29675214 29622514 29500676 29357938 29247264 29209284 29262586 
626.361 29397386 29581852 29772404 29931774 30036728 30084478 30089776 
626.783 30078712 30077980 30104542 30161516 30235718 30302744 30332120 
627.204 30299468 30193940 30023284 29812160 29597110 29417254 29301238 
627.626 29264450 29306902 29419094 29588426 29805446 30064468 30357554 
628.048 30667594 30962782 31193934 31307954 31259456 31027212 30625560 
628.469 30106606 29551846 29047070 28671930 28476382 28471556 28630838 
628.891 28898704 29207488 29488198 29692538 29799942 29821650 29793884 
629.313 29767766 29792016 29893666 30071066 30291872 30507738 30667470 
629.734 30740070 30725402 30654738 30577006 30540188 30575428 30684678 
630.156 30843802 31012974 31155874 31248214 31284420 31273048 31228766 
630.578 31163682 31084064 30993710 30899052 30813550 30758826 30757250 
630.999 30825462 30967670 31174430 31426204 31700686 31981074 32256742 
631.421 32522266 32772768 32998814 33186354 33320288 33388690 33388226 
631.843 33324246 33208076 33050886 32861078 32644178 32406034 32158702 
632.265 31922764 31723062 31584138 31518982 31523252 31574338 31639494 
632.686 31686640 31693694 31656700 31588238 31512032 31451934 31427040 
633.108 31446716 31510698 31611286 31735526 31867326 31986428 32072192 
633.530 32107316 32082226 32000408 31878770 31744244 31622664 31531806 
633.951 31474188 31438506 31405814 31361012 31301830 31241630 31204524 
634.373 31214504 31286204 31416370 31584256 31755516 31893986 31965764 
634.795 31943670 31810042 31554658 31178302 30696490 30147416 29592280 
635.216 29106616 28773666 28656030 28779028 29118548 29606304 30143016 
635.638 30623202 30971164 31152112 31183106 31119614 31041648 31025280 
636.060 31120202 31342688 31671086 32056658 32433948 32743542 32942594 
636.481 33014160 32969544 32842826 32679548 32518792 32385204 32279950 
636.903 32184958 32072118 31920380 31728532 31521376 31342292 31238826 
637.325 31244722 31362404 31558938 31772856 31938958 32003274 31944110 
637.747 31775406 31539822 31289464 31065374 30888436 30754678 30645570 
638.168 30541436 30436028 30341522 30285866 30298678 30400320 30589586 
638.590 30842764 31116624 31362038 31539406 31625472 31621744 31551442 
639.012 31454928 31375162 31348324 31393148 31503524 31647558 31772824 
639.433 31823886 31752736 31539116 31199302 30789108 30390656 30090712 
639.855 29965662 30054972 30355730 30822978 31387536 31969052 32494168 
640.277 32914126 33203332 33360342 33399768 33345280 33220474 33042118 
640.698 32818072 32545484 32214696 31816124 31350496 30837860 30323710 
641.120 29869442 29545620 29410052 29487390 29761594 30176588 30656226 
641.542 31118268 31502518 31780090 31950008 32028350 32033214 31975152 
641.963 31856204 31679020 31457882 31221570 31011288 30864026 30795078 
642.385 30789644 30806234 30795746 30720984 30578268 30399236 30240004 
642.807 30151610 30160164 30252254 30384094 30498702 30554746 30545594 
643.229 30500930 30472270 30506998 30630866 30834898 31082242 31320302 
643.650 31502290 31593648 31572884 31427808 31149042 30733294 30192334 
644.072 29567340 28933824 28388274 28036272 27952936 28160098 28615752 
644.494 29228218 29880760 30462048 30902572 31178026 31307804 31335130 
644.915 31313150 31289416 31298632 31365762 31501030 31695698 31912958 
645.337 32089050 32141126 31985900 31576964 30926710 30121680 29297864 
645.759 28620050 28228754 28196580 28518808 29117148 29876690 30672104 
646.180 31409592 32035782 32529852 32890954 33121546 33221282 33190860 
646.602 33041242 32799612 32502284 32185280 31865608 31533876 31158996 
647.024 30709528 30178678 29604678 29068498 28677542 28534646 28694726 
647.445 29148488 29817532 30586388 31325784 31936304 32372722 32641476 
647.867 32788060 32868614 32929814 32988476 33030360 33015194 32893398 
648.289 32615694 32145612 31470268 30605480 29601850 28538620 27526834 
648.711 26687180 26125098 25917480 26085658 26592854 27347250 28231668 
649.132 29122972 29915898 30547416 30992808 31263254 31390888 31419180 
649.554 31389828 31333936 31269610 31194880 31086374 30898116 30575006 
649.976 30067484 29354518 28463846 27483508 26555918 25836926 25473986 
650.397 25555262 26084616 26978252 28088058 29246316 30293022 31124790 
650.819 31701242 32038648 32187224 32208170 32152596 32047326 31897370 
651.241 31689108 31399484 31001008 30471850 29805568 29022968 28180434 
651.662 27370866 26721014 26354824 26370230 26806694 27628556 28727068 
652.084 29945282 31129628 32149922 32935712 33478416 33815072 34002464 
652.506 34091764 34117636 34091724 34010308 33861056 33628524 33293168 
652.927 32831822 32224538 31464794 30577026 29623540 28711016 27965272 
653.349 27497454 27379494 27613712 28135798 28830598 29578624 30281356 
653.771 30884926 31382714 31795714 32148700 32450636 32690672 32846426 
654.193 32899504 32844154 32687430 32437610 32090378 31624126 31008372 
654.614 30226834 29302674 28316826 27404352 26713818 26381916 26480786 
655.036 26997988 27838278 28857250 29906558 30861824 31657898 32282218 
655.458 32758480 33119964 33392338 33584968 33695460 33720232 33662888 
655.879 33534274 33346958 33105636 32803542 32426472 31966326 31435420 
656.301 30878198 30363942 29977440 29796336 29863998 30181494 30703958 
656.723 31358900 32057454 32720084 33291130 33737428 34049800 34234312 
657.144 34306144 34283288 34184264 34024716 33811692 33539280 33185348 
657.566 32717896 32103824 31330040 30420234 29449754 28536826 27818500 
657.988 27427322 27441636 27866272 28622272 29574760 30558272 31422216 
658.409 32075190 32489784 32703444 32789058 32832282 32898152 33016592 
658.831 33182426 33362066 33505674 33554944 33458106 33173786 32682502 
659.253 31997530 31175128 30316320 29545552 29000688 28790076 28963154 
659.674 29498332 30306134 31255692 32199754 33022856 33653540 34070600 
660.096 34292748 34360648 34319976 34207944 34056124 33889676 33727868 
660.518 33583488 33456102 33329916 33175202 32961658 32672052 32315852 
660.940 31930912 31578342 31325250 31220952 31289992 31526746 31905982 
661.361 32392600 32953320 33558632 34173264 34752360 35238288 35565252 
661.783 35682596 35569392 35249036 34782092 34254720 33749452 33317278 
662.205 32971978 32691624 32440262 32188580 31934084 31703382 31544190 
662.626 31502192 31605328 31852326 32215304 32648336 33102208 33539184 
663.048 33933028 34270068 34543988 34750616 34887268 34954476 34958908 
663.470 34913620 34835972 34743152 34645120 34542460 34426384 34284436 
663.891 34106416 33892224 33655160 33424032 33237538 33135704 33154544 
664.313 33313978 33613916 34032168 34530956 35062564 35578920 36043908 
664.735 36433508 36737216 36953588 37084172 37130052 37091800 36972792 
665.156 36782536 36537856 36261784 35975756 35695620 35429308 35179076 
665.578 34948960 34751500 34607940 34544916 34580980 34714240 34914412 
666.000 35127348 35290356 35346712 35268656 35062500 34766416 34432072 
666.422 34110844 33837496 33621212 33446150 33272454 33041790 32668396 
666.843 32044726 31051528 29564204 27494630 24819682 21610734 18029832 
667.265 14319273 10761061 7596640 5005255 3062054 1742503 948707 553996 
667.747 448604 554516 840671 1308190 1970450 2833960 3887920 5102147 6437029 
668.289 7848708 9297639 10754708 12197399 13610280 14983468 16310306 
668.711 17587754 18815474 19994494 21125350 22205816 23228250 24179070 
669.132 25037234 25776104 26370838 26803990 27077504 27218950 27287838 
669.554 27365790 27537544 27876766 28417666 29146748 30002382 30897918 
669.976 31740698 32456658 33009550 33396136 33636816 33756744 33775480 
670.398 33701636 33538900 33296794 32996258 32667180 32339816 32028974 
670.819 31727678 31409680 31047186 30629456 30181582 29762830 29459888 
671.241 29356692 29504436 29908244 30522218 31267490 32049160 32788890 
671.663 33434814 33963396 34374404 34679268 34893160 35030128 35104364 
672.084 35128148 35107116 35033268 34879240 34601992 34151092 33494224 
672.506 32637466 31642198 30614894 29692798 29010748 28656170 28656452 
672.928 28969964 29510892 30170514 30855682 31510684 32114984 32675526 
673.349 33205510 33707644 34166712 34553292 34834404 34988000 35006124 
673.771 34893004 34655564 34295388 33806676 33184610 32440648 31617122 
674.193 30790536 30070712 29567252 29364354 29494454 29924674 30563598 
674.614 31285512 31976662 32554436 32992540 33316016 33583988 33858948 
675.036 34180544 34554704 34951836 35318852 35590064 35705740 35613840 
675.458 35273632 34662508 33781324 32668560 31403844 30118720 28975134 
675.880 28128752 27707582 27765636 28273626 29122720 30165042 31247018 
676.301 32243538 33087608 33759728 34273352 34649896 34904548 35042140 
676.723 35065776 34989012 34839084 34647404 34433140 34183716 33850392 
677.145 33359906 32653024 31717350 30618718 29491014 28521202 27890462 
677.566 27712724 28010752 28703230 29641776 30645402 31567780 32324974 
677.988 32899832 33326098 33656880 33935860 34179500 34381552 34525024 
678.410 34597088 34592596 34508464 34331872 34029892 33556400 32871956 
678.831 31971776 30909950 29808254 28844696 28195898 28004422 28327794 
679.253 29122346 30251002 31524346 32762558 33820216 34626540 35179392 
679.675 35523664 35718148 35811188 35829328 35777088 35649088 35439960 
680.096 35147876 34769224 34291004 33690104 32939854 32032170 30998568 
680.518 29930654 28969086 28279038 28017528 28274286 29049854 30243234 
680.940 31687820 33177596 34522800 35598292 36345280 36775952 36947072 
681.362 36939720 36831160 36682720 36538368 36417092 36311900 36183564 
681.783 35966244 35571856 34915716 33953816 32710324 31298546 29899610 
682.205 28746602 28050236 27943136 28450124 29477558 30844404 32324336 
682.627 33724224 34907952 35817812 36463652 36893148 37160732 37304580 
683.048 37347744 37303012 37182980 37004060 36776956 36493676 36116112 
683.470 35585008 34838780 33849312 32652498 31365908 30175694 29279158 
683.892 28851504 28979052 29637520 30695882 31962352 33241890 34373960 
684.313 35279060 35950952 36436244 36795408 37077548 37302876 37465104 
684.735 37544156 37520004 37379280 37110124 36696120 36114164 35341068 
685.157 34374448 33253668 32077992 30988722 30152562 29716580 29756388 
685.578 30259100 31118404 32176540 33253490 34208424 34970140 35535828 
686.000 35955264 36295768 36613768 36930872 37235244 37491744 37661768 
686.422 37710948 37613744 37350928 36902688 36252776 35399432 34372880 
686.844 33246494 32134588 31185506 30535562 30282262 30456038 31012614 
687.265 31845610 32817510 33807452 34725204 35530392 36222900 36821832 
687.687 37343768 37790180 38147740 38399772 38538700 38572852 38520244 
688.109 38394788 38188384 37865564 37367696 36639216 35661036 34476572 
688.530 33201328 31998970 31060112 30536480 30505176 30948568 31763572 
688.952 32789352 33848716 34805140 35573352 36131828 36506760 36750640 
689.374 36917456 37045996 37158572 37258736 37334972 37359696 37291944 
689.795 37078228 36660768 36000280 35093892 33996432 32815576 31709456 
690.217 30847466 30362516 30330808 30743390 31517830 32514836 33586620 
690.639 34605232 35479936 36171176 36676880 37020472 37235168 37359944 
691.060 37435264 37498516 37583600 37708408 37865832 38016856 38098280 
691.482 38039556 37783976 37317468 36679788 35964984 35290248 34775604 
691.904 34505984 34507276 34746136 35142940 35604920 36046160 36418280 
692.326 36715392 36967152 37218400 37509032 37856528 38247964 38643028 
692.747 38985184 39221644 39310280 39230720 38984448 38591228 38083156 
693.169 37499236 36887404 36298304 35784480 35396396 35168096 35110540 
693.591 35203528 35401528 35640900 35861080 36026188 36132732 36210996 
694.012 36308012 36469944 36717288 37036636 37382944 37700616 37941768 
694.434 38083132 38130404 38107348 38036880 37923424 37747504 37474860 
694.856 37078764 36560804 35965348 35373616 34891124 34608900 34582932 
695.277 34819220 35277828 35887220 36566344 37248624 37880980 38425408 
695.699 38852648 39133348 39243728 39174932 38945028 38603180 38223752 
696.121 37891912 37671028 37587184 37616668 37698436 37750596 37702516 
696.542 37521252 37218440 36846284 36474236 36171344 35979836 35909172 
696.964 35940128 36039988 36176868 36331448 36500840 36692256 36913264 
697.386 37162804 37427300 37683824 37909120 38085236 38205844 38274044 
697.807 38296500 38276052 38208112 38082512 37891908 37640900 37353712 
698.229 37069932 36839840 36706940 36692724 36791324 36971000 37188004 
698.651 37398900 37578112 37721052 37839988 37951832 38067484 38185108 
699.073 38293284 38378884 38437588 38477584 38515568 38563944 38617964 
699.494 38647744 38605088 38440188 38121460 37656244 37095848 36528240 
699.916 36045816 35727052 35609988 35685164 35903504 36196920 36504556 
700.338 36783156 37017876 37215056 37390964 37558960 37723404 37879468 
700.759 38018648 38134528 38226992 38301356 38364660 38420036 38463460 
701.181 38483192 38464004 38393548 38267740 38095540 37899512 37714472 
701.603 37577144 37520160 37561804 37698800 37904404 38132716 38333432 
702.024 38460420 38489504 38424992 38300124 38165516 38073772 38066492 
702.446 38158896 38338440 38567884 38799984 38985096 39083432 39073092 
702.868 38949260 38725120 38427624 38097736 37782888 37530356 37382504 
703.289 37363368 37473832 37687940 37960716 38235124 38457036 38592024 
703.711 38629568 38586716 38498952 38412704 38368808 38391472 38483428 
704.133 38624468 38777140 38893984 38933912 38870104 38699804 38445524 
704.555 38152780 37878580 37673164 37571860 37581984 37683776 37835328 
704.976 37988664 38103724 38157304 38149660 38100372 38041000 38001688 
705.398 38005628 38062796 38169860 38312828 38471948 38626836 38757952 
705.820 38851140 38899120 38902228 38868572 38812420 38751916 38703316 
706.241 38678968 38684448 38718580 38775156 38845764 38922692 38999132 
706.663 39069772 39130028 39175012 39200312 39202860 39181904 39139472 
707.085 39079796 39008040 38928512 38844972 38761468 38683944 38622772 
707.506 38592312 38607980 38683280 38823132 39020424 39253828 39493020 
707.928 39703872 39857176 39939164 39954988 39929548 39898164 39899384 
708.350 39959684 40083904 40252036 40424560 40555816 40606104 40559036 
708.771 40425892 40243904 40059940 39917968 39842884 39833300 39865188 
709.193 39903516 39919012 39896524 39840764 39769740 39705576 39661876 
709.615 39638840 39624596 39603992 39567368 39517984 39471632 39452656 
710.037 39484764 39582376 39748948 39977332 40255136 40567636 40901008 
710.458 41241092 41569792 41866404 42108652 42278212 42368644 42388820 
710.880 42363408 42324180 42304004 42324468 42389380 42483632 42577624 
711.302 42636104 42624580 42521252 42321244 42040296 41711344 41381636 
711.723 41103196 40917068 40846616 40887200 41008788 41161440 41293880 
712.145 41370984 41383268 41350508 41311460 41308672 41366724 41483244 
712.567 41627116 41753744 41818880 41798052 41694600 41536604 41363144 
712.988 41205792 41078264 40970264 40855080 40701364 40490612 40225644 
713.410 39933768 39656552 39440976 39324108 39321080 39422472 39595340 
713.832 39794220 39967336 40073208 40089856 40019336 39887672 39738544 
714.253 39624208 39587644 39655760 39831348 40095080 40410400 40734528 
714.675 41030888 41271532 41442560 41542012 41576728 41559132 41505328 
715.097 41434680 41365576 41313176 41284148 41272968 41261200 41222104 
715.519 41131760 40977028 40765328 40523904 40296192 40125524 40041544 
715.940 40050932 40134212 40252160 40357408 40413252 40400904 40325944 
716.362 40212668 40097508 40015908 39991744 40034992 40139880 40289844 
716.784 40461604 40632764 40784492 40903128 40981864 41019456 41019956 
717.205 40991372 40945436 40895588 40853888 40829348 40824252 40832960 
717.627 40841724 40832816 40789528 40701504 40570196 40410048 40246568 
718.049 40107344 40017044 39989140 40023080 40106092 40218924 40343544 
718.470 40466364 40581160 40686032 40778728 40853356 40899256 40903352 
718.892 40856008 40754388 40604668 40418992 40212240 39996652 39779548 
719.314 39565708 39360296 39171896 39013272 38895896 38823732 38786720 
719.735 38761240 38714152 38614592 38448324 38224772 37978532 37756912 
720.157 37610468 37574032 37658548 37852260 38129480 38462920 38832420 
720.579 39230160 39655176 40104704 40567184 41018644 41427980 41769132 
721.001 42028392 42211544 42339268 42439212 42531260 42619196 42688824 
721.422 42716184 42678744 42567504 42392984 42183336 41974624 41795560 
721.844 41660660 41564736 41488632 41406396 41297156 41151136 40970208 
722.266 40764456 40546876 40330052 40124048 39939676 39791180 39695500 
722.687 39671440 39732848 39882104 40106128 40376860 40658036 40909892 
723.109 41101404 41215000 41248192 41212140 41127936 41022712 40922996 
723.531 40854756 40839616 40891376 41015296 41205368 41445240 41708268 
723.952 41963512 42180384 42331144 42397352 42370540 42254316 42064256 
724.374 41829332 41590172 41390356 41273260 41268196 41381232 41590756 
724.796 41851116 42105884 42299772 42400276 42404768 42341216 42253884 
725.217 42189020 42176476 42218560 42290916 42351896 42360460 42285460 
725.639 42116720 41863752 41550884 41207500 40862104 40541276 40266828 
726.061 40058592 39933296 39900276 39958504 40093440 40280612 40488564 
726.483 40688852 40863428 41005384 41117636 41206128 41273492 41315516 
726.904 41322640 41285320 41201356 41080136 40943180 40817128 40729512 
727.326 40699988 40736408 40835804 40987068 41175496 41384620 41599452 
727.748 41806032 41991244 42144960 42260360 42335332 42372152 42375652 
728.169 42350364 42298168 42218052 42107824 41967248 41801044 41619216 
728.591 41435564 41265248 41120172 41008328 40933940 40898732 40903228 
729.013 40945940 41021408 41116872 41212060 41283392 41308084 41274104 
729.434 41185052 41061944 40936144 40841400 40804272 40835392 40929948 
729.856 41071232 41240048 41419388 41599480 41776924 41950540 42117656 
730.278 42272428 42406040 42510368 42580144 42613744 42611888 42575088 
730.699 42501996 42390452 42240724 42060328 41865624 41683144 41542872 
731.121 41469596 41476852 41559852 41695876 41846432 41969212 42024380 
731.543 41983560 41837672 41598044 41296164 40974680 40683540 40465604 
731.965 40345768 40326484 40385784 40485216 40579060 40632444 40629392 
732.386 40576716 40497132 40418588 40359784 40321088 40284764 40224288 
732.808 40120292 39972596 39807680 39672476 39624988 39710716 39949388 
733.230 40326196 40796944 41297092 41758204 42128560 42376712 42497124 
733.651 42504412 42427092 42297764 42145644 41995448 41862736 41754340 
734.073 41668704 41597152 41526092 41440620 41330308 41192088 41033176 
734.495 40868680 40719584 40606044 40541812 40533132 40578248 40671032 
734.916 40804572 40974452 41178288 41412412 41668068 41926632 42158828 
735.338 42331304 42410336 42373220 42215476 41953420 41621092 41261148 
735.760 40918804 40628368 40409980 40269084 40199260 40187236 40217360 
736.181 40275632 40348688 40424056 40490952 40540324 40568324 40578348 
736.603 40582152 40596760 40639628 40723520 40850716 41012116 41189064 
737.025 41360840 41509024 41623548 41704448 41760020 41802772 41844340 
737.447 41893632 41954732 42027936 42111192 42201276 42293972 42383300 
737.868 42461912 42520652 42550124 42543264 42496504 42411428 42294184 
738.290 42155388 42007908 41865120 41740860 41646784 41591608 41579932 
738.712 41610828 41677788 41769800 41875208 41983732 42090068 42194692 
739.133 42302128 42417160 42540380 42664848 42776336 42856612 42888120 
739.555 42861964 42781516 42664424 42537152 42431288 42374856 42384624 
739.977 42465156 42608228 42797748 43013016 43234564 43446116 43632868 
740.398 43781680 43878756 43909668 43863272 43734692 43529884 43265740 
740.820 42970080 42675204 42409272 42193528 42036776 41937208 41886104 
741.242 41873264 41890260 41930604 41988544 42055580 42118968 42164740 
741.663 42180924 42164120 42122472 42075836 42049212 42063220 42127716 
742.085 42236348 42369572 42500520 42607216 42678528 42717432 42736644 
742.507 42751616 42771500 42794260 42807280 42793904 42743004 42655692 
742.929 42548628 42449752 42391820 42398724 42478000 42615652 42780500 
743.350 42929832 43021776 43029712 42947484 42793812 42605092 42429404 
743.772 42310308 42275592 42332900 42468748 42655776 42861424 43060268 
744.194 43236848 43385552 43505228 43591488 43631920 43608100 43500060 
744.615 43297320 43006428 42655404 42288088 41954780 41703812 41566864 
745.037 41556776 41666344 41873484 42144316 42438484 42716452 42938944 
745.459 43075504 43110932 43049468 42917024 42755576 42616504 42542096 
745.880 42555924 42655848 42817000 42999536 43161928 43275164 43324948 
746.302 43312888 43250036 43151932 43034032 42911476 42802736 42728600 
746.724 42710148 42762908 42888084 43068244 43267568 43444276 43559288 
747.145 43591580 43544980 43447196 43339852 43262976 43245936 43296376 
747.567 43401076 43529936 43647844 43721644 43727396 43656012 43512784 
747.989 43316336 43092240 42869796 42673176 42515212 42395948 42304020 
748.411 42223960 42144452 42066984 42007804 41994404 42052288 42194696 
748.832 42412024 42673152 42929924 43133336 43250132 43268832 43202968 
749.254 43081600 42939852 42804352 42688516 42593724 42515236 42450056 
749.676 42402728 42384984 42412428 42497080 42640888 42832648 43049120 
750.097 43260992 43436276 43549668 43586572 43545132 43436384 43282136 
750.519 43111352 42951892 42828060 42755236 42737912 42771520 42845168 
750.941 42946040 43060440 43175724 43279272 43356408 43392048 43372388 
751.362 43288900 43142680 42946412 42723204 42499472 42301480 42147808 
751.784 42046304 41995768 41988924 42017220 42073272 42152772 42253364 
752.206 42372752 42507668 42653108 42802536 42949124 43085304 43203308 
752.627 43296084 43357768 43385920 43382848 43355996 43315396 43269824 
753.049 43223104 43171596 43105388 43012528 42885992 42727688 42550384 
753.471 42372952 42216460 42096596 42020336 41987616 41994896 42039720 
753.893 42122272 42243484 42400168 42579700 42760808 42915920 43020140 
754.314 43061452 43044724 42991296 42929320 42885848 42875112 42895484 
754.736 42932200 42966112 42982000 42973756 42945156 42905612 42864648 
755.158 42827500 42795696 42769844 42753152 42753256 42779368 42836472 
755.579 42919540 43010740 43082352 43102168 43046804 42908736 42702192 
756.001 42459132 42224976 42047076 41960708 41985120 42116944 42333264 
756.423 42594708 42857352 43083240 43247076 43344552 43390984 43416408 
756.844 43451864 43520052 43625096 43751536 43868836 43944440 43958492 
757.266 43911236 43825512 43737112 43684104 43688788 43749976 43841116 
757.688 43921700 43948904 43893320 43750468 43542408 43312596 43110076 
758.109 42981040 42952668 43027052 43180276 43369288 43542560 43649016 
758.531 43654700 43548012 43343920 43078012 42800540 42563368 42404664 
758.953 42345096 42382136 42495064 42649924 42810660 42946628 43034492 
759.375 43061992 43025972 42931428 42790324 42622412 42454964 42317428 
759.796 42239744 42243172 42333284 42496544 42701668 42908436 43075288 
760.218 43175232 43202428 43174568 43124796 43091480 43103860 43169712 
760.640 43272868 43377568 43444160 43439988 43355152 43205780 43031732 
761.061 42881564 42797432 42803920 42899380 43058936 43242040 43408316 
761.483 43523804 43568316 43536336 43432808 43269788 43063324 42835900 
761.905 42615848 42436560 42335612 42343344 42475640 42725604 43063040 
762.326 43436540 43783740 44049920 44193848 44199628 44077148 43859140 
762.748 43591408 43321076 43091300 42929212 42843564 42824232 42847220 
763.170 42880784 42894572 42870204 42804040 42708324 42603940 42514108 
763.591 42454464 42428704 42430052 42447004 42470804 42500748 42544960 
764.013 42616456 42726320 42876724 43058432 43251904 43434404 43582944 
764.435 43679988 43714848 43681716 43579836 43414068 43198232 42955848 
764.857 42720052 42529572 42415600 42394452 42459248 42582504 42721844 
765.278 42835372 42896768 42900324 42862172 42810144 42774368 42774132 
765.700 42814708 42889576 42987836 43101200 43228148 43372720 43539604 
766.122 43727652 43927036 44118600 44279264 44389084 44434496 44412332 
766.543 44328536 44196424 44032588 43855936 43687140 43545532 43449368 
766.965 43412064 43438168 43521424 43644024 43781052 43903192 43986212 
767.387 44017072 43997520 43944764 43887772 43861516 43894388 44001812 
767.808 44178780 44401108 44628644 44817508 44935056 44966168 44919144 
768.230 44818884 44697676 44579140 44469952 44358428 44223488 44047056 
768.652 43827748 43585776 43360600 43197052 43126112 43155180 43261420 
769.073 43401236 43519856 43572040 43532672 43400024 43192784 42942624 
769.495 42687312 42461500 42297712 42223620 42258028 42409104 42668300 
769.917 43010072 43391328 43762388 44078904 44309076 44443268 44491420 
770.339 44477152 44425344 44355480 44276296 44186644 44080720 43954436 
770.760 43810028 43658276 43516740 43405512 43344744 43348008 43419096 
771.182 43548660 43715056 43885988 44025100 44104748 44112568 44059292 
771.604 43974900 43902768 43882652 43935668 44057412 44217996 44373364 
772.025 44477304 44499876 44432264 44286204 44083952 43849252 43598832 
772.447 43340360 43078532 42821908 42587036 42400264 42289508 42275176 
772.869 42363344 42541796 42783104 43049940 43307004 43523976 43679296 
773.290 43761668 43767744 43703056 43582004 43430888 43285356 43184516 
773.712 43166644 43255836 43455992 43746492 44088108 44429316 44717584 
774.134 44915424 45004392 44990848 44901148 44777360 44664840 44599944 
774.555 44604860 44680008 44805660 44945248 45057712 45105096 45060800 
774.977 44916296 44680360 44377180 44038844 43704168 43412188 43196584 
775.399 43085472 43093812 43220032 43442896 43725036 44018932 44275540 
775.820 44460512 44558924 44578944 44544600 44487840 44435992 44403676 
776.242 44393744 44401092 44420484 44451868 44501384 44577256 44683524 
776.664 44815076 44956916 45088024 45190388 45253412 45277468 45270544 
777.086 45243016 45200848 45143100 45063524 44956188 44821024 44667212 
777.507 44510800 44370100 44259320 44182928 44135680 44105344 44079212 
777.929 44047660 44007120 43958708 43905056 43846832 43781220 43702692 
778.351 43606324 43490964 43361980 43230700 43113216 43026708 42983764 
778.772 42990012 43040760 43122080 43211704 43285696 43325640 43323660 
779.194 43287312 43238172 43207436 43223084 43301128 43436732 43604296 
779.616 43761172 43860460 43868052 43770152 43580832 43336176 43088064 
780.037 42886480 42767644 42748156 42821780 42964812 43143324 43325556 
780.459 43485852 43609184 43690888 43732048 43735132 43700544 43625992 
780.881 43509080 43351592 43164412 42967992 42790400 42662000 42604128 
781.302 42623512 42707284 42827292 42944616 43021504 43032864 42969664 
781.724 42841908 42673460 42498356 42350748 42259912 42246980 42319748 
782.146 42471700 42680740 42914504 43133100 43299556 43391300 43404364 
782.568 43355760 43275008 43195300 43138088 43106208 43083900 43046912 
782.989 42974960 42864324 42732272 42613956 42549988 42569036 42679992 
783.411 42866808 43096868 43328980 43528884 43677252 43770364 43817700 
783.833 43835472 43841768 43850948 43873252 43913112 43967896 44026176 
784.254 44067460 44066692 43997224 43841184 43596196 43279260 42923680 
784.676 42571680 42267248 42042516 41914816 41884244 41936640 42046696 
785.098 42183272 42316788 42420764 42479376 42491036 42469824 42441648 
785.519 42435376 42473448 42559772 42676100 42784720 42844096 42820800 
785.941 42704476 42511764 42282532 42065808 41902064 41816736 41814212 
786.363 41884416 42011132 42181324 42387300 42623492 42881584 43145128 
786.784 43389328 43588632 43721832 43780080 43768344 43702496 43602256 
787.206 43484356 43361408 43241172 43129980 43035312 42964512 42922144 
787.628 42906184 42907532 42912032 42906788 42886740 42856628 42828616 
788.050 42814628 42819392 42835432 42845416 42828000 42769012 42667160 
788.471 42535904 42396784 42272808 42180280 42124824 42103992 42111684 
788.893 42142764 42193580 42259940 42333816 42400924 42445000 42453968 
789.315 42427340 42379292 42336240 42327096 42368792 42458280 42568820 
789.736 42660100 42687532 42621020 42455128 42211508 41931972 41666500 
790.158 41463720 41356096 41358164 41464952 41656324 41899824 42156332 
790.580 42388868 42563864 42659564 42669412 42602076 42478476 42324988 
791.001 42168668 42028840 41915804 41831080 41769908 41724168 41684908 
791.423 41644932 41599712 41550056 41503488 41475844 41487676 41557356 
791.845 41693488 41886024 42103792 42296944 42414108 42414280 42282748 
792.266 42036800 41723328 41405000 41138424 40965184 40899048 40928744 
792.688 41025304 41155800 41293296 41421732 41538604 41651764 41775612 
793.110 41925240 42113472 42345928 42617596 42909972 43192216 43428068 
793.532 43580240 43623548 43551296 43377684 43132576 42853528 42576604 
793.953 42325328 42110480 41930852 41778712 41643896 41516972 41390004 
794.375 41254972 41104852 40935844 40751028 40562876 40393208 40270432 
794.797 40219736 40257740 40386304 40592252 40848788 41120928 41373240 
795.218 41569584 41679588 41682600 41570776 41355420 41068768 40764736 
795.640 40503916 40342612 40315720 40423368 40629640 40871272 41081976 
796.062 41206244 41220704 41137776 41000604 40865332 40782352 40785612 
796.483 40882508 41057852 41280760 41517748 41738868 41923556 42062944 
796.905 42156428 42208480 42223740 42203308 42142256 42030472 41855584 
797.327 41610440 41299688 40945512 40584340 40262456 40024060 39895624 
797.748 39880644 39956936 40087420 40229100 40349580 40435092 40489744 
798.170 40529508 40572104 40630016 40706348 40798024 40901008 41015100 
798.592 41144772 41295656 41468748 41655704 41838160 41993352 42098776 
799.014 42141412 42120852 42048920 41944292 41827260 41715396 41619660 
799.435 41545840 41495504 41467380 41457820 41460880 41469100 41474052 
799.857 41469232 41452332 41426500 41399908 41383952 41391368 41432568 
800.279 41514840 41640492 41805588 41997956 42196124 42372688 42495324 
800.700 42536836 42483968 42343164 42141916 41922272 41732096 41606844 
801.122 41561952 41587948 41657028 41731576 41777640 41775976 41722728 
801.544 41627924 41507836 41380504 41260640 41159504 41087020 41051088 
801.965 41056468 41101564 41176500 41262932 41338620 41386348 41398676 
802.387 41382216 41353508 41333188 41335556 41362820 41404620 41443860 
802.809 41464960 41460848 41436184 41404684 41382912 41382332 41407136 
803.230 41454660 41520284 41602020 41702792 41827868 41979540 42151168 
803.652 42324996 42473356 42568668 42590736 42534280 42410512 42243844 
804.074 42063508 41892656 41744896 41621236 41514204 41412956 41309692 
804.496 41202592 41095720 40996252 40911352 40845972 40801916 40779440 
804.917 40779180 40803508 40857008 40944992 41071016 41235012 41431664 
805.339 41650920 41878144 42097536 42293696 42452508 42563468 42619100 
805.761 42615536 42553236 42437820 42281080 42099484 41914344 41746588 
806.182 41611120 41513192 41444584 41385312 41307476 41186592 41009464 
806.604 40782216 40530084 40294452 40121132 40044040 40077652 40209060 
807.026 40403504 40610916 40784532 40894548 40935436 40927572 40909344 
807.447 40925340 41007704 41167944 41390372 41638580 41861884 42011304 
807.869 42054328 41979608 41801036 41550880 41273740 41011844 40797680 
808.291 40650192 40572720 40557724 40592028 40663748 40764972 40893560 
808.712 41051344 41240648 41459856 41700508 41944548 42166804 42338628 
809.134 42431608 42426820 42318860 42120264 41859332 41578788 41327912 
809.556 41149624 41076536 41120620 41271416 41495940 41746420 41970712 
809.978 42118880 42158552 42079520 41896916 41645368 41372732 41127680 
810.399 40944580 40839816 40807840 40828168 40873128 40920456 40960416 
810.821 40996232 41039284 41100360 41181956 41275128 41362276 41425112 
811.243 41455092 41458284 41455628 41473508 41535552 41650192 41806740 
811.664 41975988 42120444 42205216 42205736 42115628 41945816 41721964 
812.086 41475920 41243124 41056220 40938472 40902544 40945620 41050300 
812.508 41185708 41316952 41415148 41464368 41467732 41443876 41419044 
812.929 41413108 41432184 41465052 41490560 41486844 41444440 41371404 
813.351 41291792 41234516 41220272 41254068 41323520 41407240 41486572 
813.773 41557864 41635552 41747188 41917960 42158480 42453356 42764216 
814.194 43035272 43212628 43261356 43172612 42967368 42687912 42389384 
814.616 42121492 41921468 41807748 41777688 41810384 41871492 41923852 
815.038 41931596 41871132 41737172 41544344 41324008 41115080 40956496 
815.460 40873200 40871736 40938980 41049188 41171404 41279728 41361796 
815.881 41419724 41468612 41528916 41621328 41758240 41940016 42153552 
816.303 42375384 42576332 42726292 42803664 42798296 42714672 42569380 
816.725 42388140 42198744 42023128 41875836 41761260 41676380 41614384 
817.146 41569356 41539024 41525644 41534764 41573060 41645600 41752892 
817.568 41889068 42040656 42188892 42310168 42382220 42390500 42332240 
817.990 42220064 42079400 41944932 41848360 41810972 41837644 41916308 
818.411 42022300 42126756 42207676 42253384 42265568 42255620 42240728 
818.833 42237860 42260104 42316656 42411496 42543668 42706104 42885532 
819.255 43061800 43209692 43305984 43332836 43284688 43169936 43010792 
819.676 42837696 42681328 42569300 42518396 42533136 42605400 42716940 
820.098 42842184 42952424 43024492 43044520 43013588 42947120 42872036 
820.520 42816868 42800516 42826284 42879072 42932196 42956396 42934336 
820.942 42867040 42774668 42686428 42630316 42620796 42653356 42707120 
821.363 42754396 42773732 42756200 42709164 42650780 42603608 42584652 
821.785 42601496 42651868 42726676 42813020 42896552 42963828 43001448 
822.207 42998448 42949936 42860276 42745428 42629556 42541236 42501932 
822.628 42518700 42580536 42662548 42734060 42769820 42761248 42719416 
823.050 42673112 42657332 42706172 42840332 43061140 43348976 43666568 
823.472 43966940 44197884 44317524 44302036 44154264 43905420 43612860 
823.893 43348684 43176060 43138436 43242356 43457680 43723436 43969108 
824.315 44136988 44193128 44137712 43998044 43817628 43636788 43484048 
824.737 43370956 43294772 43246512 43219012 43211772 43230524 43282972 
825.158 43372704 43494772 43634364 43769460 43874008 43926732 43915400 
825.580 43841472 43720344 43580156 43455824 43378024 43367920 43428436 
826.002 43543868 43682124 43805808 43884172 43900556 43859072 43781480 
826.424 43700692 43646736 43639676 43682776 43763428 43856908 43934472 
826.845 43972348 43954180 43875500 43742892 43573404 43390576 43221180 
827.267 43092696 43025880 43032568 43112644 43255080 43440352 43645784 
827.689 43852204 44044532 44213232 44351988 44453756 44510040 44512292 
828.110 44455824 44345268 44197940 44044488 43920000 43858256 43880016 
828.532 43985356 44151688 44337896 44497052 44583200 44566700 44439844 
828.954 44217868 43933368 43628244 43346092 43119916 42970808 42905892 
829.375 42920672 43002468 43134160 43298108 43475608 43649692 43807140 
829.797 43939228 44044832 44130188 44207120 44287052 44375744 44468264 
830.219 44549716 44598904 44598112 44542976 44447784 44343976 44269036 
830.640 44256684 44321116 44452272 44617324 44774576 44885804 44927904 
831.062 44898860 44813004 44692008 44553196 44406152 44252888 44094552 
831.484 43939616 43806924 43721968 43710168 43783968 43937040 44142952 
831.906 44365452 44567428 44722580 44822368 44873196 44889960 44886328 
832.327 44870140 44841700 44798408 44741448 44680924 44636756 44636512 
832.749 44705564 44860956 45104464 45420984 45778708 46134340 46443888 
833.171 46665348 46769400 46744544 46597756 46352660 46042348 45703664 
833.592 45365244 45044376 44746336 44468316 44206592 43963248 43748208 
834.014 43578028 43468700 43427872 43450364 43517880 43605116 43685592 
834.436 43741960 43768832 43772324 43764500 43757540 43758240 43766040 
834.857 43775176 43779084 43775316 43768140 43768272 43789016 43842452 
835.279 43933236 44055916 44193712 44323292 44419008 44459888 44437128 
835.701 44355964 44235264 44099736 43974652 43876196 43807708 43761484 
836.122 43725084 43689824 43656768 43637784 43650700 43710624 43820192 
836.544 43965680 44118880 44248692 44328948 44349580 44318500 44258036 
836.966 44195084 44151192 44138624 44158264 44203900 44266632 44338708 
837.388 44412860 44480696 44532596 44558588 44553996 44524368 44488648 
837.809 44474712 44508720 44605204 44756228 44931436 45084068 45170728 
838.231 45164552 45066916 44905668 44726840 44577176 44486200 44461368 
838.653 44487556 44538620 44587412 44618188 44629224 44629740 44631964 
839.074 44644152 44666196 44690084 44702836 44691288 44646676 44565392 
839.496 44449944 44307728 44151052 43995036 43854944 43744232 43669580 
839.918 43629168 43612768 43606664 43599000 43586276 43575768 43583892 
840.339 43629108 43722524 43862528 44032788 44208396 44362332 44476928 
840.761 44548408 44586452 44607588 44627620 44654488 44685340 44708824 
841.183 44710616 44680420 44614368 44515772 44391604 44249412 44094392 
841.604 43930028 43761336 43597556 43454312 43352904 43313500 43350344 
842.026 43464616 43642336 43854376 44063364 44234868 44343028 44380188 
842.448 44357492 44302844 44250556 44232508 44270300 44368520 44515756 
842.870 44688292 44859496 45003848 45103108 45148420 45138484 45078624 
843.291 44978956 44855296 44727152 44615916 44541608 44515052 44533592 
843.713 44578552 44621720 44632368 44590684 44497252 44375120 44262596 
844.135 44196828 44201376 44272256 44378844 44470416 44497736 44427660 
844.556 44254988 44003076 43716780 43448760 43241972 43126508 43114724 
844.978 43204804 43384804 43635456 43931088 44236292 44511116 44715876 
845.400 44819320 44811264 44706728 44545320 44376444 44249272 44195348 
845.821 44220500 44307288 44424652 44542864 44641948 44718300 44780236 
846.243 44839872 44902944 44964128 45007108 45012568 44964792 44859692 
846.665 44706716 44527720 44350924 44203132 44107720 44079084 44122032 
847.086 44231292 44391956 44579976 44763664 44912036 44998988 45012072 
847.508 44957280 44859756 44757944 44690720 44689984 44768092 44915752 
847.930 45104224 45296668 45458948 45568360 45620724 45627996 45612492 
848.352 45595692 45592408 45605232 45626412 45642832 45644304 45629608 
848.773 45608808 45599628 45620208 45681524 45780468 45899068 46008436 
849.195 46080736 46096596 46053928 45968208 45869016 45789272 45753528 
849.617 45773048 45841900 45941568 46046248 46132716 46184160 46192084 
850.038 46156172 46082364 45982056 45870604 45768960 45700668 45685812 
850.460 45736040 45846120 45992336 46133228 46223544 46227256 46130604 
850.882 45949988 45729868 45531644 45410384 45403352 45516020 45723964 
851.303 45979948 46231624 46437804 46573664 46634964 46630824 46575572 
851.725 46480264 46350752 46189900 46002088 45798248 45597056 45419880 
852.147 45287412 45212204 45196080 45231828 45308104 45415368 45548956 
852.568 45709568 45899280 46115888 46349184 46579072 46778632 46922776 
852.990 46992364 46981268 46897076 46759828 46596032 46432292 46293036 
853.412 46195148 46148004 46153720 46207548 46298428 46409468 46521496 
853.833 46613588 46667636 46672336 46624244 46528920 46398512 46250164 
854.255 46101356 45967712 45862712 45795956 45774304 45801816 45879224 
854.677 46003384 46166884 46359276 46567036 46775908 46972880 47145104 
855.099 47281080 47370392 47403572 47375332 47287336 47152352 46993824 
855.520 46845964 46747576 46730224 46812572 46991516 47242912 47523688 
855.942 47784392 47982232 48087716 48093620 48012808 47873540 47707480 
856.364 47542920 47397924 47277264 47175692 47082508 46988120 46887432 
856.785 46782208 46679400 46588316 46515588 46461964 46420420 46378188 
857.207 46319996 46233484 46115424 45974812 45833644 45720612 45666960 
857.629 45695628 45813552 46008392 46250068 46498708 46711324 46856632 
858.050 46920648 46910284 46849240 46772092 46714180 46699852 46739220 
858.472 46824712 46935752 47042740 47116992 47138168 47097548 47000748 
858.894 46865096 46716088 46578604 46472880 46409732 46388912 46401220 
859.315 46432628 46470480 46506340 46538784 46571980 46612788 46666196 
859.737 46732532 46806268 46878176 46937968 46977452 46993012 46985040 
860.159 46956396 46909832 46846792 46767252 46671452 46562076 46445604 
860.581 46331820 46232824 46159088 46117784 46112104 46141852 46205460 
861.002 46301464 46428460 46582948 46756240 46933428 47091832 47206392 
861.424 47256504 47231676 47137640 46996160 46842028 46710872 46631812 
861.846 46618640 46666384 46753708 46850208 46928344 46968952 46968456 
862.267 46937684 46898400 46874228 46883192 46933096 47019004 47125708 
862.689 47232352 47320420 47377204 47399116 47390620 47361012 47319168 
863.111 47269068 47208180 47128348 47019872 46875868 46697208 46494328 
863.532 46287120 46099100 45954172 45871052 45858792 45916980 46036164 
863.954 46201588 46394352 46595224 46786856 46953176 47082128 47166172 
864.376 47203088 47196880 47157760 47101464 47045356 47007376 47001952 
864.797 47036700 47111516 47217536 47339276 47455624 47545628 47592624 
865.219 47587428 47531740 47437772 47326692 47221788 47145588 47114292 
865.641 47134552 47204064 47312632 47445840 47585640 47713712 47812888 
866.063 47867104 47865424 47804112 47689684 47538796 47377304 47234996 
866.484 47135748 47093168 47104796 47154316 47215516 47262744 47279644 
866.906 47262956 47222896 47177288 47144484 47134512 47146676 47170620 
867.328 47193388 47205764 47208852 47214584 47243124 47314108 47437772 
867.749 47609404 47807836 48000536 48149664 48225932 48214780 48121308 
868.171 47967452 47787376 47617988 47487504 47412980 47396744 47429852 
868.593 47496256 47579060 47663888 47738236 47791468 47812300 47788204 
869.014 47708972 47570356 47379836 47157640 46937588 46759964 46660064 
869.436 46663052 46774880 46982600 47256788 47561408 47861324 48126932 
869.858 48340364 48493680 48587728 48629300 48629676 48602568 48561144 
870.279 48517460 48479204 48448804 48424544 48403212 48383728 48369432 
870.701 48366836 48381252 48409704 48436576 48431672 48356848 48181228 
871.123 47892272 47508444 47076872 46668660 46354784 46185012 46175400 
871.545 46301776 46509704 46730352 46908356 47013232 47047912 47040828 
871.966 47033984 47063940 47147440 47277948 47428444 47563588 47649064 
872.388 47665604 47613160 47511712 47394048 47299604 47265612 47316340 
872.810 47460728 47689032 47977068 48288980 48586764 48839040 49023172 
873.231 49130192 49162532 49130940 49049544 48933540 48798208 48657168 
873.653 48523528 48407960 48315672 48244656 48184684 48121096 48039020 
874.075 47931744 47804996 47678412 47578680 47531212 47551160 47636608 
874.496 47769532 47922184 48069924 48198028 48307792 48412980 48533292 
874.918 48683380 48866004 49070228 49276036 49461676 49609744 49712592 
875.340 49770676 49789000 49772076 49722012 49639096 49525064 49387352 
875.761 49240392 49102584 48992968 48923044 48892544 48887848 48886480 
876.183 48862828 48795592 48675976 48510016 48319128 48133332 47987784 
876.605 47912644 47924964 48025292 48195480 48403320 48606788 48767780 
877.027 48859796 48874108 48821444 48727740 48626092 48544372 48501096 
877.448 48500928 48537792 48600124 48677964 48767104 48869296 48989296 
877.870 49129996 49287836 49451148 49600264 49710132 49757368 49722868 
878.292 49597956 49387732 49113700 48812280 48527608 48307404 48186992 
878.713 48179612 48269748 48415856 48559372 48639960 48618740 48487216 
879.135 48272996 48026932 47811332 47676824 47646884 47716216 47856112 
879.557 48030216 48206672 48370948 48525356 48682636 48854324 49042408 
879.978 49235180 49412228 49550356 49633184 49656376 49626772 49558172 
880.400 49464780 49358464 49246916 49136600 49036748 48959880 48921108 
880.822 48933340 49001004 49116564 49259960 49404980 49523560 49595380 
881.243 49613020 49582468 49520344 49447828 49386128 49349740 49345532 
881.665 49373136 49427552 49501748 49589036 49684320 49782520 49877264 
882.087 49959876 50018328 50040408 50017820 49951032 49853000 49749784 
882.509 49678320 49674516 49766044 49961300 50245060 50578164 50905796 
882.930 51173796 51335608 51367176 51270260 51071240 50812400 50541892 
883.352 50306464 50138560 50054268 50050784 50109492 50199348 50284668 
883.774 50335928 50333764 50276088 50177040 50063816 49966272 49907492 
884.195 49897784 49931296 49989832 50049716 50092656 50110268 50106764 
884.617 50094680 50089704 50103172 50138072 50189084 50245468 50295828 
885.039 50330520 50343944 50333332 50296864 50232660 50138744 50014764 
885.460 49863824 49694336 49520000 49357020 49223432 49134816 49101628 
885.882 49128428 49212164 49342588 49502376 49671272 49828368 49956072 
886.304 50044836 50093328 50107884 50098400 50075324 50046192 50015216 
886.725 49986140 49964848 49960952 49987232 50053700 50162212 50301148 
887.147 50446992 50567440 50631028 50618404 50525928 50367144 50165432 
887.569 49948432 49738936 49552204 49400220 49294680 49251316 49289884 
887.991 49426256 49664664 49988612 50361996 50731436 51041244 51251556 
888.412 51345588 51336336 51258148 51157196 51072312 51024432 51012580 
888.834 51017480 51010728 50966216 50871416 50730396 50563292 50397724 
889.256 50262996 50179696 50154592 50180608 50240640 50315352 50389632 
889.677 50459528 50532236 50622080 50740884 50890280 51055652 51210124 
890.099 51320612 51362648 51332044 51249584 51155664 51094996 51102528 
890.521 51185776 51321740 51461568 51551708 51548996 51437268 51231772 
890.942 50973996 50717192 50507132 50376128 50335576 50380780 50497680 
891.364 50670360 50883948 51122608 51368984 51601464 51795792 51932188 
891.786 51998944 51997232 51939400 51845284 51734160 51618160 51501072 
892.207 51379328 51247300 51102368 50948328 50795520 50658544 50550900 
892.629 50482704 50457948 50474000 50521636 50585740 50647740 50685528 
893.051 50679136 50615948 50495300 50332020 50155348 50005072 49918032 
893.473 49920636 50019292 50198372 50422248 50644468 50822024 50920424 
893.894 50923740 50835352 50676108 50477684 50275836 50106144 49994708 
894.316 49956276 49991652 50089016 50226656 50379084 50525524 50652636 
894.738 50758280 50848812 50934604 51023244 51115332 51203624 51276852 
895.159 51325092 51345380 51344244 51336524 51340116 51367888 51423656 
895.581 51499160 51577488 51636108 51654560 51619088 51523892 51372208 
896.003 51175084 50951656 50726552 50530984 50400248 50365036 50446792 
896.424 50646900 50942844 51285696 51610476 51853472 51963492 51921896 
896.846 51746392 51489072 51216528 50993580 50863752 50835196 50882468 
897.268 50956836 51009312 51004504 50937136 50831372 50733780 50692908 
897.689 50741120 50883768 51096100 51331872 51537248 51672644 51721052 
898.111 51693700 51621808 51547152 51506008 51517476 51581720 51682064 
898.533 51794504 51895184 51969780 52015172 52037724 52047836 52055140 
898.955 52064368 52074084 52078044 52067984 52037124 51981684 51902380 
899.376 51804128 51695828 51588496 51493644 51421992 51380192 51369592 
899.798 51385156 51417156 51452960 51481180 51495752 51496960 51491240 
900.220 51487552 51494140 51514388 51546124 51583148 51619396 51652444 
900.641 51685552 51725908 51780972 51853148 51936636 52017172 52076608 
901.063 52100708 52084152 52034520 51969436 51911904 51880256 51882868 
901.485 51916184 51968376 52025300 52077280 52123116 52168628 52221908 
901.906 52287016 52360664 52432460 52490216 52525048 52536956 52534680 
902.328 52532528 52542712 52570592 52612320 52658144 52697416 52724808 
902.750 52742732 52759408 52783052 52815648 52850056 52872180 52867736 
903.171 52829356 52762636 52685976 52626084 52606556 52641540 52730036 
903.593 52857860 53001972 53138688 53250760 53328020 53367796 53371916 
904.015 53344584 53291212 53219236 53139192 53062648 53000292 52957844 
904.437 52933288 52917100 52896072 52860004 52805888 52740512 52676944 
904.858 52629680 52606792 52606808 52619640 52633300 52640988 52647500 
905.280 52668824 52728292 52846500 53030840 53269964 53533388 53780636 
905.702 53967616 54062128 54051676 53946808 53778240 53590432 53433464 
906.123 53347828 53359460 53472484 53669680 53914980 54162796 54371292 
906.545 54507108 54555036 54517824 54412740 54263684 54094532 53925816 
906.967 53771248 53640356 53539880 53473576 53441096 53435028 53441256 
907.388 53439532 53410936 53345644 53247924 53136764 53039196 52981412 
907.810 52975572 53015176 53075856 53127524 53145156 53121720 53071248 
908.232 53024920 53017580 53072120 53191680 53356672 53533472 53684188 
908.653 53782660 53819968 53804940 53756512 53695432 53635540 53579492 
909.075 53520840 53449088 53356624 53242820 53116268 52992712 52893004 
909.497 52836756 52838572 52905036 53032488 53207556 53409772 53618668 
909.919 53817652 53999696 54167952 54332264 54501284 54674428 54836400 
910.340 54959584 55012632 54971720 54834624 54625716 54394180 54195704 
910.762 54079768 54070420 54158724 54305808 54457840 54568548 54611956 
911.184 54594792 54551300 54533164 54586548 54737552 54981772 55285936 
911.605 55595444 55849660 56002616 56029576 55935468 55749480 55519164 
912.027 55294668 55115180 55002996 54957152 54957552 54971456 54967276 
912.449 54922160 54828972 54696788 54546800 54404396 54289632 54214520 
912.870 54180576 54182204 54210628 54258148 54319164 54388324 54458812 
913.292 54520444 54560556 54568944 54541784 54485760 54416700 54356648 
913.714 54325452 54333116 54377032 54443084 54512876 54571320 54615304 
914.135 54655532 54713852 54812728 54966960 55174904 55417696 55661616 
914.557 55868188 56006852 56059884 56028140 55927672 55785052 55627416 
914.979 55476648 55346776 55242444 55162204 55101652 55056564 55023788 
915.401 55001392 54987784 54980792 54977856 54977048 54978432 54985380 
915.822 55004564 55045456 55116920 55224744 55368548 55540716 55726300 
916.244 55905676 56060452 56175948 56246120 56274304 56271776 56253156 
916.666 56231004 56212544 56197068 56177824 56145452 56093420 56020700 
917.087 55932556 55837260 55742272 55649716 55555108 55449380 55324636 
917.509 55180224 55027216 54887272 54787368 54752504 54794404 54907144 
917.931 55065688 55234796 55375436 55457644 55469488 55418600 55330096 
918.352 55237084 55174636 55167756 55226448 55343900 55498892 55660204 
918.774 55792584 55867492 55866912 55789532 55651036 55483156 55326304 
919.196 55218316 55189088 55249976 55391828 55585536 55791184 55966320 
919.617 56074480 56096172 56030296 55894788 55719132 55539932 55390668 
920.039 55293044 55254964 55268244 55313168 55362916 55393588 55390324 
920.461 55351052 55286484 55216512 55164028 55146436 55173016 55242716 
920.883 55347104 55473796 55611392 55752324 55892292 56029392 56161996 
921.304 56287556 56403200 56506944 56598968 56681552 56757604 56828000 
921.726 56889640 56934420 56951188 56929712 56863432 56752936 56605980 
922.148 56436928 56262584 56099936 55964492 55867268 55814908 55808152 
922.569 55841320 55901436 55969912 56027412 56056668 56049152 56007296 
922.991 55944056 55877376 55823612 55792156 55782072 55784612 55789156 
923.413 55790912 55795136 55817284 55875832 55985276 56146380 56343504 
923.834 56545272 56715132 56822624 56851672 56807476 56714684 56611864 
924.256 56537460 56523380 56585860 56722468 56913568 57127448 57329728 
924.678 57486924 57576312 57589384 57532884 57426256 57296664 57173208 
925.099 57077508 57021356 57004900 57019976 57054620 57098812 57147792 
925.521 57200980 57258672 57317400 57366000 57386808 57360096 57270464 
925.943 57115396 56908928 56681904 56472184 56318540 56248384 56269660 
926.365 56369772 56518692 56679168 56812380 56890152 56899084 56841208 
926.786 56731544 56593652 56455064 56339712 56266688 56246764 56281132 
927.208 56361996 56474136 56599288 56717996 56815268 56883184 56921156 
927.630 56934692 56932228 56922164 56909952 56898796 56891524 56892800 
928.051 56911200 56957696 57041292 57164860 57320672 57491084 57650772 
928.473 57776088 57851968 57876052 57858356 57816060 57765724 57715812 
928.895 57665844 57609616 57542848 57469764 57405672 57371572 57386856 
929.316 57457052 57568740 57689516 57780604 57809016 57760328 57644852 
929.738 57494276 57350200 57246224 57199896 57206064 57243108 57281264 
930.160 57296432 57277988 57229888 57166700 57106496 57064896 57050136 
930.581 57064156 57104476 57167344 57248688 57344284 57449236 57557020 
931.003 57660672 57754580 57835644 57904396 57964388 58021328 58081652 
931.425 58152736 58243108 58361200 58514164 58703660 58922452 59151260 
931.846 59361100 59521028 59603924 59597820 59509288 59363092 59192748 
932.268 59032100 58907212 58830132 58801888 58816880 58868788 58952452 
932.690 59062604 59190492 59319240 59425472 59485468 59482132 59414912 
933.112 59302308 59179648 59085308 59050728 59088216 59186788 59314632 
933.533 59429044 59491288 59472460 59362248 59168116 58912540 58626108 
933.955 58342172 58094600 57910576 57809796 57801460 57882608 58038764 
934.377 58246908 58482572 58722220 58949016 59153856 59332304 59481860 
934.798 59598740 59676568 59708720 59691504 59628116 59529824 59416056 
935.220 59311004 59236604 59210240 59239416 59320532 59438728 59570764 
935.642 59689760 59767652 59783576 59727332 59602388 59424820 59220272 
936.063 59017688 58839844 58700800 58602716 58538796 58497548 58468760 
936.485 58447064 58432008 58426428 58433460 58454736 58490084 58539160 
936.907 58603004 58684292 58785776 58907100 59042420 59179160 59300812 
937.328 59392252 59443244 59452724 59428056 59382864 59331504 59286584 
937.750 59258276 59254828 59285808 59363100 59498096 59698268 59960336 
938.172 60267352 60586096 60873996 61088920 61195868 61179208 61045188 
938.594 60822120 60551068 60279824 60052700 59898996 59831672 59844200 
939.015 59915432 60013536 60105868 60167384 60183700 60154748 60091492 
939.437 60011616 59931796 59864212 59814860 59784888 59774724 59787580 
939.859 59830216 59911972 60040060 60215344 60429772 60667316 60907960 
940.280 61130952 61320900 61468416 61569372 61623136 61630472 61593336 
940.702 61515828 61406784 61280452 61154036 61045856 60968756 60926360 
941.124 60911908 60910716 60905180 60879964 60828024 60751620 60661648 
941.545 60572640 60499888 60454696 60441896 60459860 60501108 60554768 
941.967 60607704 60648464 60669780 60670784 60658344 60646520 60653816 
942.389 60696220 60782872 60910164 61061684 61209296 61321692 61374904 
942.810 61358560 61282344 61173444 61071924 61015800 61031552 61125576 
943.232 61282476 61469428 61646500 61781888 61857728 61875848 61852760 
943.654 61812628 61775356 61749312 61730352 61706416 61666104 61607088 
944.076 61540092 61487260 61474536 61519292 61623680 61770076 61927328 
944.497 62056536 62124904 62114924 62026512 61875704 61687360 61488928 
944.919 61301468 61138340 61005500 60903936 60833036 60792652 60783388 
945.341 60805348 60856480 60931684 61022220 61117696 61208232 61286028 
945.762 61347676 61393768 61427512 61451648 61465684 61463892 61436960 
946.184 61374892 61273756 61140832 60998624 60881092 60824380 60857992 
946.606 60990396 61204196 61455828 61690516 61853752 61907988 61844312 
947.027 61682072 61461832 61228304 61021568 60864080 60759036 60694752 
947.449 60652676 60615188 60569808 60512276 60445252 60377048 60318852 
947.871 60284244 60286608 60335316 60433484 60574972 60745720 60925808 
948.292 61096880 61247700 61376228 61488376 61592220 61691156 61779588 
948.714 61843136 61864212 61831352 61744712 61618752 61476144 61341724 
949.136 61231700 61149364 61086440 61029588 60968040 60898700 60826580 
949.558 60760640 60707448 60666920 60632752 60597412 60559160 60527072 
949.979 60520920 60564376 60678388 60870596 61131968 61436736 61751024 
950.401 62039012 62269884 62424596 62494896 62483740 62402944 62273236 
950.823 62121544 61976152 61864720 61805452 61802732 61845404 61910760 
951.244 61971268 62002936 61994552 61949280 61883248 61817632 61773880 
951.666 61767040 61803368 61881992 61996320 62135888 62285296 62425472 
952.088 62534164 62588396 62572500 62483024 62333716 62152472 61977844 
952.509 61847988 61788804 61810640 61905736 62054368 62230444 62410792 
952.931 62578584 62722360 62834908 62909660 62939740 62920208 62851256 
953.353 62741884 62609412 62478920 62376352 62320928 62321680 62373644 
953.774 62460336 62556892 62638916 62687668 62694604 62663508 62609020 
954.196 62552288 62512964 62504812 62529460 62575960 62622084 62641900 
954.618 62614392 62529244 62392412 62224816 62058924 61927256 61856428 
955.040 61859940 61935368 62066272 62227268 62392744 62540336 62657240 
955.461 62741356 62799720 62844724 62889284 62943236 63009512 63084260 
955.883 63158564 63223068 63270964 63300744 63315496 63319812 63315088 
956.305 63296628 63253012 63170980 63042324 62870532 62673692 62482208 
956.726 62331824 62249320 62245464 62309288 62413748 62522932 62606328 
957.148 62649600 62656368 62644796 62636748 62648716 62683324 62729836 
957.570 62769624 62787412 62778712 62754432 62736336 62751004 62818672 
957.991 62945112 63119864 63319324 63515964 63684000 63808260 63885068 
958.413 63919724 63920912 63895792 63846684 63771408 63666544 63532284 
958.835 63375692 63212600 63064776 62953556 62896196 62899204 62957344 
959.256 63054604 63170100 63283040 63376976 63443824 63482456 63496720 
959.678 63491672 63471632 63439008 63395328 63343772 63291396 63249812 
960.100 63236092 63268772 63364628 63534856 63780164 64088624 64434480 
960.522 64784056 65097956 65340724 65490476 65541888 65508752 65417412 
960.943 65300172 65181776 65072184 64964816 64842304 64687020 64493408 
961.365 64275120 64065496 63907800 63836724 63867108 63982924 64142948 
961.787 64289292 64370876 64360404 64262668 64112244 63960624 63859348 
962.208 63838644 63901364 64022284 64162024 64278136 64341548 64344592 
962.630 64299564 64231960 64168788 64131676 64129192 64157744 64204904 
963.052 64256320 64299868 64328824 64342412 64343716 64337236 64326572 
963.473 64313900 64300228 64286484 64274792 64268480 64271412 64286744 
963.895 64315396 64355760 64404456 64458632 64517812 64585056 64665276 
964.317 64762104 64872516 64983644 65070204 65099988 65042652 64878436 
964.738 64609648 64264484 63896912 63570844 63350668 63283920 63387332 
965.160 63644840 64010192 64422604 64814100 65128824 65332392 65412740 
965.582 65380148 65260232 65088132 64897524 64717800 64570204 64465092 
966.004 64403812 64379640 64381372 64395116 64408652 64414392 64410868 
966.425 64403688 64404092 64427332 64487524 64594440 64749988 64946552 
966.847 65166732 65385696 65577936 65719568 65795328 65801812 65748072 
967.269 65653420 65542280 65440636 65367996 65334668 65340160 65374592 
967.690 65421704 65463376 65485824 65481404 65450972 65402052 65346456 
968.112 65295124 65254000 65222088 65191596 65151352 65091180 65007764 
968.534 64907284 64805512 64721832 64674392 64671868 64709636 64769648 
968.955 64826416 64857008 64847988 64802772 64740420 64691080 64682880 
969.377 64732968 64839760 64983316 65130208 65244952 65304240 65302764 
969.799 65257360 65199768 65170080 65201724 65312168 65499048 65741204 
970.220 66004804 66250364 66445184 66566544 66606100 66569772 66475768 
970.642 66350664 66222604 66119560 66061860 66058508 66105652 66187304 
971.064 66279632 66355880 66396056 66390744 66343700 66268596 66184324 
971.486 66107336 66045760 65999108 65960840 65924792 65890812 65867964 
971.907 65872368 65922000 66026748 66182056 66364752 66538972 66661224 
972.329 66692676 66611964 66419464 66140348 65817004 65505104 65258328 
972.751 65117944 65108244 65229836 65461780 65764356 66091156 66394232 
973.172 66633512 66785472 66842460 66812852 66714748 66572296 66408720 
973.594 66242904 66090736 65964336 65873948 65828708 65834184 65890164 
974.016 65987492 66108680 66228152 66317852 66355748 66329780 66244012 
974.437 66117668 65983764 65879240 65835888 65873132 65989924 66163920 
974.859 66353860 66513180 66598096 66581944 66463948 66270488 66048708 
975.281 65849988 65720056 65681548 65729912 65835840 65958672 66060060 
975.702 66115752 66123448 66099520 66070456 66058952 66077236 66122716 
976.124 66183036 66243500 66296720 66346568 66406752 66492620 66612024 
976.546 66758140 66909300 67033680 67099740 67089820 67006032 66872560 
976.968 66726104 66608080 66548652 66557404 66621332 66709916 66786512 
977.389 66818448 66790128 66705432 66585960 66460252 66355780 66289172 
977.811 66262428 66265916 66285092 66309100 66334672 66366872 66413556 
978.233 66478392 66554660 66624292 66661348 66643532 66559892 66418308 
978.654 66243396 66072256 65942136 65878104 65889272 65966640 66089880 
979.076 66233476 66376504 66506028 66616376 66706852 66777516 66826588 
979.498 66850624 66845764 66810284 66745828 66657688 66553672 66442552 
979.919 66334532 66240496 66172048 66141620 66159024 66229204 66349484 
980.341 66509632 66693320 66882660 67064144 67230280 67380424 67517320 
980.763 67642448 67751864 67835528 67878888 67869200 67800544 67677312 
981.184 67513296 67328424 67142888 66970124 66815556 66676532 66546516 
981.606 66419584 66294876 66177712 66078616 66008628 65975032 65977892 
982.028 66009184 66054260 66095832 66120836 66123832 66110568 66096068 
982.450 66102348 66150796 66254964 66416804 66624636 66856700 67085260 
982.871 67286280 67443328 67549720 67607184 67621040 67595256 67529448 
983.293 67419480 67261504 67057256 66818880 66569416 66338596 66158996 
983.715 66055192 66039008 66106620 66240784 66414620 66597792 66764940 
984.136 66896792 66983500 67024360 67026388 67002516 66968880 66944504 
984.558 66947116 66990940 67084528 67227960 67412056 67618520 67824536 
984.980 68004176 68133952 68198240 68190224 68114176 67983352 67818728 
985.401 67643408 67478808 67343080 67247608 67197840 67193976 67232224 
985.823 67305240 67402184 67509816 67611400 67689296 67728936 67720960 
986.245 67665504 67572616 67461664 67355176 67273792 67231832 67233272 
986.666 67273008 67339712 67421496 67508640 67596168 67683248 67770632 
987.088 67858152 67943312 68021264 68086872 68136488 68169104 68186120 
987.510 68189944 68182352 68163488 68132552 68089480 68036712 67980456 
987.932 67929616 67892704 67875536 67877952 67893704 67911704 67920760 
988.353 67913064 67887432 67850072 67813328 67792560 67801120 67848720 
988.775 67938840 68068872 68230616 68411976 68598864 68774904 68924688 
989.197 69034976 69096576 69107216 69072392 69005272 68922552 68841912 
989.618 68776216 68729824 68698328 68671096 68637384 68591704 68539256 
990.040 68495864 68485128 68527808 68633616 68792752 68976056 69137704 
990.462 69227856 69210568 69072680 68833264 68537656 68251152 68036656 
990.883 67937936 67970032 68114344 68325960 68545288 68720032 68813736 
991.305 68815152 68736632 68607696 68463624 68333608 68237664 68182568 
991.727 68165112 68176184 68205832 68245656 68289552 68333880 68376376 
992.148 68415960 68452944 68489200 68527872 68571760 68621824 68675336 
992.570 68726184 68765920 68787808 68790344 68780120 68770840 68780664 
992.992 68826496 68916344 69045640 69195480 69338592 69443728 69486744 
993.414 69458168 69365576 69231688 69086272 68958872 68867168 68813504 
993.835 68785080 68761488 68722608 68658304 68573328 68486688 68424400 
994.257 68407744 68445488 68526888 68624600 68699888 68718088 68658704 
994.679 68522712 68332216 68124688 67942192 67816440 67764312 67783632 
995.100 67858136 67963168 68074992 68176760 68258456 68316456 68349488 
995.522 68355352 68330304 68270200 68173536 68044304 67893696 67739464 
995.944 67601368 67499432 67448656 67456320 67521864 67637640 67791704 
996.365 67969840 68159872 68352848 68543416 68729240 68908104 69074936 
996.787 69220640 69331152 69390904 69388584 69321544 69200376 69047592 
997.209 68895128 68773000 68701040 68681992 68699848 68723824 68717608 
997.630 68653936 68521232 68329976 68108048 67895800 67732400 67644792 
998.052 67643560 67720096 67851656 68007064 68157808 68282816 68372304 
998.474 68428328 68461616 68487032 68517440 68561376 68620184 68688992 
998.896 68758552 68819272 68864168 68890640 68900960 68900928 68898064 
999.317 68898904 68908288 68928872 68961304 69004760 69056968 69114256 
999.739 69170896 69220120 69255840 69274520 69277824 69273448 69274824 
1000.161 69296616 69351488 69445328 69574512 69725416 69876712 70005448 
1000.582 70089232 70112456 70068880 69962008 69804032 69612776 69409200 
1001.004 69211072 69030736 68873032 68735744 68612880 68499792 68397880 
1001.426 68317168 68274296 68285712 68361024 68494792 68664920 68834312 
1001.847 68963936 69023464 69001976 68912656 68789520 68676800 68610936 
1002.269 68611872 68674064 68770760 68860672 68904296 68876896 68774832 
1002.691 68617600 68441512 68292104 68208360 68216608 68323480 68515608 
1003.112 68762128 69022104 69256208 69430664 69526432 69541056 69486832 
1003.534 69385512 69261616 69138464 69032496 68954464 68911064 68906568 
1003.956 68944352 69025568 69146696 69296528 69455592 69599968 69703568 
1004.378 69746688 69720472 69628656 69485960 69313880 69136272 68972152 
1004.799 68834816 68730136 68657064 68609160 68576472 68548584 68516112 
1005.221 68474448 68425496 68378232 68345736 68340968 68372016 68437664 
1005.643 68527104 68622696 68707232 68767936 68800536 68808160 68797272 
1006.064 68772456 68733608 68677192 68601200 68510832 68422632 68360656 
1006.486 68350200 68407296 68529600 68693736 68860232 68988712 69047088 
1006.908 69024832 68934168 68805712 68675352 68571968 68511544 68493984 
1007.329 68508664 68541280 68581400 68623736 68666656 68708296 68742712 
1007.751 68759584 68748144 68700952 68618848 68511288 68394488 68284728 
1008.173 68193328 68123992 68072816 68031728 67992528 67950584 67904624 
1008.594 67855256 67802264 67742936 67672688 67587848 67488704 67381616 
1009.016 67278296 67193824 67141016 67127640 67154832 67218304 67311144 
1009.438 67426952 67561968 67713632 67878432 68049456 68214208 68356712 
1009.859 68461288 68515760 68515952 68465616 68374432 68252688 68107992 
1010.281 67942984 67756704 67548912 67325296 67099492 66894164 66734528 
1010.703 66640292 66619808 66664868 66752780 66850992 66929544 66967424 
1011.125 66958584 66911632 66845516 66782128 66738308 66724392 66742948 
1011.546 66792096 66868332 66968308 67087804 67218696 67347840 67456952 
1011.968 67525856 67540432 67497136 67407152 67292640 67182768 67103028 
1012.390 67067076 67074848 67114184 67168744 67225336 67281304 67345168 
1012.811 67432864 67558488 67727552 67931408 68149456 68352488 68512032 
1013.233 68608944 68635264 68595232 68500576 68366160 68204496 68024264 
1013.655 67831520 67631104 67429088 67233448 67052036 66891344 66754344 
1014.076 66640268 66546120 66469456 66410804 66374808 66368828 66399952 
1014.498 66471712 66581076 66717724 66864948 67004708 67119912 67198496 
1014.920 67235872 67234360 67202200 67150400 67091292 67034956 66987228 
1015.341 66948708 66914304 66874312 66816720 66732268 66617980 66481236 
1015.763 66339208 66218108 66146216 66144660 66222480 66370924 66565760 
1016.185 66770404 66948128 67070476 67123120 67109224 67046008 66958784 
1016.607 66871044 66800992 66757860 66743056 66754084 66788212 66844512 
1017.028 66923000 67021936 67134632 67246848 67339528 67392064 67388528 
1017.450 67324736 67211112 67072820 66941852 66852268 66828620 66878640 
1017.872 66990840 67136624 67278352 67375456 67397816 67330792 67178472 
1018.293 66961328 66712552 66471712 66274508 66151796 66123608 66197176 
1018.715 66367156 66615696 66915616 67230544 67523272 67760840 67919096 
1019.137 67989456 67978920 67908536 67805320 67697880 67608696 67549640 
1019.558 67523168 67523992 67543368 67571120 67598008 67615664 67615560 
1019.980 67590472 67535904 67452848 67348920 67238328 67138000 67060620 
1020.402 67010780 66981784 66959240 66926468 66874464 66807624 66745772 
1020.823 66716996 66748072 66853600 67027792 67244032 67461272 67639896 
1021.245 67749864 67781480 67745128 67666080 67572976 67487160 67418888 
1021.667 67366024 67320184 67273544 67225248 67182840 67159776 67168528 
1022.089 67215864 67298688 67405608 67519744 67625208 67712152 67777528 
1022.510 67824368 67857752 67881032 67893192 67889168 67862424 67809240 
1022.932 67731608 67638528 67543112 67459976 67399560 67364600 67349592 
1023.354 67342872 67331424 67304832 67260040 67202112 67143216 67097720 
1023.775 67078920 67095068 67147168 67229408 67330672 67437936 67537040 
1024.197 67615792 67665352 67680744 67662472 67616728 67555544 67493624 
1024.619 67445800 67422936 67427784 67454296 67489208 67517944 67529104 
1025.042 67520472 67499816 67482536 67483904 67511056 67556864 67599776 
1025.464 67608416 67551200 67410880 67192208 66926640 66662936 66460188 
1025.886 66368184 66411992 66586148 66854192 67160640 67441184 67645008 
1026.308 67744096 67738408 67652384 67526880 67407120 67327800 67309696 
1026.730 67354696 67449416 67568928 67684752 67771920 67811472 67796064 
1027.152 67730352 67631312 67523496 67435312 67392296 67408200 67481544 
1027.574 67593144 67712304 67801304 67828296 67776888 67649952 67469584 
1027.996 67269464 67087484 66951800 66875652 66854620 66870756 66898212 
1028.418 66911764 66895100 66842356 66759248 66659036 66559624 66478024 
1028.841 66427292 66416436 66449672 66528224 66651756 66819064 67027436 
1029.263 67270600 67537224 67807648 68054472 68247648 68356968 68362216 
1029.685 68259352 68064000 67808768 67535840 67289096 67099164 66979060 
1030.107 66921524 66905084 66900844 66882692 66835424 66755108 66648120 
1030.529 66525616 66400224 66282404 66180724 66104360 66063424 66069392 
1030.951 66132968 66259608 66447024 66683344 66950120 67223672 67480344 
1031.373 67700840 67869400 67975624 68013672 67981704 67883008 67726680 
1031.795 67528912 67309920 67092672 66898904 66744048 66637384 66581728 
1032.218 66575760 66616596 66701420 66827364 66989408 67178896 67382648 
1032.640 67582992 67762264 67905064 68001136 68047384 68046840 68007376 
1033.062 67939032 67853792 67763960 67680728 67613992 67569104 67545280 
1033.484 67534424 67523400 67497384 67445280 67365120 67266008 67166616 
1033.906 67087568 67046108 67047712 67083860 67133000 67168168 67166256 
1034.328 67114184 67014756 66885272 66753808 66648592 66592664 66597608 
1034.750 66661624 66771892 66909584 67057252 67201728 67337784 67466632 
1035.172 67591912 67714416 67828184 67918392 67965864 67952176 67867920 
1035.594 67719008 67528928 67334968 67175656 67083456 67071840 67132064 
1036.017 67235136 67343056 67421824 67450512 67429160 67376368 67322704 
1036.439 67297200 67320296 67397064 67517696 67660960 67801096 67915080 
1036.861 67983576 67994536 67943040 67831328 67669608 67476816 67281472 
1037.283 67115480 67010792 66990796 67061860 67209904 67400456 67588560 
1037.705 67724104 67767704 67700312 67526832 67275288 66988796 66717696 
1038.127 66502496 66367528 66314884 66326428 66369572 66408680 66418896 
1038.549 66391788 66339976 66290916 66279884 66335036 66467872 66669180 
1038.971 66912452 67162320 67384952 67560424 67684256 67765808 67819296 
1039.394 67856344 67879120 67880864 67850688 67782504 67681512 67567056 
1039.816 67466912 67408984 67412208 67478032 67590072 67718000 67829712 
1040.238 67897648 67907736 67861416 67773392 67665936 67561760 67481400 
1040.660 67438120 67437656 67478328 67552024 67645176 67740328 67820736 
1041.082 67872096 67886416 67863776 67811864 67743392 67671632 67608536 
1041.504 67561528 67533832 67526096 67537816 67568432 67616904 67680728 
1041.926 67754672 67830464 67898840 67950376 67978264 67979504 67954408 
1042.348 67906064 67839184 67760600 67679096 67605928 67554712 67537304 
1042.771 67560568 67621552 67706496 67791048 67846744 67850960 67792264 
1043.193 67676704 67525232 67370040 67242512 67165032 67146112 67178824 
1043.615 67244728 67319784 67383040 67419056 67420856 67389184 67330784 
1044.037 67256240 67177616 67108348 67060008 67040152 67050000 67082456 
1044.459 67122200 67147480 67137376 67075892 66958664 66795416 66610500 
1044.881 66438220 66313344 66266752 66315088 66457284 66673812 66932240 
1045.303 67194712 67425360 67601952 67718264 67785008 67822968 67856648 
1045.725 67904488 67972632 68054744 68135552 68198680 68232168 68233840 
1046.147 68210768 68176024 68142256 68118096 68106456 68105904 68113880 
1046.570 68129568 68154416 68190320 68236144 68285568 68325888 68341712 
1046.992 68319584 68251888 68140184 67994440 67830712 67665552 67514256 
1047.414 67388952 67298128 67248656 67245696 67291720 67384928 67517424 
1047.836 67675592 67840416 67992472 68114968 68195616 68228712 68213584 
1048.258 68153696 68055232 67927936 67785624 67644984 67526128 67447840 
1048.680 67422992 67456072 67540952 67663072 67802184 67939280 68059168 
1049.102 68152368 68215416 68248440 68253672 68234208 68194584 68141168 
1049.524 68081920 68026704 67984976 67964456 67970920 68007448 68075176 
1049.947 68172856 68296232 68436064 68576968 68700160 68784888 68815248 
1050.369 68785600 68702568 68583448 68449600 68320832 68207672 68110792 
1050.791 68024528 67944120 67872040 67821216 67810424 67858216 67972856 
1051.213 68147088 68357832 68573808 68767072 68919464 69028648 69104048 
1051.635 69159488 69202944 69231504 69231240 69185144 69081184 68921448 
1052.057 68723856 68520496 68347560 68233216 68192000 68218976 68293152 
1052.479 68381728 68451704 68476168 68439592 68341168 68193232 68018368 
1052.901 67841832 67688960 67578840 67521072 67516688 67559280 67638688 
1053.323 67742704 67859696 67977824 68083088 68160464 68194168 68171912 
1053.746 68090704 67960584 67805832 67658168 67551896 67511520 67544496 
1054.168 67639616 67771424 67909560 68026880 68109448 68157296 68181784 
1054.590 68197864 68218392 68249000 68287456 68326056 68355648 68369368 
1055.012 68363544 68338384 68297016 68245552 68192416 68148768 68127944 
1055.434 68141616 68197104 68293024 68418304 68552120 68668960 68746608 
1055.856 68769736 68735760 68654272 68545144 68431496 68334520 68269608 
1056.278 68242272 68248760 68277080 68311584 68335264 68334728 68304032 
1056.700 68245872 68171376 68096144 68036696 68003552 67997664 68009024 
1057.123 68020144 68010480 67962496 67867944 67729176 67558792 67374584 
1057.545 67196976 67043624 66926412 66852004 66821364 66831188 66874768 
1057.967 66943660 67028608 67120144 67210520 67293104 67362184 67412568 
1058.389 67438368 67433912 67395960 67326808 67237168 67146056 67080220 
1058.811 67065616 67120648 67249592 67439592 67662576 67881792 68064976 
1059.233 68189856 68251104 68258896 68234296 68200008 68172072 68156680 
1059.655 68148824 68136424 68104736 68043048 67947352 67821864 67677352 
1060.077 67529600 67396296 67292512 67229776 67212600 67237704 67293640 
1060.500 67363472 67428856 67473168 67487328 67471560 67435464 67394120 
1060.922 67364224 67358632 67381960 67429968 67490800 67549960 67593408 
1061.344 67612688 67606672 67580848 67544376 67506176 67471640 67440296 
1061.766 67406320 67361168 67298376 67217112 67125088 67037036 66972944 
1062.188 66951284 66982864 67067484 67192384 67335528 67469080 67568760 
1062.610 67617752 67610296 67551888 67457016 67345080 67234360 67140712 
1063.032 67074076 67038032 67030608 67045380 67073360 67103816 67126952 
1063.454 67134768 67121912 67086684 67030888 66960164 66883116 66812320 
1063.876 66763400 66752576 66795760 66903100 67074908 67298064 67546672 
1064.299 67785800 67976768 68090352 68112288 68048944 67923792 67772240 
1064.721 67629760 67519696 67449696 67410032 67381088 67340792 67275576 
1065.143 67184720 67080340 66981048 66905044 66863232 66855220 66870328 
1065.565 66891488 66902348 66890196 66849864 66783844 66701432 66616444 
1065.987 66544880 66504124 66508412 66566208 66676636 66828076 66998468 
1066.409 67159712 67287384 67365808 67394840 67388848 67372888 67372240 
1066.831 67402896 67467192 67553400 67642096 67714056 67759488 67780264 
1067.253 67787864 67795264 67810384 67830344 67843048 67831720 67784216 
1067.676 67699568 67590272 67478168 67386320 67332184 67320488 67343920 
1068.098 67387136 67435480 67480016 67521184 67566544 67626392 67707216 
1068.520 67807832 67918760 68025720 68115312 68178952 68216856 68237560 
1068.942 68255808 68286872 68343472 68431976 68550704 68689760 68832360 
1069.364 68958728 69046968 69078488 69041792 68934576 68765816 68554824 
1069.786 68329816 68119904 67951048 67839624 67787576 67782056 67797960 
1070.208 67806728 67781592 67707928 67587760 67440808 67298696 67195872 
1070.630 67161888 67210304 67336480 67517936 67723224 67917720 68072488 
1071.052 68170896 68207720 68188480 68125216 68034712 67935176 67844480 
1071.475 67780160 67754872 67774080 67832824 67916128 68000648 68060464 
1071.897 68076112 68038064 67950304 67827128 67689720 67559368 67453264 
1072.319 67385584 67367216 67407440 67513488 67686032 67914176 68170904 
1072.741 68417808 68609056 68705808 68690840 68575024 68398312 68216536 
1073.163 68091168 68066616 68159592 68355800 68616440 68888816 69118408 
1073.585 69265120 69305576 69236920 69073912 68846344 68592680 68351432 
1074.007 68158248 68035344 67987224 67999480 68043984 68087408 68101352 
1074.429 68073688 68010536 67933400 67867352 67832176 67832440 67856840 
1074.852 67882808 67887920 67860432 67804248 67737944 67687160 67675864 
1075.274 67715584 67802664 67919160 68041152 68144320 68211816 68238128 
1075.696 68228216 68194912 68153840 68120920 68107568 68119032 68153680 
1076.118 68203784 68257288 68300464 68322528 68317232 68284352 68228312 
1076.540 68156072 68073936 67985696 67893472 67799424 67708256 67629136 
1076.962 67573808 67553512 67574640 67634712 67721488 67815112 67895504 
1077.384 67946584 67962672 67949864 67924760 67908960 67922112 67978160 
1077.806 68080280 68220824 68382232 68542344 68677392 68766448 68796936 
1078.229 68765728 68681104 68560416 68429352 68316216 68245784 68237096 
1078.651 68297752 68423248 68597184 68795960 68992568 69161240 69284416 
1079.073 69353568 69370568 69344760 69290192 69220888 69147208 69075976 
1079.495 69010448 68952432 68904048 68867840 68845528 68836016 68834432 
1079.917 68832696 68822648 68800824 68771504 68747464 68745272 68780520 
1080.339 68859400 68974904 69106008 69224360 69302192 69318840 69267704 
1080.761 69155504 68999592 68820832 68641080 68479952 68353008 68273944 
1081.183 68252376 68291552 68385440 68517360 68662424 68790976 68879176 
1081.605 68914192 68897576 68842328 68766920 68686680 68607480 68525800 
1082.028 68433048 68323552 68201024 68081296 67988424 67949424 67982968 
1082.450 68093864 68269952 68486336 68709688 68905936 69049768 69126448 
1082.872 69135920 69091432 69018544 68948976 68912960 68934904 69024616 
1083.294 69175592 69365400 69563792 69739368 69867736 69938328 69953440 
1083.716 69925336 69869024 69798528 69722688 69644944 69565640 69483624 
1084.138 69397648 69306368 69208552 69103872 68994776 68887888 68794840 
1084.560 68729728 68703056 68717320 68762792 68820368 68865768 68880680 
1084.982 68860280 68816184 68771952 68753936 68781456 68857912 68970864 
1085.405 69097360 69215824 69312752 69387936 69450896 69514320 69584944 
1085.827 69659016 69722584 69758208 69752704 69702856 69617312 69513416 
1086.249 69411224 69325168 69261400 69216104 69178864 69135624 69073632 
1086.671 68984808 68866568 68722952 68563672 68403656 68259352 68146592 
1087.093 68078040 68060200 68094176 68176664 68302680 68466560 68662152 
1087.515 68881592 69112088 69336160 69534272 69687928 69787192 69833872 
1087.937 69842200 69832888 69827264 69839672 69872992 69920056 69968296 
1088.359 70006832 70029792 70037992 70035928 70028112 70015856 69997456 
1088.781 69970456 69934904 69894720 69856608 69825928 69803936 69786336 
1089.204 69766480 69739768 69709016 69685048 69684800 69723024 69805352 
1089.626 69923984 70059816 70188264 70287264 70345896 70365208 70355984 
1090.048 70331448 70302520 70273816 70244400 70210888 70170640 70123080 
1090.470 70068528 70006544 69935056 69851816 69757520 69658520 69567176 
1090.892 69497008 69458296 69452120 69470096 69497880 69524024 69547408 
1091.314 69580368 69643488 69755448 69921712 70127280 70337600 70507584 
1091.736 70600392 70596896 70503776 70347576 70165704 69990512 69838728 
1092.158 69711192 69597752 69487936 69379704 69283240 69218352 69207600 
1092.581 69266088 69397320 69590976 69827392 70080224 70322144 70529344 
1093.003 70680496 70760368 70761440 70685712 70545992 70364592 70170808 
1093.425 69991744 69848208 69749696 69693584 69668376 69659304 69655088 
1093.847 69650696 69649584 69661480 69700016 69777464 69900952 70069224 
1094.269 70271080 70485392 70683296 70836704 70922688 70931496 70869720 
1094.691 70759704 70632888 70518936 70440072 70403272 70401576 70418344 
1095.113 70436152 70442616 70433672 70412952 70388272 70367512 70355680 
1095.535 70355232 70367072 70391624 70428712 70476000 70527816 70574616 
1095.958 70606440 70616864 70607056 70586664 70571520 70577568 70612952 
1096.380 70674464 70747064 70810560 70845128 70840048 70796480 70726200 
1096.802 70645816 70570592 70511096 70471064 70449952 70445768 70457240 
1097.224 70483680 70523296 70571808 70621680 70664328 70693776 70709216 
1097.646 70716608 70726864 70753456 70807264 70894488 71015472 71165584 
1098.068 71336200 71515840 71692112 71851112 71979912 72069632 72117400 
1098.490 72128512 72114728 72091304 72069720 72053088 72033496 71995360 
1098.912 71920656 71797072 71624368 71415888 71195600 70989192 70819720 
1099.334 70700568 70634944 70618984 70646256 70711592 70811960 70945384 
1099.757 71107384 71287512 71469528 71631200 71748544 71802400 71781088 
1100.179 71685288 71528152 71335504 71139936 70974152 70866296 70830760 
1100.601 70865976 70954200 71068696 71180040 71265936 71318760 71346280 
1101.023 71368736 71409480 71488840 71615416 71784312 71978336 72174344 
1101.445 72349200 72484032 72569416 72605184 72600120 72568344 72527216 
1101.867 72492320 72472408 72467096 72465376 72449480 72399104 72301072 
1102.289 72155320 71978304 71798600 71650624 71564944 71557360 71626440 
1102.711 71753904 71912992 72073640 72211608 72313024 72373408 72397040 
1103.134 72394000 72379128 72368840 72379560 72424768 72509768 72628792 
1103.556 72763368 72887728 72972760 72996232 72950112 72842400 72694976 
1103.978 72535640 72393200 72288648 72234064 72233784 72286376 72386248 
1104.400 72523072 72681552 72838976 72967928 73043896 73050528 72988512 
1104.822 72876864 72751480 72653104 72615760 72658416 72778384 72954424 
1105.244 73153584 73344872 73505088 73625352 73710280 73773760 73831912 
1105.666 73896264 73970776 74049880 74120744 74165832 74169400 74121616 
1106.088 74022472 73882936 73723968 73572288 73451688 73379520 73360960 
1106.510 73389184 73447896 73517672 73582352 73631536 73663136 73681160 
1106.933 73693136 73706344 73726488 73756704 73797408 73846528 73899432 
1107.355 73949904 73990528 74015504 74023184 74017872 74009296 74009712 
1107.777 74029912 74073920 74137368 74208504 74274128 74324408 74358032 
1108.199 74382456 74410840 74455048 74518952 74595344 74667016 74712904 
1108.621 74713632 74659928 74554776 74413568 74258480 74115000 74006656 
1109.043 73949736 73953120 74015848 74127600 74267896 74409384 74523072 
1109.465 74581640 74568840 74483296 74340776 74169456 74004872 73881080 
1109.887 73819944 73828784 73898152 74007392 74129040 74238152 74318992 
1110.310 74367024 74389704 74402240 74422816 74464432 74530704 74613248 
1110.732 74695096 74755232 74777280 74757184 74706392 74650344 74619400 
1111.154 74642008 74732424 74886264 75079888 75278728 75445632 75549432 
1111.576 75574272 75519736 75399848 75236336 75055624 74882976 74738112 
1111.998 74635712 74582680 74578200 74614128 74677304 74752680 74826048 
1112.420 74888328 74935600 74967992 74986848 74992096 74981304 74951640 
1112.842 74903368 74843480 74786112 74751352 74757792 74815904 74923360 
1113.264 75064688 75215320 75348840 75447144 75503584 75524008 75521080 
1113.687 75508336 75492872 75472824 75438760 75379392 75288056 75167192 
1114.109 75029448 74895144 74788024 74726984 74723576 74779360 74887496 
1114.531 75035216 75207936 75393168 75580456 75762104 75931936 76083088 
1114.953 76208456 76301632 76359424 76384944 76389576 76392800 76416664 
1115.375 76481336 76597272 76760624 76952040 77141344 77297312 77393536 
1115.797 77418280 77375408 77281872 77158936 77025176 76890696 76755352 
1116.219 76612712 76456248 76285552 76109240 75943624 75806352 75711552 
1116.641 75663000 75653120 75664448 75676960 75674120 75648248 75603488 
1117.063 75554432 75522128 75526112 75580640 75689248 75844176 76027216 
1117.486 76214768 76384208 76517128 76605336 76651352 76667944 76673232 
1117.908 76686976 76725456 76796448 76898152 77018720 77140296 77241232 
1118.330 77302752 77314088 77274944 77196728 77099512 77008464 76944672 
1118.752 76920440 76935136 76976248 77022856 77052928 77051736 77014424 
1119.174 76947192 76862392 76773640 76689280 76610312 76532120 76449400 
1119.596 76361400 76275528 76206016 76170632 76184304 76252848 76371416 
1120.018 76525280 76695832 76863792 77015024 77141832 77241112 77312536 
1120.440 77356352 77373112 77364880 77337288 77300872 77268768 77254560 
1120.863 77266928 77305696 77360312 77412304 77441896 77433288 77382600 
1121.285 77299896 77208464 77136128 77107352 77133976 77209216 77307496 
1121.707 77390432 77421296 77373384 77242592 77049072 76835536 76653832 
1122.129 76550136 76555864 76676664 76893760 77168432 77456320 77714464 
1122.551 77910368 78027936 78065312 78033744 77952648 77848624 77750376 
1122.973 77684088 77671304 77721608 77830056 77975512 78126704 78247808 
1123.395 78307984 78291888 78202072 78059192 77893320 77738568 77622464 
1123.817 77560440 77556728 77606160 77699464 77826568 77979712 78152440 
1124.240 78337448 78525632 78704392 78859096 78977016 79049200 79074064 
1124.662 79057584 79012712 78955352 78900016 78857392 78831128 78818640 
1125.084 78813424 78809272 78803416 78798664 78801968 78821680 78862400 
1125.506 78921520 78987720 79044160 79074696 79069160 79029240 78968512 
1125.928 78909656 78874944 78879640 78925616 79000672 79081448 79141208 
1126.350 79160192 79129672 79056272 78958408 78862536 78793576 78768344 
1126.772 78792016 78856760 78944984 79034248 79106160 79150336 79168216 
1127.194 79171296 79177520 79203976 79260280 79346640 79454240 79570640 
1127.616 79684712 79791968 79894384 79996624 80099800 80196504 80269632 
1128.039 80298784 80267000 80170744 80023480 79854680 79699448 79585464 
1128.461 79525360 79511272 79520224 79522768 79497200 79435984 79348360 
1128.883 79254120 79177128 79136648 79142320 79195736 79292776 79427416 
1129.305 79592256 79778200 79972864 80159136 80319712 80441080 80518856 
1129.727 80559928 80580416 80598896 80627424 80667032 80706664 80729544 
1130.149 80719936 80672408 80594616 80506136 80430224 80386696 80386648 
1130.571 80429840 80507344 80605152 80709240 80805504 80880880 80923968 
1130.993 80925296 80881328 80797504 80690336 80583632 80501680 80461968 
1131.416 80466696 80502056 80542424 80562832 80547600 80499152 80436536 
1131.838 80390104 80388216 80445416 80557672 80703184 80851488 80972440 
1132.260 81048832 81079656 81079272 81069072 81070272 81095712 81145992 
1132.682 81210864 81274144 81321152 81342896 81340160 81322168 81303808 
1133.104 81298944 81315592 81352680 81400248 81442376 81462696 81451464 
1133.526 81408568 81344816 81277512 81226664 81207616 81227056 81282920 
1133.948 81366760 81468192 81578120 81691360 81805384 81917680 82023920 
1134.370 82116672 82187288 82229824 82243672 82235736 82218392 82207040 
1134.792 82213768 82243376 82291384 82345416 82388464 82403456 82379736 
1135.215 82315424 82219576 82109200 82007408 81936352 81910384 81932744 
1135.637 81992752 82069400 82135840 82170576 82164472 82125304 82075024 
1136.059 82043520 82057464 82128584 82249552 82394680 82530648 82624576 
1136.481 82657280 82627840 82552408 82456128 82363768 82293280 82250696 
1136.903 82232624 82230560 82236544 82245416 82255152 82265064 82273544 
1137.325 82277752 82275536 82267760 82260376 82263328 82287928 82340976 
1137.747 82420992 82516432 82609584 82680520 82714256 82706128 82662648 
1138.169 82599672 82536136 82490864 82476448 82497504 82550768 82626464 
1138.592 82710248 82784376 82832040 82838968 82797040 82707416 82581560 
1139.014 82439832 82305320 82200200 82137832 82119576 82135032 82166528 
1139.436 82195456 82207376 82197072 82168176 82130912 82097016 82077312 
1139.858 82079464 82107664 82164440 82251152 82367560 82510288 82671288 
1140.280 82837960 82993936 83124488 83219928 83278792 83307504 83317720 
1140.702 83321064 83323784 83325272 83318840 83296696 83254216 83194192 
1141.124 83126528 83065840 83024912 83009888 83017512 83036344 83049936 
1141.546 83041976 83001888 82926032 82818376 82688016 82548440 82415200 
1141.969 82304440 82234000 82219824 82273480 82399000 82589544 82826472 
1142.391 83080712 83320888 83516616 83646056 83700432 83683312 83608936 
1142.813 83496536 83368064 83242592 83134288 83052600 83001040 82978448 
1143.235 82979904 82998912 83028904 83065328 83106728 83154352 83210488 
1143.657 83276352 83350408 83428128 83503608 83571560 83629744 83679440 
1144.079 83724176 83766800 83807272 83841312 83862384 83864040 83843536 
1144.501 83803456 83751160 83695792 83644712 83602456 83570696 83551120 
1144.923 83548504 83570728 83626584 83719952 83844296 83979208 84093016 
1145.345 84154168 84139608 84047848 83901552 83745960 83633296 83605912 
1145.768 83683680 83854088 84075192 84284888 84424192 84449288 84346392 
1146.190 84134216 83860256 83587120 83372744 83262064 83272112 83390952 
1146.612 83580368 83789232 83966056 84070072 84084352 84016568 83896848 
1147.034 83764752 83661488 83616760 83641624 83729344 83859536 84007536 
1147.456 84149688 84270584 84363496 84427544 84464136 84473608 84453992 
1147.878 84402640 84318984 84207736 84079544 83951088 83841160 83765296 
1148.300 83733240 83745144 83792288 83858592 83926632 83981736 84015952 
1148.722 84030400 84034160 84041024 84063656 84110440 84182176 84272880 
1149.145 84371968 84469160 84558144 84637872 84712032 84785840 84862736 
1149.567 84941336 85014832 85072200 85102360 85096448 85051416 84971088 
1149.989 84866544 84754208 84652224 84578592 84545328 84555368 84600352 
1150.411 84662464 84718144 84744848 84730568 84677744 84604784 84538472 
1150.833 84507320 84529312 84605456 84719752 84846096 84959304 85042952 
1151.255 85095808 85128696 85157392 85192088 85232392 85266496 85278928 
1151.677 85257968 85204200 85131216 85062144 85019008 85013448 85042608 
1152.099 85090696 85136432 85161336 85158312 85132720 85099752 85076616 
1152.521 85078176 85112904 85183048 85287424 85423272 85586376 85768064 
1152.944 85953056 86118888 86237272 86283840 86244792 86124448 85945328 
1153.366 85745488 85568248 85447712 85403448 85433672 85518904 85626800 
1153.788 85723744 85783552 85791584 85748464 85667592 85571848 85485576 
1154.210 85430784 85421416 85459920 85537080 85634176 85729360 85801528 
1154.632 85838136 85838568 85814696 85786856 85777680 85805664 85877344 
1155.054 85985032 86107104 86215824 86282832 86289656 86234504 86134360 
1155.476 86021512 85933104 85903568 85950536 86069992 86235296 86406896 
1155.898 86542208 86607952 86591824 86503648 86372528 86234408 86124984 
1156.321 86068064 86071392 86128528 86223456 86337392 86452328 86555568 
1156.743 86639144 86698896 86733944 86746048 86740048 86723224 86705376 
1157.165 86696704 86705120 86735408 86787552 86857256 86936368 87014736 
1157.587 87081176 87124120 87134208 87105464 87037672 86937400 86818752 
1158.009 86701144 86604192 86545552 86535784 86576728 86661832 86778328 
1158.431 86909944 87038128 87145872 87218704 87246608 87227184 87166936 
1158.853 87081688 86991904 86919616 86880672 86879904 86910656 86958360 
1159.275 87007672 87048064 87078432 87105168 87136728 87176216 87217544 
1159.698 87245928 87245864 87208464 87139672 87059776 86999504 86987088 
1160.120 87036856 87143640 87283752 87423888 87531080 87585992 87585656 
1160.542 87542136 87473920 87399224 87329304 87267168 87211152 87159576 
1160.964 87114312 87081936 87071232 87089752 87141360 87224504 87332680 
1161.386 87455248 87579688 87691040 87773424 87813360 87801896 87740048 
1161.808 87640640 87529600 87439568 87401144 87436024 87547896 87721592 
1162.230 87925432 88122632 88277696 88365448 88376544 88316200 88202032 
1162.652 88057488 87909400 87781592 87690736 87645328 87643176 87672904 
1163.074 87716272 87755176 87776080 87774712 87756968 87736504 87729304 
1163.497 87746880 87793904 87867056 87958392 88058632 88161024 88261528 
1163.919 88356648 88441008 88505520 88538088 88528480 88472040 88373736 
1164.341 88247176 88112744 87990992 87896568 87836616 87809808 87809576 
1164.763 87826968 87854328 87886152 87918920 87951184 87983472 88019168 
1165.185 88064280 88127032 88214656 88329336 88464872 88605872 88731248 
1165.607 88817504 88847224 88812840 88717712 88573440 88395864 88201016 
1166.029 88001664 87809352 87635984 87494448 87399624 87364472 87395800 
1166.451 87491760 87641336 87827664 88031432 88237000 88433144 88611896 
1166.874 88766640 88888928 88969184 89000768 88984744 88934528 88874248 
1167.296 88836200 88848656 88925744 89060944 89226952 89382216 89481152 
1167.718 89491176 89399288 89217112 88974696 88714552 88478848 88297984 
1168.140 88188904 88152400 88177856 88248104 88346192 88458784 88576424 
1168.562 88693344 88804160 88901192 88974272 89010752 88999336 88934968 
1168.984 88822480 88679072 88531200 88412536 88353488 88373768 88477160 
1169.406 88649008 88858880 89066032 89232512 89328264 89339160 89269304 
1169.828 89139208 88980176 88824984 88704168 88637616 88632656 88684616 
1170.250 88779888 88900240 89026520 89143912 89242296 89316512 89365352 
1170.673 89389544 89390672 89370768 89333344 89284104 89231112 89184968 
1171.095 89155976 89151904 89175752 89224160 89287840 89353056 89406336 
1171.517 89436568 89439040 89416704 89380368 89346160 89330704 89348240 
1171.939 89404768 89496008 89606512 89713904 89793272 89823072 89792672 
1172.361 89704312 89574112 89426144 89289200 89188240 89138080 89142464 
1172.783 89193304 89274992 89367736 89454400 89523336 89569920 89596232 
1173.205 89608568 89614312 89618536 89623176 89627312 89629624 89631176 
1173.627 89637296 89656344 89696800 89760944 89840088 89911616 89944776 
1174.050 89907504 89778376 89557848 89272544 88972712 88715544 88556000 
1174.472 88527128 88632488 88847088 89127472 89426248 89701312 89927536 
1174.894 90094672 90202576 90254568 90252760 90197944 90092736 89946768 
1175.316 89779056 89614504 89481000 89399568 89379040 89414880 89492112 
1175.738 89591128 89692824 89783920 89855856 89902792 89919512 89899560 
1176.160 89837256 89731056 89587320 89421688 89256728 89119848 89035160 
1176.582 89019104 89077856 89206256 89389352 89604744 89828128 90033968 
1177.004 90199912 90310968 90360352 90351904 90298520 90220464 90138960 
1177.427 90070752 90024912 90000096 89986904 89971568 89942760 89895056 
1177.849 89831728 89762824 89702616 89664048 89654208 89673112 89714144 
1178.271 89767864 89825624 89883984 89945728 90018312 90108824 90219128 
1178.693 90341080 90457384 90543536 90576384 90543832 90450328 90319264 
1179.115 90186376 90093384 90072192 90136240 90276224 90463728 90658792 
1179.537 90820816 90922336 90951856 90916192 90834640 90733968 90640056 
1179.959 90571696 90539856 90545512 90581520 90633984 90686456 90722792 
1180.381 90730568 90705120 90650104 90576936 90500136 90434416 90389568 
1180.803 90368488 90368000 90381176 90400368 90418280 90428616 90424912 
1181.226 90399464 90345352 90258992 90144656 90016032 89897024 89816312 
1181.648 89797968 89856560 89990800 90185048 90412952 90647024 90865008 
1182.070 91052248 91202920 91316016 91392104 91431600 91435496 91407624 
1182.492 91355456 91290128 91222712 91159784 91101760 91043536 90979392 
1182.914 90908912 90841168 90794688 90792800 90852920 90979808 91160200 
1183.336 91367008 91564312 91719512 91813120 91840456 91811456 91743224 
1183.758 91654936 91561184 91471336 91391728 91327256 91283512 91265704 
1184.180 91275808 91310328 91359256 91409320 91446504 91461704 91453368 
1184.603 91427496 91395016 91368112 91357992 91372016 91414248 91485632 
1185.025 91583936 91702664 91829824 91949368 92041656 92089504 92084296 
1185.447 92030008 91944616 91855720 91795120 91786376 91838560 91941880 
1185.869 92071392 92192488 92271328 92286656 92233208 92124328 91985808 
1186.291 91850792 91748520 91697016 91700480 91749064 91823704 91901824 
1186.713 91966552 92010144 92036512 92057960 92091080 92149448 92237752 
1187.135 92349584 92468584 92574080 92645624 92671200 92650432 92595728 
1187.557 92528296 92473976 92457464 92494872 92591664 92740400 92923256 
1187.979 93113384 93281368 93401976 93456920 93440616 93360432 93235704 
1188.402 93091440 92953256 92841728 92766656 92727192 92713344 92711696 
1188.824 92709392 92699448 92682456 92665712 92659760 92674056 92713984 
1189.246 92778776 92862240 92954864 93047968 93135728 93216664 93292824 
1189.668 93367544 93442440 93515648 93581392 93632192 93662488 93671640 
1190.090 93665664 93656048 93656504 93676752 93718768 93774688 93830296 
1190.512 93869488 93881944 93868440 93842112 93824576 93837120 93894616 
1190.934 93998328 94136072 94285768 94425000 94537648 94618120 94670952 
1191.356 94705912 94731272 94748584 94751816 94730528 94676248 94587256 
1191.779 94471344 94343264 94220960 94117848 94039440 93982528 93938440 
1192.201 93897072 93851288 93798960 93742256 93685400 93632448 93587048 
1192.623 93552848 93534416 93537632 93567040 93622256 93694232 93765432 
1193.045 93812128 93811016 93749048 93628248 93468056 93298032 93151800 
1193.467 93054216 93013960 93022568 93058864 93098384 93120576 93116952 
1193.889 93091360 93057440 93031504 93028616 93058704 93125288 93227128 
1194.311 93359288 93514464 93682480 93851200 94008112 94141304 94243104 
1194.733 94310968 94346704 94353640 94333056 94281744 94193136 94060904 
1195.156 93885480 93678376 93464976 93279584 93155744 93119648 93179928 
1195.578 93326520 93533200 93768016 94000216 94206344 94373920 94497272 
1196.000 94573976 94601840 94578640 94505424 94390304 94252224 94118240 
1196.422 94017256 93973744 93997576 94081200 94200336 94323456 94418952 
1196.844 94465096 94456080 94401208 94320832 94237616 94172344 94137440 
1197.266 94136280 94164760 94214432 94275080 94336072 94387992 94422080 
1197.688 94430640 94408560 94354312 94271544 94168816 94059264 93957232 
1198.110 93874328 93817560 93787048 93777192 93778680 93782856 93784120 
1198.532 93781320 93777112 93775552 93779424 93788224 93798312 93804752 
1198.955 93804496 93798440 93792488 93795640 93817776 93865288 93939248 
1199.377 94035032 94144776 94259976 94374712 94487152 94598920 94712752 
1199.799 94829520 94946040 95054312 95143160 95199712 95213712 95180104 
1200.221 95101096 94986488 94853264 94723288 94617384 94552976 94538768 
1200.643 94572792 94642592 94729144 94813424 94880192 94923656 94947136 
1201.065 94960600 94974552 94995816 95024488 95054880 95078408 95087888 
1201.487 95080680 95058216 95023880 94979592 94924008 94853328 94764776 
1201.909 94660784 94551280 94452656 94383872 94358224 94379064 94436920 
1202.332 94513976 94588536 94643824 94673536 94682272 94682592 94688616 
1202.754 94711736 94756072 94818984 94892784 94968432 95036824 95089512 
1203.176 95119536 95120904 95090984 95032608 94957144 94884112 94836792 
1203.598 94838504 94902944 95029408 95200608 95387736 95557024 95678520 
1204.020 95736264 95730200 95676216 95598536 95524912 95477072 95465496 
1204.442 95488592 95533880 95582648 95613616 95609792 95561016 95465672 
1204.864 95330352 95168256 94996728 94832648 94692288 94588744 94530904 
1205.286 94524480 94571160 94669056 94812168 94991256 95194456 95407528 
1205.708 95616848 95809240 95972776 96098168 96178328 96209896 96194408 
1206.131 96139640 96059256 95969776 95888376 95826552 95787296 95764640 
1206.553 95747296 95724232 95690880 95652512 95623552 95621872 95660040 
1206.975 95740000 95850136 95969936 96075344 96149152 96185808 96191856 
1207.397 96180880 96166944 96158712 96156720 96155512 96148464 96132704 
1207.819 96110800 96089408 96074856 96069688 96070560 96070016 96059792 
1208.241 96035336 95997648 95952848 95908864 95873072 95850648 95844872 
1208.663 95859584 95900432 95973800 96084392 96230552 96401864 96578048 
1209.085 96734208 96847248 96900624 96889712 96820848 96708224 96567704 
1209.508 96414088 96259048 96110832 95976976 95864696 95779976 95726584 
1209.930 95704176 95708816 95734912 95779024 95842016 95929152 96046488 
1210.352 96196200 96371664 96557544 96731264 96870720 96962672 97006416 
1210.774 97014824 97008368 97008688 97028536 97067760 97112824 97143144 
1211.196 97137480 97081688 96974048 96825104 96654264 96481600 96322976 
1211.618 96183320 96055872 95924448 95771320 95585744 95371608 95150568 
1212.040 94960328 94847320 94849800 94988800 95257152 95621176 96024536 
1212.462 96404160 96708456 96903512 96982336 96960160 96867944 96739672 
1212.885 96605664 96489352 96404904 96360864 96361608 96407944 96496584 
1213.307 96619400 96764792 96918440 97067000 97200496 97311328 97393592 
1213.729 97440584 97443512 97394392 97290056 97138080 96958312 96783384 
1214.151 96651336 96593096 96626280 96746928 96931904 97142912 97339776 
1214.573 97490320 97575304 97592360 97552296 97474512 97379280 97285688 
1214.995 97208688 97157896 97139272 97155144 97204848 97285264 97391512 
1215.417 97517768 97656992 97801496 97942192 98067544 98165416 98223592 
1215.839 98232592 98188864 98095960 97964808 97810552 97651360 97503960 
1216.261 97381280 97292688 97242640 97230904 97251968 97295616 97347176 
1216.684 97389920 97410792 97403592 97372944 97332784 97303280 97302360 
1217.106 97337952 97404320 97483032 97549856 97582648 97571896 97524000 
1217.528 97460488 97408392 97393016 97428216 97512016 97627936 97750928 
1217.950 97856760 97926760 97953952 97943032 97908360 97868344 97840920 
1218.372 97839528 97868984 97925064 97995056 98062600 98110744 98128008 
1218.794 98111928 98069736 98015536 97965088 97931568 97920840 97931496 
1219.216 97957432 97992304 98032840 98079456 98134040 98195688 98256648 
1219.638 98302720 98314896 98276920 98182344 98038512 97866312 97694504 
1220.061 97553920 97466784 97443320 97480976 97568264 97689352 97829344 
1220.483 97977904 98128256 98276272 98418768 98552064 98672320 98776176 
1220.905 98860720 98923384 98961080 98969904 98946760 98891944 98812760 
1221.327 98724016 98647976 98608104 98619648 98683672 98781976 98881632 
1221.749 98940840 98925928 98822472 98642752 98422592 98212888 98064824 
1222.171 98010728 98058456 98188448 98364976 98545568 98697224 98804896 
1222.593 98870560 98907912 98932000 98951616 98964576 98960184 98925608 
1223.015 98854624 98752352 98636768 98532096 98464032 98450152 98494920 
1223.438 98589392 98714696 98848752 98970648 99067320 99134144 99174032 
1223.860 99194144 99202768 99206808 99210112 99214784 99222584 99236256 
1224.282 99260280 99298896 99353192 99417432 99477584 99512936 99499992 
1224.704 99422624 99278952 99087168 98881376 98706456 98603344 98593728 
1225.126 98674040 98814176 98969880 99093864 99155728 99150336 99098312 
1225.548 99035136 98997248 99007952 99067872 99156320 99239552 99286336 
1225.970 99276136 99207400 99095448 98967664 98853176 98774824 98746704 
1226.392 98771496 98842896 98947488 99068712 99187632 99285328 99346808 
1226.814 99362072 99329072 99254056 99151136 99038976 98936584 98861864 
1227.237 98827136 98838208 98893376 98983576 99092776 99200144 99286296 
1227.659 99336768 99348496 99331400 99307696 99304616 99344216 99437072 
1228.081 99576280 99740264 99897600 100019456 100085736 100088928 100032872 
1228.503 99927784 99785048 99613656 99422304 99222096 99028408 98862760 
1228.925 98747280 98698424 98722752 98814024 98956032 99127272 99308952 
1229.347 99486592 99650128 99791600 99900920 99965688 99974944 99923488 
1229.769 99817072 99672072 99512752 99361408 99230936 99121120 99020392 
1230.191 98912648 98786240 98641304 98491408 98360272 98272496 98249280 
1230.614 98302096 98431984 98631384 98886216 99177472 99479176 99761904 
1231.036 99994072 100147048 100205184 100170128 100063784 99921048 99784104 
1231.458 99688824 99655056 99685880 99769136 99885312 100012704 100133784 
1231.880 100234816 100303504 100329024 100301800 100217808 100082632 
1232.242 99914592 99742448 99596552 99502832 99472288 99498472 99559144 
1232.664 99625368 99670784 99678384 99646000 99584776 99515664 99461224 
1233.086 99442032 99470880 99549520 99667728 99804264 99932184 100022408 
1233.508 100054208 100021392 99935976 99825096 99724056 99666568 99671720 
1233.930 99740552 99855776 99991016 100118208 100218200 100285280 100325264 
1234.352 100350464 100372648 100399192 100430752 100462872 100488080 
1234.714 100498928 100488280 100450008 100380160 100278400 100150576 
1235.076 100008896 99872192 99760200 99687160 99657624 99664096 99690736 
1235.498 99719608 99740304 99754304 99775704 99823840 99915984 100057768 
1235.920 100239784 100438528 100624384 100772592 100868928 100915584 
1236.282 100928440 100932744 100952504 101003832 101089152 101195848 
1236.644 101298128 101363280 101363256 101281064 101119648 100902120 
1237.006 100669440 100467224 100331128 100277488 100295632 100352280 
1237.367 100401408 100404504 100341680 100220736 100072384 99942080 99873456 
1237.790 99893016 100006208 100196096 100432280 100676776 100895528 
1238.151 101062384 101159552 101179832 101125696 101010368 100855360 
1238.513 100689904 100544456 100441448 100391416 100388568 100415000 
1238.875 100446720 100464904 100462936 100448352 100438336 100452096 
1239.237 100502520 100590392 100705000 100828880 100946328 101047728 
1239.599 101132552 101206688 101277848 101349672 101418944 101475232 
1239.960 101504976 101496112 101442624 101348000 101226072 101099664 
1240.322 100994136 100934408 100937424 101007120 101132624 101289880 
1240.684 101448784 101578176 101657112 101679032 101652640 101596944 
1241.046 101534536 101484104 101454216 101443816 101445112 101449872 
1241.408 101453368 101457264 101467736 101492728 101537240 101601096 
1241.770 101678544 101760712 101838312 101904480 101957056 101998808 
1242.131 102036784 102079456 102134504 102204600 102284688 102359816 
1242.493 102407776 102405136 102333664 102190144 101990576 101770488 
1242.855 101573288 101440672 101398560 101447760 101564424 101707712 
1243.217 101836704 101919264 101943360 101915544 101854008 101776400 
1243.579 101690904 101593144 101470192 101309064 101106504 100874568 
1243.940 100641464 100445448 100321976 100297944 100382040 100563880 
1244.302 100815160 101097616 101371288 101599280 101757672 101837408 
1244.664 101845360 101800224 101728256 101655904 101601480 101573688 
1245.026 101570040 101581160 101594616 101600640 101594328 101575088 
1245.388 101544896 101505984 101460288 101410128 101360184 101318792 
1245.750 101296104 101301880 101341144 101411608 101503656 101603992 
1246.111 101701032 101788064 101865328 101937392 102008816 102079688 
1246.473 102144264 102192680 102216520 102212776 102186552 102148512 
1246.835 102110832 102080648 102056736 102029888 101987912 101922112 
1247.197 101832152 101727648 101625688 101545960 101502920 101503032 
1247.559 101542672 101610800 101690616 101763632 101813456 101826088 
1247.920 101793400 101714848 101599000 101462352 101326176 101211856 
1248.282 101132352 101088744 101068632 101051920 101017040 100950600 
1248.644 100853336 100740720 100637904 100570048 100556624 100604000 
1249.006 100706072 100846912 101007624 101169928 101318400 101442016 
1249.368 101531848 101581432 101587840 101553552 101488136 101406944 
1249.729 101329888 101275168 101254656 101271912 101321928 101394424 
1250.091 101477688 101563320 101646688 101726256 101801184 101868656 
1250.453 101923168 101958024 101967152 101948192 101903632 101840656 
1250.815 101768840 101697824 101636096 101589248 101561080 101554000 
1251.177 101569528 101608096 101668088 101745488 101833128 101921936 
1251.539 102003280 102070080 102119352 102152296 102173776 102189912 
1251.900 102206096 102225056 102245816 102264048 102273408 102267872 
1252.262 102242728 102195752 102127056 102038416 101932448 101812416 
1252.624 101683256 101552104 101429232 101327992 101261112 101238184 
1252.986 101261184 101322880 101406872 101492176 101560688 101601112 
1253.348 101613512 101607288 101596584 101592128 101595656 101597704 
1253.709 101581840 101530968 101435864 101300528 101142808 100989096 
1254.071 100863856 100784048 100752408 100758912 100784768 100810872 
1254.433 100823488 100816200 100789672 100747776 100694448 100631800 
1254.795 100561632 100487936 100418736 100366976 100347168 100370128 
1255.157 100439032 100545896 100672968 100794656 100885688 100925400 
1255.519 100901440 100812152 100665376 100476872 100265856 100054568 
1255.880 99864664 99713440 99613384 99568584 99574336 99617192 99678752 
1256.302 99739616 99782944 99799944 99790584 99763744 99733448 99716408 
1256.725 99727176 99773944 99857216 99968320 100091400 100204200 100284048 
1257.147 100312416 100278624 100184104 100042560 99878232 99717704 99585568 
1257.569 99496600 99451696 99438168 99433864 99415232 99361976 99263984 
1257.991 99122160 98946488 98750752 98548384 98349536 98159784 97982552 
1258.413 97821752 97682984 97573824 97501040 97467104 97468272 97494648 
1258.835 97533808 97574304 97610576 97643672 97678984 97720872 97767872 
1259.257 97809944 97832120 97819512 97766136 97679160 97578520 97487776 
1259.679 97421032 97372216 97310456 97187472 96950528 96568328 96046480 
1260.102 95437664 94827192 94319560 94007576 93942224 94125048 94506568 
1260.524 95008552 95539912 96027648 96430272 96736928 96960808 97124232 
1260.946 97246312 97334640 97387008 97397424 97364072 97294376 97205400 
1261.368 97117960 97052376 97020880 97025560 97059400 97110584 97166912 
1261.790 97218936 97262544 97298144 97329608 97361848 97399816 97446784 
1262.212 97503512 97567952 97635480 97700616 97758264 97806512 97847840 
1262.634 97889480 97940872 98010952 98104616 98220256 98349152 98477392 
1263.056 98590352 98674688 98722000 98729744 98700440 98640360 98557736 
1263.479 98462952 98366768 98280480 98215000 98178112 98172928 98195992 
1263.901 98238008 98284672 98320696 98334280 98318664 98274024 98205864 
1264.323 98123464 98036568 97954256 97885296 97838096 97822072 97847440 
1264.745 97922552 98051816 98232344 98453648 98697616 98943040 99171368 
1265.167 99368704 99529408 99654024 99745752 99805912 99831152 99813520 
1265.589 99744936 99622472 99454736 99262992 99081680 98950392 98902424 
1266.011 98958416 99117248 99356280 99633480 99900448 100111824 100234560 
1266.433 100257336 100190432 100063600 99915008 99786040 99709912 99704592 
1266.855 99772688 99902392 100074008 100264368 100454504 100631216 100785696 
1267.278 100911472 101000464 101041680 101024552 100943200 100803296 
1267.639 100624240 100439776 100289256 100205136 100205408 100285232 
1268.001 100419880 100571328 100704624 100797528 100847312 100868816 
1268.363 100887032 100925928 100998456 101105000 101235672 101378176 
1268.725 101523616 101670808 101824368 101990216 102169920 102358248 
1269.087 102543352 102711584 102849888 102947312 102994384 102978808 
1269.448 102884448 102695000 102399408 102002496 101530536 101035624 
1269.810 100584032 100243056 100068360 100085688 100288904 100641784 
1270.172 101093104 101584584 102064192 102494936 102850816 103117448 
1270.534 103288968 103366464 103359136 103285072 103172704 103054560 
1270.896 102962440 102919352 102930320 102978504 103023808 103013104 
1271.258 102884752 102586896 102094144 101418064 100614728 99776872 99028176 
1271.680 98487192 98245336 98345536 98768784 99440192 100246928 101077864 
1272.102 101839040 102478120 102987096 103389016 103719136 104005152 
1272.464 104259176 104475896 104641808 104745376 104785592 104772800 
1272.825 104724968 104659376 104589320 104522352 104462240 104412632 
1273.187 104377576 104359352 104354688 104352688 104336904 104290432 
1273.549 104205352 104087432 103956784 103838816 103755656 103715528 
1273.911 103709952 103717672 103716088 103693200 103653176 103615096 
1274.273 103603064 103636496 103719672 103841288 103979384 104113280 
1274.635 104230200 104329336 104417280 104501728 104583352 104654280 
1274.996 104700616 104710552 104681368 104622048 104550016 104483984 
1275.358 104437424 104413376 104406240 104406792 104408952 104412920 
1275.720 104424888 104452016 104497776 104558136 104623000 104679416 
1276.082 104717976 104736336 104739392 104735984 104734496 104739040 
1276.444 104747880 104754984 104752704 104735440 104700568 104649280 
1276.805 104585696 104516872 104451816 104400480 104372752 104374568 
1277.167 104404944 104453872 104504480 104536568 104533736 104490608 
1277.529 104415096 104327088 104250080 104205328 104203176 104241296 
1277.891 104307128 104384832 104461664 104531296 104594496 104655520 
1278.253 104717848 104781504 104843056 104898144 104944744 104984600 
1278.615 105022432 105062888 105107632 105153608 105194312 105222480 
1278.976 105234488 105232328 105223840 105219232 105228040 105255296 
1279.338 105299656 105353584 105405072 105441072 105448376 105417192 
1279.700 105342896 105227712 105081512 104921368 104770008 104649104 
1280.062 104575560 104556312 104586392 104649944 104724824 104790008 
1280.424 104828360 104831184 104798080 104735096 104651976 104560336 
1280.785 104473384 104403928 104364216 104363688 104405472 104484520 
1281.147 104586600 104692280 104779456 104830864 104838952 104807416 
1281.509 104750192 104686992 104639808 104626104 104657152 104736744 
1281.871 104861448 105021336 105200864 105381840 105543024 105664056 
1282.233 105729768 105732184 105674368 105570240 105444144 105324112 
1282.594 105236208 105198672 105215304 105274400 105350248 105412512 
1282.956 105432408 105393864 105299216 105169624 105038168 104937056 
1283.318 104888256 104892672 104930448 104966688 104967928 104913904 
1283.680 104807824 104675152 104556936 104494560 104513296 104616920 
1284.042 104786120 104989040 105189880 105362528 105494784 105586528 
1284.404 105644344 105675352 105683592 105670088 105636328 105587728 
1284.765 105534048 105488176 105461112 105457488 105474144 105501360 
1285.127 105527200 105540960 105537008 105514848 105478000 105431632 
1285.489 105381976 105336176 105301808 105287200 105299032 105339592 
1285.851 105404784 105484440 105565984 105638176 105696392 105743664 
1286.213 105788568 105839216 105898208 105959200 106009144 106032352 
1286.574 106016880 105958760 105860512 105726512 105556624 105342128 
1286.936 105067904 104719928 104295336 103811416 103308808 102849080 
1287.298 102496320 102307736 102317048 102525120 102899248 103378280 
1287.660 103888856 104349936 104692968 104873120 104874144 104714376 
1288.022 104443280 104136392 103873160 103725664 103740288 103924816 
1288.384 104248016 104646632 105047520 105378600 105592128 105673712 
1288.745 105641744 105538784 105417272 105328080 105304000 105356816 
1289.107 105476568 105638648 105810136 105959208 106063664 106111744 
1289.469 106104120 106050720 105968552 105876760 105793152 105732368 
1289.831 105701128 105695952 105700344 105687368 105622072 105470800 
1290.193 105214960 104859600 104440680 104017200 103665360 103453432 
1290.554 103422568 103577336 103883616 104281416 104700928 105089048 
1290.916 105416968 105683200 105903112 106094840 106265256 106405408 
1291.278 106494192 106510760 106447104 106315200 106145776 105979016 
1291.640 105855408 105801152 105825408 105920040 106065808 106236840 
1292.002 106405600 106547784 106641064 106669592 106627456 106522216 
1292.364 106376152 106222016 106098064 106033648 106042072 106115592 
1292.725 106230080 106352440 106452952 106516400 106543816 106550312 
1293.087 106555376 106575472 106615808 106669456 106719664 106747144 
1293.449 106736048 106677600 106572536 106429968 106265632 106097640 
1293.811 105945952 105829144 105761024 105750304 105797712 105896176 
1294.173 106030600 106181000 106325648 106442968 106517384 106541080 
1294.534 106516632 106456544 106382392 106319872 106290760 106308816 
1294.896 106373912 106472920 106582680 106679104 106745120 106774576 
1295.258 106773224 106753512 106728088 106702864 106675872 106640088 
1295.620 106589920 106526536 106460096 106405096 106374208 106369088 
1295.982 106376864 106370760 106320480 106202720 106011008 105760504 
1296.344 105486432 105236568 105055568 104978864 105022624 105181736 
1296.705 105431296 105732888 106044208 106323048 106539296 106679088 
1297.067 106746720 106761840 106753368 106750832 106773184 106825384 
1297.429 106897296 106970280 107023440 107042648 107024528 106975368 
1297.791 106906936 106830952 106756584 106689288 106633512 106595640 
1298.153 106583952 106607240 106670424 106771000 106897808 107033912 
1298.514 107163296 107274912 107367064 107445936 107521544 107601240 
1298.876 107685680 107767488 107834456 107873328 107874176 107833464 
1299.238 107753928 107643696 107513736 107378080 107251664 107148224 
1299.600 107078888 107047832 107050392 107072592 107096144 107103816 
1299.962 107086112 107045704 106996800 106960008 106952856 106984904 
1300.323 107053424 107146568 107248200 107345568 107433256 107512504 
1300.685 107587328 107659128 107722600 107766584 107777112 107743624 
1301.047 107664632 107549896 107419304 107296608 107206352 107166296 
1301.409 107184248 107257160 107371928 107508304 107641592 107750312 
1301.771 107819424 107845088 107835424 107809056 107789112 107794408 
1302.133 107835024 107907464 107996848 108080312 108135656 108147248 
1302.494 108108920 108025112 107908528 107777528 107651032 107547464 
1302.856 107481648 107461472 107486824 107548096 107628936 107708960 
1303.218 107771536 107809496 107827720 107841216 107869112 107926928 
1303.580 108018800 108135544 108257040 108360672 108426344 108442520 
1303.942 108406824 108322256 108193312 108023096 107814592 107573568 
1304.303 107312672 107054088 106825136 106654504 106565288 106567992 
1304.665 106659712 106824400 107038248 107270448 107488184 107660392 
1305.027 107757520 107759352 107659952 107473576 107234808 106995808 
1305.389 106817560 106749992 106823400 107036648 107358936 107734192 
1305.751 108096808 108390024 108571736 108626000 108561296 108406928 
1306.113 108202632 107991232 107812432 107693024 107646688 107672088 
1306.474 107756160 107877376 108011960 108139944 108245600 108319296 
1306.836 108355696 108351336 108304464 108216160 108093368 107949864 
1307.198 107807128 107690672 107621344 107609960 107649728 107716608 
1307.560 107769344 107759520 107643744 107390240 106991272 106466416 
1307.922 105864856 105254288 104712936 104315920 104113504 104125064 
1308.283 104331744 104685552 105117320 105557440 105954336 106277600 
1308.645 106522496 106701000 106832752 106934872 107019424 107095152 
1309.007 107170112 107254560 107359408 107490664 107645280 107809328 
1309.369 107963680 108090400 108182880 108248704 108306824 108376256 
1309.731 108465080 108563040 108644088 108674944 108629168 108500096 
1310.093 108303944 108075320 107852256 107667896 107539168 107466608 
1310.454 107439416 107443160 107465256 107495640 107526720 107550784 
1310.816 107560256 107550896 107524776 107491672 107465200 107457880 
1311.178 107473592 107505312 107536880 107551464 107540064 107506416 
1311.540 107465824 107438376 107440064 107473504 107524808 107563040 
1311.902 107547416 107426832 107147032 106661016 105935600 104971800 
1312.263 103817824 102584320 101427496 100523488 100035832 100055896 
1312.625 100582160 101510080 102671944 103867120 104919320 105719768 
1312.987 106221440 106430992 106377632 106093480 105605824 104950000 
1313.349 104194152 103442192 102829312 102493328 102521136 102924440 
1313.711 103624512 104485680 105345736 106074696 106609536 106950248 
1314.073 107139608 107222776 107218176 107104992 106838640 106381320 
1314.434 105736072 104964072 104182384 103525280 103121744 103053048 
1314.796 103332704 103907248 104672032 105503072 106273232 106889352 
1315.158 107303440 107516736 107572960 107543240 107504984 107513816 
1315.520 107595272 107738808 107910696 108068472 108181256 108239720 
1315.882 108253688 108242480 108222608 108201872 108179472 108152392 
1316.243 108119472 108077688 108009192 107865648 107570304 107024240 
1316.605 106147632 104924272 103436480 101868448 100465048 99489088 99121800 
1317.027 99419304 100291480 101543528 102926376 104210848 105257224 
1317.389 106016416 106522552 106847456 107067544 107232088 107359464 
1317.751 107450472 107502824 107521536 107520288 107514032 107513192 
1318.113 107519696 107526496 107514648 107446288 107260304 106860752 
1318.475 106133464 104981584 103363544 101343840 99107408 96960176 95238880 
1318.897 94244016 94157144 94980104 96541528 98542632 100668328 102633456 
1319.319 104258776 105482088 106322352 106837728 107081792 107088776 
1319.681 106875440 106464512 105908984 105292824 104726784 104323056 
1320.042 104159256 104267816 104625056 105165192 105790656 106397976 
1320.404 106898400 107223256 107341160 107259304 107024048 106706816 
1320.766 106392184 106158072 106051800 106085960 106237584 106464816 
1321.128 106720760 106972464 107207664 107429832 107648424 107867848 
1321.490 108082096 108277448 108440000 108563896 108655208 108729544 
1321.852 108804840 108892336 108993832 109102032 109206456 109297936 
1322.213 109372352 109429344 109468896 109488472 109482432 109444256 
1322.575 109370240 109260960 109120392 108952328 108757856 108535248 
1322.937 108283960 108011240 107736664 107490632 107311000 107228848 
1323.299 107258968 107393960 107606808 107858240 108107568 108326000 
1323.661 108497712 108620136 108698352 108739960 108751488 108738232 
1324.022 108706528 108664696 108622168 108587912 108566544 108557384 
1324.384 108555344 108554424 108550880 108545792 108544464 108554896 
1324.746 108584328 108636488 108710784 108801896 108900896 108995320 
1325.108 109072096 109119584 109130808 109106944 109058520 109003856 
1325.470 108961832 108946848 108962184 108999864 109044472 109082464 
1325.832 109109928 109135496 109176072 109247320 109353464 109481776 
1326.193 109604448 109688152 109709968 109665096 109570888 109457624 
1326.555 109359576 109300536 109287440 109312264 109358856 109411360 
1326.917 109458192 109493320 109512432 109509408 109477072 109409864 
1327.279 109309336 109185888 109057624 108943176 108853568 108789376 
1327.641 108742168 108702240 108666576 108643400 108649280 108701152 
1328.002 108804904 108950536 109113792 109268168 109394560 109490928 
1328.364 109570984 109656632 109764496 109896696 110038968 110167768 
1328.726 110260792 110304696 110298888 110250992 110170088 110061184 
1329.088 109926144 109768536 109598192 109433048 109292000 109184000 
1329.450 109099400 109009504 108877760 108675448 108401224 108087576 
1329.812 107795904 107590344 107519200 107593872 107787344 108044088 
1330.173 108303512 108523472 108686648 108801552 108888672 108967848 
1330.535 109047376 109124288 109190264 109239568 109272368 109293328 
1330.897 109306184 109310152 109300328 109273272 109232824 109192984 
1331.259 109172744 109189080 109245904 109331416 109421672 109493736 
1331.621 109536008 109555000 109570248 109604520 109669256 109757528 
1331.982 109845288 109903120 109911080 109866480 109785512 109694472 
1332.344 109620136 109578504 109573904 109602648 109659136 109738512 
1332.706 109834792 109936888 110023872 110068768 110049312 109957792 
1333.068 109810056 109641248 109496528 109409568 109390688 109423352 
1333.430 109475640 109515296 109525936 109512720 109495848 109495856 
1333.792 109519664 109557152 109587992 109596408 109581784 109561384 
1334.153 109560280 109596912 109669496 109755360 109821272 109843760 
1334.515 109820680 109774888 109739520 109741992 109785528 109847680 
1334.877 109889200 109875992 109795256 109660168 109500576 109347560 
1335.239 109220592 109123008 109051392 109007368 109003112 109056104 
1335.601 109172456 109333352 109490368 109583800 109570656 109444008 
1335.962 109235112 108984376 108693656 108288592 107606304 106434896 
1336.324 104614184 102115848 99123872 96005576 93278848 91446632 90847224 
1336.746 91584312 93484160 96169608 99146088 101977536 104349960 106117000 
1337.168 107290760 107982744 108341856 108492592 108523872 108477000 
1337.530 108359264 108163784 107886584 107539240 107154472 106774064 
1337.892 106426712 106092328 105679176 105011664 103865368 102059488 
1338.254 99533632 96440512 93137568 90165232 88071088 87236888 87768744 
1338.676 89431088 91722280 94000776 95737728 96625376 96660000 96082624 
1339.098 95274040 94596416 94267400 94351184 94778856 95433648 96209496 
1339.520 97051112 97933520 98813880 99598744 100128768 100202080 99645792 
1339.942 98352216 96323440 93668296 90598352 87394944 84367448 81867736 
1340.365 80228568 79722104 80520752 82623264 85833512 89760688 93932912 
1340.787 97861592 101164056 103657368 105346568 106390664 107001416 
1341.148 107381736 107654864 107861784 107996168 108045968 108025328 
1341.510 107981232 107969048 108027592 108158072 108327704 108487584 
1341.872 108601016 108661416 108690824 108723448 108782984 108870680 
1342.234 108965384 109038552 109070256 109061280 109030208 109001824 
1342.596 108991080 108997544 109008368 109010896 109003280 108998824 
1342.958 109017704 109075232 109168864 109277088 109366416 109410016 
1343.319 109399392 109349200 109287488 109242464 109227512 109236304 
1343.681 109248632 109244184 109215744 109172800 109136120 109124696 
1344.043 109145696 109189712 109236816 109266960 109271840 109257280 
1344.405 109238672 109229592 109234552 109245952 109251000 109240176 
1344.767 109215616 109190368 109182288 109201824 109245136 109293720 
1345.128 109324696 109321792 109285224 109231472 109186144 109170040 
1345.490 109187392 109223192 109248912 109236472 109167080 109039704 
1345.852 108868168 108675232 108482656 108307640 108163376 108060464 
1346.214 108010152 108022280 108099896 108233912 108400696 108568400 
1346.576 108702504 108779200 108791600 108749472 108672808 108583000 
1346.938 108497008 108423888 108368952 108338416 108341304 108388416 
1347.299 108486520 108633168 108814728 109010712 109202288 109377280 
1347.661 109533800 109675376 109802576 109906320 109966880 109960664 
1348.023 109874240 109714368 109512432 109313152 109163144 109089848 
1348.385 109091560 109138664 109187936 109201504 109158528 109060752 
1348.747 108922280 108753344 108546008 108269600 107880648 107347144 
1349.108 106668456 105892624 105108184 104435608 103988704 103843080 
1349.470 104021224 104484168 105146456 105894728 106626472 107263680 
1349.832 107766608 108134376 108393112 108580920 108730592 108863488 
1350.194 108984400 109086104 109156192 109185936 109175336 109134560 
1350.556 109079800 109028288 108992616 108976336 108975080 108979400 
1350.917 108980696 108974088 108960736 108945760 108935696 108934880 
1351.279 108944360 108963312 108991696 109032568 109092624 109178832 
1351.641 109294184 109432672 109578368 109706336 109790000 109811080 
1352.003 109764968 109665376 109539624 109423200 109345640 109322408 
1352.365 109350320 109410256 109474160 109515792 109521624 109493464 
1352.727 109446984 109402416 109377072 109376392 109392904 109409552 
1353.088 109408920 109381264 109328872 109265040 109208736 109177176 
1353.450 109178448 109210504 109263000 109323504 109380872 109428864 
1353.812 109465648 109491624 109507648 109514312 109511416 109496328 
1354.174 109459136 109374208 109197880 108865200 108301624 107450960 
1354.536 106298224 104898856 103378128 101932160 100777904 100098120 
1354.897 100009016 100516888 101524032 102847632 104285152 105649184 
1355.259 106806728 107702176 108340448 108767248 109037088 109199384 
1355.621 109286144 109314616 109297304 109246360 109174864 109093848 
1355.983 109006192 108904856 108775488 108605568 108392280 108149656 
1356.345 107906240 107701760 107574360 107548792 107631808 107809216 
1356.707 108051824 108320416 108578480 108797264 108959368 109060944 
1357.068 109109304 109120480 109114016 109111072 109128544 109173424 
1357.430 109238008 109296248 109306376 109213752 108969656 108547264 
1357.792 107959128 107263432 106562616 105985784 105646480 105622216 
1358.154 105923824 106494864 107221048 107966808 108616648 109091400 
1358.516 109368744 109471624 109450512 109356920 109231480 109100720 
1358.877 108980112 108884224 108829592 108829960 108889664 108996640 
1359.239 109125488 109244688 109332560 109385864 109419080 109452448 
1359.601 109496648 109541752 109560248 109519672 109403288 109223192 
1359.963 109020368 108847712 108744152 108721768 108761624 108829320 
1360.325 108888032 108905832 108835872 108574016 107941720 106675536 
1360.687 104479824 101155080 96703216 91440808 85961912 81111136 77742392 
1361.109 76470848 77547200 80741368 85435976 90751600 95862240 100143328 
1361.531 103283736 105298264 106417888 106957576 107174072 107235416 
1361.893 107202776 107070672 106806992 106372384 105718880 104778032 
1362.254 103478536 101779576 99722280 97450768 95203320 93234488 91686496 
1362.677 90503064 89381760 87872808 85487064 81935656 77281136 72017480 
1363.099 66959540 63049676 61154660 61756836 64878160 70057448 76544928 
1363.521 83433712 89901456 95404824 99672216 102718992 104741360 106031312 
1363.943 106864512 107448232 107916832 108324744 108677944 108958304 
1364.305 109146344 109233720 109230776 109163296 109068448 108982528 
1364.667 108929336 108916656 108934768 108964304 108984576 108984176 
1365.028 108963880 108935072 108912352 108907920 108927168 108968976 
1365.390 109028944 109102784 109187952 109281584 109378288 109469168 
1365.752 109542656 109589936 109608848 109606720 109597080 109594720 
1366.114 109608840 109638712 109674112 109699976 109703808 109678904 
1366.476 109626360 109551744 109461600 109360240 109250096 109134544 
1366.837 109019768 108915128 108829864 108767640 108723680 108685808 
1367.199 108642080 108588536 108536280 108508904 108535376 108633312 
1367.561 108797504 108995160 109177328 109295568 109319000 109244792 
1367.923 109087752 108854736 108516224 107982224 107108648 105745808 
1368.285 103784992 101237904 98270128 95222552 92529928 90630120 89874344 
1368.707 90402632 92120992 94709784 97742408 100755008 103373368 105397984 
1369.129 106791360 107654360 108145096 108424808 108597448 108703632 
1369.491 108743008 108705696 108600024 108462888 108343936 108287632 
1369.853 108311672 108402328 108523968 108640224 108732888 108806880 
1370.214 108883736 108984792 109117872 109271384 109421784 109546728 
1370.576 109638872 109707696 109771736 109843232 109918120 109974888 
1370.938 109988328 109944760 109857000 109762024 109709632 109735168 
1371.300 109841832 109994288 110134672 110203880 110165880 110020304 
1371.662 109794168 109521392 109219144 108879336 108475864 107988464 
1372.023 107426464 106841176 106315080 105941528 105783360 105854808 
1372.385 106115968 106495360 106911800 107300184 107624120 107863920 
1372.747 108005264 108030968 107923056 107677440 107312224 106860016 
1373.109 106331936 105669768 104695912 103133952 100643728 96938168 91931680 
1373.531 85842496 79243048 72932680 67869160 64879952 64453112 66648892 
1373.953 71064808 76962800 83403704 89552224 94781352 98769504 101502960 
1374.375 103168784 104024872 104259128 103937072 102985448 101266296 
1374.737 98668928 95224456 91162528 86942136 83139096 80354240 79083696 
1375.159 79561256 81727192 85222672 89521408 94001256 98115368 101510912 
1375.581 104030248 105718288 106743088 107330552 107675496 107912496 
1375.943 108114320 108302376 108477448 108639032 108793104 108949792 
1376.305 109115856 109289392 109459304 109609720 109725744 109795760 
1376.667 109813688 109778136 109692040 109562680 109402600 109229624 
1377.029 109063016 108922608 108825312 108782224 108798016 108865384 
1377.390 108958720 109020488 108959768 108660944 107999296 106893624 
1377.752 105345672 103480168 101528256 99808000 98645488 98265688 98748896 
1378.174 99987360 101734216 103650744 105425224 106851680 107850792 
1378.536 108470056 108828208 109059752 109255496 109453208 109644928 
1378.898 109803848 109904144 109928888 109862608 109675976 109324592 
1379.260 108764976 107980568 107012328 105968024 105015896 104326728 
1379.622 104033968 104188248 104743024 105570024 106502120 107394800 
1379.983 108145760 108718136 109125584 109407720 109603304 109736744 
1380.345 109820568 109862640 109876400 109883760 109906448 109957472 
1380.707 110032280 110110776 110164880 110173432 110133032 110060272 
1381.069 109984760 109935688 109932232 109975208 110049560 110130040 
1381.431 110192032 110215232 110186384 110099360 109953592 109755536 
1381.792 109520120 109274464 109054744 108898304 108837408 108886032 
1382.154 109035800 109255656 109503000 109732536 109906952 110006320 
1382.516 110026144 109974800 109866384 109716928 109540464 109347536 
1382.878 109146696 108943704 108741864 108542912 108348264 108162000 
1383.240 107993880 107858984 107776528 107763808 107828264 107962696 
1383.602 108143408 108336936 108505000 108617504 108659504 108632208 
1383.963 108550080 108434192 108306816 108185504 108084736 108017872 
1384.325 107997552 108036432 108142360 108313440 108534256 108777304 
1384.687 109010536 109203224 109337152 109409176 109429416 109413816 
1385.049 109377720 109331528 109280464 109229176 109185480 109159472 
1385.411 109159584 109184208 109217672 109230144 109188960 109070768 
1385.772 108867360 108582440 108214152 107730800 107062560 106103592 
1386.134 104749440 102955992 100788048 98448784 96236864 94512280 93571848 
1386.556 93563576 94447736 96005520 97901952 99747032 101200616 101964760 
1386.979 101769416 100367080 97497176 92953480 86693952 78970520 70415632 
1387.401 61977524 54879700 50260796 48920244 51128116 56521860 64201900 
1387.823 72931888 81555216 89134368 95154496 99535552 102501152 104418520 
1388.245 105628144 106397688 106882352 107170544 107339056 107465880 
1388.607 107627016 107871176 108193952 108544544 108852456 109069920 
1388.969 109191984 109258136 109321648 109419176 109544264 109653968 
1389.330 109692752 109631272 109485768 109316264 109193152 109166552 
1389.692 109240520 109376304 109513496 109604264 109635736 109627312 
1390.054 109609976 109598360 109576136 109502976 109339784 109076192 
1390.416 108744744 108411712 108148960 107995632 107944616 107947176 
1390.778 107947312 107911160 107852152 107822192 107888488 108092880 
1391.139 108430136 108846952 109270000 109636328 109916856 110121048 
1391.501 110278920 110415472 110532752 110611600 110628992 110580040 
1391.863 110488272 110396584 110342568 110337136 110353920 110343552 
1392.225 110260664 110095656 109884096 109694616 109589856 109598688 
1392.587 109695528 109816672 109886152 109857024 109729632 109545136 
1392.948 109355776 109193536 109054616 108907368 108717784 108477352 
1393.310 108211376 107965184 107770544 107617352 107445296 107165464 
1393.672 106699200 105992392 105011752 103698832 101900024 99350328 95693528 
1394.094 90577072 83835576 75628864 66554244 57534684 49762796 44391948 
1394.516 42222112 43589936 48234764 55419284 64038844 72963696 81231792 
1394.938 88165896 93494704 97266216 99744984 101234816 101972696 102028128 
1395.361 101306016 99610856 96783184 92833840 88051440 82999000 78420560 
1395.783 75129368 73730624 74507040 77323304 81695712 86890280 92123792 
1396.205 96793744 100515496 103189560 104930096 105978120 106589696 
1396.567 106967048 107247864 107494696 107725008 107933904 108111128 
1396.928 108250104 108350784 108414456 108427936 108338728 108039744 
1397.290 107349232 106050008 103959544 101008264 97329456 93285864 89457104 
1397.712 86461080 84839424 84891024 86577632 89537760 93186624 96923040 
1398.135 100213432 102740192 104415304 105321912 105629072 105499096 
1398.496 105030520 104214792 102932872 100959520 98023288 93843328 88237880 
1398.918 81236160 73184144 64782952 56969560 50857724 47403304 47177144 
1399.341 50235508 56083808 63808712 72266344 80455040 87622232 93389920 
1399.763 97734216 100856552 103048208 104563624 105603336 106299992 
1400.125 106752776 107064344 107330800 107625784 107979296 108368384 
1400.486 108734160 109014112 109177576 109236288 109236984 109231760 
1400.848 109257880 109322024 109408320 109494600 109570224 109639832 
1401.210 109715136 109799888 109880896 109930064 109921248 109844592 
1401.572 109716848 109572688 109451000 109373376 109335880 109314080 
1401.934 109281152 109225552 109158832 109108792 109103464 109155024 
1402.295 109252832 109369968 109478504 109564984 109632408 109692472 
1402.657 109750232 109793824 109796168 109730216 109585960 109383288 
1403.019 109167592 108994544 108901680 108895384 108948432 109018496 
1403.381 109066640 109076144 109054472 109021944 108994024 108970248 
1403.743 108935392 108872192 108774928 108655240 108534024 108426640 
1404.104 108327952 108209432 108022520 107705952 107189352 106365232 
1404.466 105068256 103078528 100125568 95991720 90622272 84245272 77402496 
1404.888 70914376 65766768 62791440 62519736 64995016 69784264 76057184 
1405.311 82825888 89242000 94677544 98868640 101855736 103875472 105216456 
1405.733 106124512 106772032 107247064 107598032 107862080 108072832 
1406.094 108258440 108429392 108578008 108689696 108761416 108811272 
1406.456 108875816 108988656 109159632 109363824 109552696 109677136 
1406.818 109715144 109686296 109644768 109652792 109746336 109920040 
1407.180 110128352 110313080 110428136 110465352 110452624 110438240 
1407.542 110460752 110531848 110633024 110731552 110799272 110828584 
1407.904 110832088 110830288 110833160 110830968 110797800 110709192 
1408.265 110560704 110377376 110205704 110094392 110074304 110143520 
1408.627 110271944 110416824 110546640 110649888 110735296 110816800 
1408.989 110898608 110966336 110994336 110959200 110857496 110709000 
1409.351 110547000 110393408 110239016 110034160 109708680 109197992 
1409.713 108483360 107612296 106703064 105914280 105392120 105242280 
1410.074 105489856 106081952 106901504 107810720 108680400 109410824 
1410.436 109951728 110294224 110464424 110507680 110481456 110441216 
1410.798 110426800 110456040 110513936 110554016 110500864 110273936 
1411.160 109809752 109084400 108131176 107042952 105960232 105025120 
1411.522 104357992 104015144 103973616 104136864 104369704 104551680 
1411.884 104611552 104563008 104495440 104547536 104842520 105445712 
1412.245 106332976 107401664 108498440 109472560 110229744 110741576 
1412.607 111044200 111202608 111282176 111319520 111321576 111281216 
1412.969 111197432 111087944 110987856 110930952 110934232 110987072 
1413.331 111059568 111117576 111143704 111145208 111147488 111174424 
1413.693 111229880 111290600 111317504 111277408 111163872 111005312 
1414.054 110854976 110766848 110766648 110842160 110948264 111033800 
1414.416 111061296 111025088 110945520 110852776 110765024 110680440 
1414.778 110584208 110467384 110342600 110247320 110224192 110298528 
1415.140 110455488 110643376 110790784 110843840 110791136 110660464 
1415.502 110486504 110263832 109907112 109260584 108143616 106429464 
1415.864 104134472 101460704 98786056 96541240 95136472 94820000 95613296 
1416.286 97316392 99576088 102004368 104238712 106044776 107320768 108070928 
1416.708 108357584 108246384 107758760 106848192 105395472 103236216 
1417.070 100226248 96298984 91551704 86276464 80998848 76373936 73061136 
1417.492 71616832 72300864 75029000 79361272 84653664 90154552 95184440 
1417.914 99299256 102284344 104164944 105115416 105384216 105193056 
1418.276 104680992 103888080 102748624 101115736 98791416 95599464 91430632 
1418.698 86304096 80379144 73949544 67366496 60920592 54786768 48962928 
1419.120 43318044 37688316 32028384 26519558 21636296 18032408 16430452 
1419.542 17423366 21261342 27789400 36437820 46406428 56748928 66618332 
1419.964 75421072 82811016 88721392 93276408 96715704 99294456 101245152 
1420.386 102758600 103964088 104954120 105789824 106505744 107120312 
1420.748 107638232 108056776 108372376 108587016 108711472 108767176 
1421.110 108781040 108781176 108792048 108828248 108894704 108987688 
1421.472 109098968 109218768 109338712 109452840 109556264 109645296 
1421.833 109718504 109778832 109835280 109901736 109992512 110113512 
1422.195 110255936 110394024 110494976 110529840 110489928 110392648 
1422.557 110277456 110186392 110141056 110129656 110108136 110020496 
1422.919 109820728 109494336 109051792 108500296 107806984 106867816 
1423.281 105511264 103560440 100889336 97509800 93592920 89464776 85503760 
1423.703 82026912 79227432 77123512 75614120 74572216 73955984 73862544 
1424.125 74516016 76153608 78922120 82755816 87366504 92265848 96918224 
1424.547 100896776 103948688 106058776 107387992 108192120 108700592 
1424.909 109070360 109371512 109613152 109793392 109931888 110070984 
1425.271 110260000 110523520 110846824 111179552 111462192 111653672 
1425.633 111745784 111761920 111738960 111706408 111671976 111625096 
1425.994 111550608 111444656 111321976 111210712 111136512 111110936 
1426.356 111124304 111153224 111172400 111169480 111148592 111124952 
1426.718 111111784 111110784 111108992 111087344 111031472 110943400 
1427.080 110842312 110759432 110723680 110750240 110837496 110970328 
1427.442 111129176 111296656 111461352 111612400 111730944 111786624 
1427.803 111734464 111523552 111114280 110489648 109671200 108720464 
1428.165 107742984 106866320 106216384 105898392 105959512 106377296 
1428.527 107054880 107852784 108613232 109205656 109565104 109693472 
1428.889 109648856 109506992 109334104 109158528 108970432 108731464 
1429.251 108387864 107865104 107038248 105721624 103647680 100506000 
1429.613 96060960 90255240 83348376 75921864 68895328 63304316 60033428 
1430.035 59664256 62252752 67347344 74067344 81414040 88451080 94496536 
1430.457 99254176 102737192 105175104 106851184 108024896 108861624 
1430.819 109439880 109801776 109985832 110046376 110051744 110057392 
1431.180 110092224 110154984 110225744 110280856 110302680 110278288 
1431.542 110187048 109993464 109655192 109139136 108452864 107660984 
1431.904 106892312 106301824 106029880 106159680 106682656 107502328 
1432.266 108461616 109406184 110213848 110829832 111261928 111550200 
1432.628 111724064 111768176 111606656 111124880 110211360 108806728 
1432.990 106952568 104810656 102656224 100798104 99537936 99081904 99483888 
1433.412 100639208 102310144 104207096 106033280 107577312 108741248 
1433.773 109532224 110031064 110344512 110565792 110744240 110892536 
1434.135 111002616 111067216 111095000 111109976 111138336 111195928 
1434.497 111276816 111356432 111400736 111384528 111301496 111167432 
1434.859 111010768 110860080 110727584 110598496 110425064 110130112 
1435.221 109625040 108817224 107640840 106080824 104195344 102122528 
1435.583 100067952 98285240 96993144 96322448 96244112 96546136 96820528 
1436.005 96520168 95101328 92075376 87158728 80335656 71875752 62280368 
1436.427 52177944 42270240 33161436 25334150 19143328 14806380 12476227 
1436.849 12270490 14270296 18497924 24850442 33062292 42644216 52943368 
1437.271 63249564 72848712 81216528 88069408 93378776 97324368 100207760 
1437.693 102354456 104011256 105344000 106434752 107317440 108021776 
1438.055 108590152 109073064 109516992 109943672 110348440 110711928 
1438.417 111020696 111281784 111524704 111784288 112082712 112411600 
1438.779 112734784 113000240 113167184 113225416 113199456 113136216 
1439.140 113081952 113065344 113086368 113124168 113152368 113156680 
1439.502 113140472 113120744 113114576 113129480 113159200 113191208 
1439.864 113216960 113241232 113280384 113353920 113469632 113616088 
1440.226 113763640 113879872 113943904 113958704 113948832 113949480 
1440.588 113986760 114063312 114156224 114227752 114244360 114188912 
1440.949 114068432 113906504 113732016 113564752 113412792 113277328 
1441.311 113161752 113079408 113052952 113103424 113239992 113450200 
1441.673 113703768 113960520 114188912 114376472 114530528 114668848 
1442.035 114805688 114940256 115055496 115125376 115129128 115063552 
1442.397 114945576 114805824 114673720 114569024 114494856 114442704 
1442.759 114401144 114365224 114339160 114332864 114353880 114401464 
1443.120 114465168 114530648 114585368 114624592 114650872 114669112 
1443.482 114680096 114677864 114651992 114595640 114512280 114419096 
1443.844 114340464 114299336 114306968 114357816 114432888 114509280 
1444.206 114572032 114618024 114654616 114690248 114725408 114747352 
1444.568 114734184 114662592 114520760 114313320 114060776 113789280 
1444.929 113523176 113278512 113062824 112882528 112748616 112676752 
1445.291 112683312 112773600 112934344 113131056 113320024 113463648 
1445.653 113545120 113576424 113591960 113631488 113716144 113835560 
1446.015 113944520 113981712 113886768 113629048 113219904 112713712 
1446.377 112189960 111730792 111405440 111250200 111269568 111439440 
1446.739 111718792 112053368 112382024 112646264 112789320 112769368 
1447.100 112568184 112190272 111650984 110947104 110011976 108686832 
1447.462 106704952 103709920 99374008 93491424 86129352 77688768 68961032 
1447.884 61012360 54917436 51638584 51704432 55099136 61244384 69175016 
1448.306 77767296 85939128 92962776 98488448 102542232 105389240 107395440 
1448.729 108881224 110037080 110950472 111641216 112122672 112439696 
1449.090 112663568 112864048 113082456 113315400 113530008 113693040 
1449.452 113799248 113877856 113976720 114129168 114332672 114542704 
1449.814 114697464 114745280 114676880 114527408 114360112 114227712 
1450.176 114147584 114094392 114021880 113893072 113710200 113517456 
1450.538 113384936 113370608 113489584 113707456 113958696 114182904 
1450.899 114349520 114469688 114577128 114698280 114826248 114919240 
1451.261 114922592 114805472 114577320 114277128 113926352 113472080 
1451.623 112751768 111524608 109526280 106609424 102842208 98577784 94379608 
1452.045 90924720 88840192 88488280 89909056 92791392 96609256 100713168 
1452.467 104524824 107668144 109972408 111478224 112353648 112825728 
1452.829 113090496 113283480 113473312 113669592 113851696 113991920 
1453.191 114074408 114100584 114088200 114061264 114041904 114039696 
1453.553 114049232 114052992 114030944 113969552 113866512 113728808 
1453.915 113563368 113363552 113101272 112721904 112153400 111329480 
1454.276 110205344 108786376 107139776 105408280 103785432 102479104 
1454.638 101667312 101413144 101611616 101946536 101959264 101103232 
1455.000 98913824 95195160 90124712 84300720 78590104 74023232 71449768 
1455.422 71322448 73596248 77745016 82921776 88154992 92670224 95958384 
1455.844 97825056 98304584 97508136 95489856 92191312 87469016 81205056 
1456.266 73424184 64385776 54567552 44590116 35127888 26710628 19682616 
1456.688 14171175 10132749 7450137 6036449 5904825 7183259 10064251 14702095 
1457.171 21118138 29114396 38265472 47928204 57416708 66093752 73475800 
1457.593 79320728 83562864 86231232 87338136 86808504 84494664 80286448 
1458.015 74262768 66832668 58758708 51157908 45193752 41864368 41780476 
1458.437 44980680 50957680 58766240 67334552 75558416 82523552 87618376 
1458.859 90466368 90957680 89216824 85628384 80810464 75586560 70947944 
1459.281 67792512 66811260 68309096 72130760 77700712 84173816 90714296 
1459.704 96595048 101389160 104984864 107507464 109207240 110341320 
1460.065 111119488 111662432 112035512 112284744 112457184 112610496 
1460.427 112797288 113043624 113342792 113659640 113951680 114184568 
1460.789 114346960 114447736 114505888 114536848 114546760 114534560 
1461.151 114499968 114451304 114407760 114391720 114420680 114496792 
1461.513 114605664 114720472 114814272 114870928 114889120 114881096 
1461.875 114864792 114856192 114862648 114883832 114915792 114956448 
1462.236 115007904 115074632 115158016 115250608 115334016 115383552 
1462.598 115373496 115289032 115131656 114920768 114686184 114459584 
1462.960 114265384 114113128 113999336 113912136 113839616 113773800 
1463.322 113712232 113654368 113596032 113526344 113429088 113286072 
1463.684 113084816 112820912 112496016 112111080 111657712 111111776 
1464.045 110435704 109576672 108468120 107028224 105131928 102600824 
1464.407 99206512 94670304 88751992 81336296 72545000 62794232 52830964 
1464.829 43682500 36394220 31933132 30926814 33512032 39318488 47543288 
1465.251 57185168 67148600 76538688 84763168 91529296 96836032 100863712 
1465.674 103881800 106141912 107858560 109190000 110238896 111083392 
1466.035 111781248 112373216 112888896 113344424 113747104 114101736 
1466.397 114413296 114687312 114925976 115124760 115271664 115352256 
1466.759 115359000 115298472 115194720 115081672 114995528 114958992 
1467.121 114973344 115017744 115058176 115060456 115001544 114879392 
1467.483 114712680 114536264 114388144 114303512 114305736 114402048 
1467.844 114584368 114831152 115113472 115397120 115651872 115856504 
1468.206 116001560 116091344 116140744 116170088 116196184 116227928 
1468.568 116262896 116289872 116293328 116261072 116190040 116088112 
1468.930 115971720 115859568 115767624 115702832 115662944 115639632 
1469.292 115624640 115614576 115613192 115628416 115667168 115728360 
1469.654 115800488 115862552 115892552 115877072 115817152 115729224 
1470.015 115638088 115567464 115527984 115513712 115504200 115475072 
1470.377 115405096 115282688 115105360 114874104 114588568 114245976 
1470.739 113843736 113381768 112858288 112253960 111514928 110535736 
1471.101 109157808 107217304 104583952 101227520 97243488 92846320 88291088 
1471.523 83757144 79268952 74646552 69572592 63704568 56886340 49289736 
1471.945 41509804 34427944 29091002 26445096 27033144 30914976 37615520 
1472.367 46313972 55954300 65537620 74306600 81749232 87655176 92020664 
1472.789 94955568 96585256 96989432 96159696 93999392 90345608 85042544 
1473.211 78046688 69540624 60026564 50300268 41469764 34688784 30928254 
1473.634 30810576 34394324 41184540 50207368 60331592 70410504 79523088 
1474.056 87141368 93068648 97406624 100421744 102470696 103899720 104999368 
1474.478 106009512 107078760 108267456 109546624 110820768 111961568 
1474.840 112857984 113463440 113804064 113963296 114032128 114074352 
1475.201 114096528 114060176 113910416 113613216 113163128 112555816 
1475.563 111739824 110562240 108742464 105941280 101817000 96160408 88995136 
1475.985 80631616 71644952 62749136 54759660 48399464 44216364 42566876 
1476.407 43555760 47060776 52735044 60082536 68461344 77158992 85535992 
1476.830 93033944 99288312 104161384 107710584 110142448 111725496 112743760 
1477.252 113419216 113904456 114294288 114635000 114951960 115260952 
1477.614 115570984 115884240 116194064 116488048 116751768 116975128 
1477.975 117155488 117296952 117407816 117497232 117574040 117645072 
1478.337 117715632 117788952 117865488 117942864 118017120 118085440 
1478.699 118148216 118209648 118275368 118348816 118427880 118504896 
1479.061 118569584 118615328 118642648 118658992 118673152 118688688 
1479.423 118698920 118689744 118646040 118562640 118449752 118331176 
1479.784 118233048 118170208 118138392 118116328 118078032 118007976 
1480.146 117912216 117816160 117750480 117730544 117745472 117758264 
1480.508 117723512 117599336 117357056 116969160 116376816 115470352 
1480.870 114089344 112050856 109240808 105691728 101659136 97585824 94069592 
1481.292 91708928 90910288 91813480 94218328 97673520 101558456 105294688 
1481.714 108475912 110909128 112626800 113801720 114656824 115363024 
1482.076 116015128 116627960 117171496 117608576 117922952 118123896 
1482.438 118236936 118288616 118297760 118278568 118244848 118215264 
1482.800 118212184 118251264 118333656 118441144 118544400 118613080 
1483.161 118631896 118607616 118566744 118542360 118557616 118616336 
1483.523 118700168 118777984 118817736 118802480 118735136 118637648 
1483.885 118539440 118468152 118438520 118447960 118478424 118503616 
1484.247 118499568 118450896 118358048 118236672 118114704 118021160 
1484.609 117978048 117992400 118053912 118138344 118216512 118266888 
1484.970 118280608 118264056 118231888 118199328 118172792 118148280 
1485.332 118115600 118067400 118005136 117937728 117869424 117781352 
1485.694 117612168 117262592 116600872 115506016 113921016 111893288 
1486.056 109600040 107318136 105399552 104157736 103790720 104325440 
1486.418 105601328 107306240 109046096 110474088 111322720 111439816 
1486.780 110759112 109217312 106692760 102997304 97911240 91323392 83365832 
1487.202 74549920 65723840 57987312 52506932 50140192 51295704 55774284 
1487.624 62870912 71488392 80445096 88790464 95862064 101409320 105499448 
1488.046 108392992 110392864 111760584 112696288 113328856 113754664 
1488.408 114043056 114217080 114228352 113937080 113143176 111615144 
1488.770 109182080 105802728 101609904 96906160 92117576 87753752 84264480 
1489.192 81977680 81004008 81180832 82047776 82897776 82973944 81576216 
1489.614 78331536 73337488 67230552 61055640 56005640 53211032 53343464 
1490.036 56501204 62164696 69401144 77020632 83830584 88909816 91588560 
1490.458 91532112 88719624 83435432 76271440 68088928 60057276 53402332 
1490.880 49230328 48327332 50901876 56562060 64377972 73218672 81925184 
1491.302 89625072 95897112 100704752 104299928 107022808 109186656 110973688 
1491.724 112453120 113642744 114564136 115274904 115859840 116388208 
1492.086 116889216 117341960 117701752 117932720 118038832 118063344 
1492.448 118070856 118109992 118191536 118288384 118358128 118371408 
1492.810 118331528 118271520 118235352 118250096 118309992 118380464 
1493.172 118420240 118408744 118358824 118312080 118314408 118393032 
1493.533 118538416 118710416 118856800 118943072 118964840 118947216 
1493.895 118923752 118916760 118921184 118909408 118845568 118709008 
1494.257 118506000 118267928 118033320 117828528 117656528 117498416 
1494.619 117327168 117124232 116890000 116640080 116391528 116146888 
1494.981 115886080 115570528 115159464 114620888 113942416 113125592 
1495.343 112171272 111063392 109756088 108163888 106171608 103623832 
1495.704 100325016 96065512 90620184 83812904 75593648 66123308 55839296 
1496.126 45437952 35888044 28200946 23275128 21746754 23799966 29159596 
1496.549 37124536 46794296 57156788 67302984 76592448 84618208 91238888 
1496.971 96503584 100583160 103695888 106061160 107888192 109338528 
1497.333 110531880 111542952 112399600 113099376 113625520 113966128 
1497.694 114124592 114120752 113979600 113719952 113342136 112826912 
1498.056 112136272 111218784 109999584 108354352 106103232 102987024 
1498.418 98695656 92967024 85671024 76952528 67279088 57506744 48730060 
1498.840 42056840 38472868 38519424 42204620 48973016 57893748 67818616 
1499.262 77620088 86481896 93905488 99756984 104166680 107413104 109795296 
1499.684 111548416 112846248 113794928 114467992 114934384 115255368 
1500.046 115481528 115642312 115741816 115769528 115716560 115589864 
1500.408 115418560 115247752 115123288 115083904 115149864 115322784 
1500.770 115587368 115915088 116264960 116584304 116821680 116934376 
1501.132 116903000 116736008 116459280 116088744 115600408 114906320 
1501.493 113867672 112344848 110257720 107663952 104789944 102032360 
1501.855 99838120 98620768 98636456 99900272 102187920 105094888 108182640 
1502.277 111042568 113412200 115197584 116435584 117239968 117736248 
1502.639 118031176 118190328 118255432 118261696 118243576 118234920 
1503.001 118255376 118299856 118337880 118325936 118229056 118033880 
1503.363 117757432 117438152 117123640 116849712 116632048 116464664 
1503.725 116326896 116191288 116030912 115825080 115557328 115216992 
1504.086 114800360 114311992 113764976 113176672 112563104 111929032 
1504.448 111262760 110533544 109699672 108713056 107524456 106088320 
1504.810 104349720 102232792 99636040 96412976 92387352 87383928 81249384 
1505.232 73918528 65458444 56123596 46342408 36717688 27988062 20859630 
1505.654 15970087 13756390 14367453 17659014 23203742 30395418 38458568 
1506.076 46595972 54068052 60186716 64440392 66500588 66251348 63806640 
1506.499 59494580 53813544 47300252 40500788 33864040 27688876 22174924 
1506.921 17445620 13608568 10810665 9228546 9040706 10381417 13277411 
1507.343 17623086 23171356 29591712 36479040 43415176 50042124 56057020 
1507.765 61273260 65635248 69206232 72126568 74534504 76480008 77852624 
1508.187 78371320 77648416 75374544 71473000 66271464 60481272 55175208 
1508.609 51505680 50367656 52244140 57011164 64024040 72239272 80574120 
1509.031 88107216 94203760 98595192 101249104 102243384 101644776 99475368 
1509.453 95758144 90612936 84384600 77679256 71294192 66174800 63141440 
1509.875 62733484 65085564 69873608 76365856 83547736 90425184 96125888 
1510.298 100116560 102289032 102921504 102573344 101881520 101455792 
1510.659 101687920 102711872 104425448 106573152 108840744 110939280 
1511.021 112685896 113995920 114873232 115371440 115565936 115529720 
1511.383 115322016 114994920 114586696 114114984 113559720 112842448 
1511.745 111803240 110177232 107639720 103829768 98449856 91399520 82884032 
1512.167 73503784 64171056 56095252 50471648 48192936 49689096 54744612 
1512.589 62571664 71938208 81582664 90412680 97723664 103301600 107301976 
1513.011 110095928 112055816 113474752 114505424 115205744 115620424 
1513.373 115826128 115935328 116066648 116284952 116580888 116882104 
1513.735 117107112 117209584 117207192 117160488 117132408 117137584 
1514.097 117130200 117024744 116752936 116306120 115738232 115113472 
1514.458 114425312 113515552 112081592 109722472 106084440 101042344 
1514.820 94811184 87992376 81424312 76098760 72860488 72205600 74204504 
1515.242 78471168 84281208 90690056 96826016 101995336 105805432 108209136 
1515.665 109425752 109820216 109722160 109335432 108654376 107508008 
1516.026 105646040 102888600 99221336 94828280 90015280 85104048 80320264 
1516.448 75725848 71274864 66935120 62818128 59269088 56811336 55942088 
1516.871 56942692 59638068 63364592 67013168 69404696 69589688 67127496 
1517.293 62251016 55804204 49036168 43169304 39245152 37864576 39146024 
1517.715 42825580 48398336 55295244 62930468 70813088 78540392 85768368 
1518.137 92247544 97804512 102355336 105909904 108557808 110445712 111734568 
1518.559 112593520 113169296 113572368 113883696 114142808 114353336 
1518.921 114491216 114521520 114414832 114161216 113773920 113282712 
1519.283 112719944 112105888 111443752 110714848 109875320 108831672 
1519.645 107420232 105393840 102403824 98092176 92188432 84653104 75789688 
1520.067 66309308 57279884 49831756 45020860 43497116 45332460 49997960 
1520.489 56487212 63599924 70073936 74918072 77484776 77453792 74814864 
1520.911 69777848 62735796 54196616 44835300 35464660 26916352 20051994 
1521.333 15582194 13949740 15309806 19489692 26055618 34350272 43654192 
1521.755 53237204 62417060 70682288 77667568 83177592 87161976 89641456 
1522.177 90635080 90102376 87925832 83971752 78201344 70812640 62319544 
1522.599 53569132 45696588 39810448 36847640 37327368 41220148 47968044 
1523.021 56614688 66103336 75378112 83647288 90464560 95676752 99382824 
1523.444 101822680 103310944 104148600 104617768 104970080 105393016 
1523.805 106017112 106889888 107974552 109161088 110303752 111270752 
1524.167 111964528 112343600 112401320 112127768 111478032 110359992 
1524.529 108657144 106296032 103307752 99881688 96329616 93044520 90350200 
1524.951 88359080 86884864 85436392 83348424 79918544 74706768 67697152 
1525.373 59419628 50828208 43180384 37759308 35489220 36830272 41627816 
1525.795 49227684 58578936 68533728 78109504 86553104 93493192 98877824 
1526.218 102883224 105781424 107851504 109320320 110330032 110976984 
1526.579 111335128 111467320 111421520 111188424 110665816 109621232 
1526.941 107730872 104661528 100171816 94265032 87273928 79907640 73082016 
1527.363 67823184 65011116 65117460 68133608 73529472 80446224 87817248 
1527.785 94693640 100431496 104716312 107563120 109158760 109701704 
1528.147 109260560 107746696 104977544 100832240 95400800 89102552 82631712 
1528.569 76924248 72894088 71196224 72117024 75467216 80669384 86869248 
1528.991 93225832 99036672 103858640 107558616 110229128 112094976 113388064 
1529.414 114303776 114961656 115421568 115724736 115913128 116036240 
1529.775 116143736 116263992 116398280 116525648 116622016 116675960 
1530.137 116697384 116708936 116731656 116768720 116803360 116807808 
1530.499 116762792 116670536 116555112 116446464 116360384 116284360 
1530.861 116181832 116007280 115726296 115323488 114781240 114042112 
1531.223 112983608 111398448 109052888 105784048 101599624 96762600 91787272 
1531.645 87396584 84288200 82996432 83730032 86313528 90231352 94769696 
1532.067 99256000 103136480 106112280 108131176 109312336 109850616 
1532.429 109927248 109670896 109124752 108252304 106932872 104979648 
1532.791 102137352 98130064 92763960 86019136 78171280 69795656 61786708 
1533.213 55135908 50678148 48908600 49747572 52531824 56084016 59103700 
1533.635 60403276 59251364 55595904 50071992 43868116 38336104 34815172 
1534.057 34225620 36902780 42594596 50570964 59848372 69354768 78238312 
1534.479 85918840 92128352 96878456 100359776 102847784 104601688 105849152 
1534.901 106749456 107391832 107812568 107996992 107896904 107450208 
1535.263 106619760 105427544 103987912 102494232 101205384 100384520 
1535.625 100213128 100757488 101934232 103547288 105321808 106994368 
1535.987 108375776 109367200 109971416 110257208 110323680 110256216 
1536.348 110115344 109934016 109725856 109500272 109269072 109045608 
1536.710 108841848 108662520 108504392 108359064 108218000 108075768 
1537.072 107929296 107774792 107602680 107394440 107126072 106771616 
1537.434 106312216 105743504 105076768 104333088 103527720 102650080 
1537.796 101643448 100398104 98747968 96518392 93568784 89852368 85459832 
1538.218 80634728 75739104 71134928 67113904 63770720 60963940 58318776 
1538.640 55340568 51571740 46702728 40712524 33882748 26776316 20065172 
1539.062 14444495 10503514 8601055 8881211 11260303 15484785 21143306 
1539.484 27728860 34699160 41454052 47437316 52168824 55252860 56448964 
1539.906 55660768 52948088 48512768 42718572 36092092 29257006 22972734 
1540.328 18013346 15031857 14518353 16651089 21280162 27932702 35947956 
1540.750 44582500 53114972 61012596 67918024 73662096 78226168 81679888 
1541.173 84134840 85701456 86479152 86528488 85856392 84400728 82034272 
1541.595 78586904 73886560 67841816 60501508 52115688 43108368 34088912 
1542.017 25763890 18796182 13798071 11205412 11234356 13881476 18916998 
1542.439 25921798 34294744 43383016 52521540 61111640 68744536 75187600 
1542.861 80391520 84423112 87379328 89298544 90122320 89709920 87929032 
1543.283 84769304 80457840 75482064 70561888 66554988 64192168 63967592 
1543.705 65982536 69939416 75193224 80924600 86377336 90926656 94230984 
1544.127 96221400 97037504 96933016 96192056 95088464 93830040 92565288 
1544.550 91360280 90171072 88810088 86938360 84142840 79994960 74236000 
1544.972 66914068 58490960 49799136 41895600 35912764 32691786 32648134 
1545.394 35658684 41148616 48218452 55889340 63388132 70188816 76096592 
1545.816 81164104 85571352 89497664 93044560 96225632 98994120 101296816 
1546.238 103117320 104491776 105499008 106234176 106775560 107181776 
1546.600 107489624 107723976 107910656 108075600 108239048 108410160 
1546.962 108583792 108746992 108889104 109011056 109126224 109252872 
1547.323 109400848 109563440 109716864 109833008 109891344 109892328 
1547.685 109856240 109814256 109790032 109788600 109795472 109789216 
1548.047 109757608 109711064 109680472 109705160 109810512 109991392 
1548.409 110209224 110406256 110531632 110556288 110483808 110339224 
1548.771 110152304 109938280 109693224 109398592 109031360 108560696 
1549.133 107928992 107033712 105696704 103685232 100787696 96890560 92095480 
1549.555 86752232 81464560 76904808 73630952 71903952 71553792 72004808 
1549.977 72429344 72092888 70553880 67892688 64675864 61852272 60414916 
1550.399 61069212 64082036 69176552 75672448 82651240 89293280 95010736 
1550.821 99532512 102885352 105275672 106966728 108166272 109016248 
1551.183 109592488 109942256 110122472 110201960 110246632 110302456 
1551.545 110377872 110451232 110489128 110470880 110398896 110296896 
1551.906 110193112 110107552 110043720 109994736 109956152 109936760 
1552.268 109957944 110043656 110201656 110412416 110627872 110791120 
1552.630 110854600 110799400 110639688 110412320 110155952 109890464 
1552.992 109612096 109299176 108929880 108495280 108005016 107477048 
1553.354 106920112 106317152 105619008 104748768 103624192 102160176 
1553.716 100268176 97848480 94755088 90793760 85755072 79449896 71814176 
1554.138 62986808 53393548 43706660 34793944 27625460 23010132 21515034 
1554.560 23321104 28200368 35545292 44495200 54157772 63658200 72337400 
1554.982 79809328 85924368 90745704 94459304 97307712 99504920 101221088 
1555.404 102574456 103634016 104447528 105051304 105473512 105736352 
1555.766 105851624 105823040 105655536 105366040 104991408 104591824 
1556.128 104234088 103976592 103850088 103844760 103911144 103972496 
1556.490 103952016 103783216 103425952 102864584 102092072 101091424 
1556.851 99816448 98169784 96006792 93136896 89334088 84396016 78176888 
1557.273 70659296 62002104 52597948 43068076 34153172 26692846 21410608 
1557.696 18760412 18846036 21351268 25596830 30605174 35373076 38975424 
1558.118 40724560 40306996 37759064 33450114 27950030 21995366 16343052 
1558.540 11657432 8515149 7292708 8154836 11051313 15737042 21805722 
1558.962 28727116 35961772 42954768 49184924 54221652 57681276 59276804 
1559.384 58854960 56425284 52208700 46630176 40326244 33990256 28268690 
1559.806 23642104 20285740 18071650 16616062 15458993 14187443 12616346 
1560.228 10857201 9317219 8580015 9225161 11719842 16250417 22700282 
1560.650 30663592 39580552 48819796 57785720 66046704 73317664 79480608 
1561.073 84552072 88641656 91910040 94526008 96660336 98452184 100003416 
1561.495 101383560 102626088 103742152 104732360 105597016 106342856 
1561.856 106984168 107537792 108019944 108441784 108809336 109127608 
1562.218 109403984 109650048 109881112 110110320 110343864 110577872 
1562.580 110800208 110995368 111152048 111269232 111357176 111433360 
1562.942 111513688 111606552 111707848 111803616 111875048 111907824 
1563.304 111896960 111847624 111770800 111678016 111576736 111469304 
1563.666 111356232 111239760 111124744 111015864 110910816 110796184 
1564.027 110645888 110430008 110124520 109713608 109182776 108492016 
1564.389 107536296 106135712 104023224 100899344 96547632 90929400 84302056 
1564.811 77216088 70526568 65181928 62004328 61546956 63892716 68658360 
1565.233 75055448 82164160 89078640 95108568 99915896 103457888 105920248 
1565.656 107568632 108668072 109401024 109864568 110114664 110197736 
1566.017 110176456 110131008 110129520 110210744 110373376 110588200 
1566.379 110819048 111045400 111269992 111509880 111778032 112069232 
1566.741 112357752 112611168 112809144 112955376 113075792 113202848 
1567.103 113354264 113518896 113658608 113726408 113693864 113565512 
1567.465 113381280 113195568 113057344 112985448 112965576 112960376 
1567.826 112932016 112857064 112729584 112552736 112324288 112027944 
1568.188 111639592 111137592 110513656 109766496 108873384 107753736 
1568.550 106251720 104129728 101147648 97153336 92186488 86534312 80736904 
1568.972 75508920 71509328 69225496 68781792 69894480 71876720 73797616 
1569.394 74727112 73843760 70690752 65246948 57959384 49635388 41340332 
1569.816 34258836 29389708 27477532 28844288 33349472 40421668 49187832 
1570.239 58710952 68064216 76561672 83819984 89721328 94367768 97972520 
1570.661 100779712 102981520 104717920 106084248 107148496 107980120 
1571.022 108650960 109223288 109745224 110238968 110704912 111132232 
1571.384 111510728 111837352 112115888 112351848 112547848 112702952 
1571.746 112816392 112893008 112946136 112993456 113052104 113129976 
1572.108 113223088 113318016 113399792 113459008 113493760 113506528 
1572.470 113496496 113452424 113353928 113176832 112906168 112547248 
1572.832 112130600 111706480 111327904 111041120 110869544 110812408 
1573.193 110850064 110955536 111103648 111275304 111458976 111645536 
1573.555 111824248 111982784 112107488 112187320 112216664 112194224 
1573.917 112121344 111999080 111827352 111606208 111338664 111033472 
1574.279 110704040 110366032 110032872 109710720 109398016 109086608 
1574.641 108766328 108426752 108058824 107653104 107195480 106665976 
1575.002 106039432 105286576 104381024 103299944 102021296 100519632 
1575.364 98752496 96648424 94108632 90995752 87151848 82430456 76712352 
1575.786 69955280 62221760 53713808 44759516 35801168 27382546 20034206 
1576.208 14258294 10462751 8890408 9629107 12593077 17558008 24160982 
1576.631 31956020 40472036 49204712 57711264 65636712 72721616 78839304 
1577.053 83966344 88155784 91490952 94059264 95933616 97173904 97859152 
1577.475 98108832 98086256 98006888 98085664 98491720 99317872 100550104 
1577.897 102080872 103736680 105342960 106752024 107877376 108702440 
1578.259 109263792 109629920 109872872 110060536 110242680 110450800 
1578.621 110702784 111002464 111342536 111705904 112071344 112416728 
1578.982 112724024 112982920 113188984 113341872 113442800 113494272 
1579.344 113501904 113476352 113435600 113400576 113389536 113412464 
1579.706 113466384 113537344 113606280 113659208 113692080 113712616 
1580.068 113734480 113770640 113825720 113894600 113965744 114028912 
1580.430 114081224 114128904 114183112 114253352 114340680 114436064 
1580.792 114523096 114585248 114614000 114611256 114588664 114561120 
1581.153 114542744 114542112 114562848 114606704 114675720 114772376 
1581.515 114896784 115043064 115196848 115336512 115440800 115493536 
1581.877 115490224 115438064 115352672 115250920 115144848 115040864 
1582.239 114940976 114847328 114766072 114707056 114681320 114696408 
1582.601 114752808 114843896 114958856 115087680 115222400 115357192 
1582.962 115485144 115594216 115667704 115688584 115645656 115541376 
1583.324 115394048 115235440 115098816 115011784 114987736 115024936 
1583.686 115111656 115234240 115383872 115556896 115751688 115962640 
1584.048 116175064 116367400 116516696 116606400 116633832 116610736 
1584.410 116558696 116498488 116444272 116398592 116355240 116305216 
1584.771 116244192 116176096 116112688 116068056 116052952 116071176 
1585.133 116118776 116186408 116262720 116338056 116404240 116454728 
1585.495 116484528 116490408 116472904 116437584 116395776 116361352 
1585.857 116346928 116360712 116403904 116471720 116555712 116647360 
1586.219 116738192 116819352 116880824 116910368 116897048 116836904 
1586.581 116738160 116623248 116523488 116472480 116491096 116579920 
1586.942 116716280 116863520 116981560 117041352 117035376 116977184 
1587.304 116895112 116818592 116771424 116764232 116796168 116859728 
1587.666 116946424 117049224 117161544 117275504 117380136 117462208 
1588.028 117511432 117523584 117503296 117461208 117410128 117358752 
1588.390 117308904 117257136 117199352 117135944 117074016 117024400 
1588.751 116996424 116992248 117005160 117022632 117033376 117033928 
1589.113 117029136 117025832 117021608 116993456 116895664 116670864 
1589.475 116264552 115653728 114862312 113969104 113086144 112339424 
1589.837 111836320 111632288 111726448 112062808 112557152 113113104 
1590.199 113652560 114129960 114529976 114863328 115153192 115424464 
1590.561 115693080 115963888 116230872 116481856 116702648 116882432 
1590.922 117017336 117110624 117170200 117202720 117207432 117170792 
1591.284 117066976 116861312 116524912 116047064 115448320 114781192 
1591.646 114128096 113585416 113234056 113128128 113276016 113642256 
1592.008 114154024 114724168 115274640 115746152 116112880 116377352 
1592.370 116561336 116690904 116786832 116858768 116906128 116925024 
1592.731 116916536 116891328 116871048 116881208 116940936 117055320 
1593.093 117209728 117373344 117505768 117573464 117558424 117464640 
1593.455 117314240 117140152 116973992 116835032 116730072 116655064 
1593.817 116601832 116559984 116513784 116432200 116251920 115878888 
1594.179 115195072 114083792 112482064 110418128 108046824 105623712 
1594.541 103492536 101997640 101386368 101769440 103072384 105069256 
1594.902 107419904 109783584 111887480 113566760 114789856 115620912 
1595.264 116173088 116547544 116811760 116988208 117071928 117057192 
1595.626 116957064 116804072 116638504 116481584 116318616 116093744 
1595.988 115732624 115170104 114385384 113422264 112393024 111457032 
1596.350 110769280 110457544 110579728 111115312 111971680 113013944 
1596.711 114101088 115105056 115945184 116589088 117048704 117364416 
1597.073 117589728 117774296 117949488 118128280 118305560 118466584 
1597.435 118593952 118676072 118710480 118703664 118667840 118616944 
1597.797 118563984 118517856 118483664 118462752 118453000 118448992 
1598.159 118442968 118427312 118396968 118353256 118305072 118268392 
1598.521 118260400 118292528 118364832 118463752 118565032 118641080 
1598.882 118673064 118656176 118602544 118534440 118477312 118448528 
1599.244 118451880 118478840 118514824 118548096 118575456 118603760 
1599.606 118645624 118711904 118804168 118911888 119014264 119089032 
1599.968 119118392 119096936 119032848 118945984 118860600 118797576 
1600.330 118770400 118781192 118822096 118877872 118931360 118964928 
1600.691 118960752 118900672 118760712 118510016 118115824 117548112 
1601.053 116796104 115881272 114871008 113872872 113017864 112442056 
1601.415 112240056 112445880 113018120 113857048 114825104 115787000 
1601.777 116650736 117372168 117957080 118437216 118846696 119200160 
1602.139 119488920 119689200 119779816 119753960 119622424 119404152 
1602.500 119114224 118753528 118310200 117769696 117130464 116411264 
1602.862 115649464 114882600 114128104 113372248 112576360 111701496 
1603.224 110742680 109754680 108860520 108232032 108027840 108356896 
1603.586 109228752 110551072 112142736 113790144 115309880 116571424 
1603.948 117528952 118204984 118665168 118981064 119210368 119387760 
1604.310 119525696 119626760 119692968 119730240 119748904 119760440 
1604.671 119774312 119798480 119838896 119899776 119982280 120081800 
1605.033 120186592 120278120 120337664 120351504 120317552 120246688 
1605.395 120161008 120086368 120043304 120043248 120084832 120156288 
1605.757 120237936 120308072 120346768 120338200 120275704 120163168 
1606.119 120016168 119856776 119708088 119582904 119475528 119358072 
1606.480 119186696 118916608 118512544 117962760 117277392 116478688 
1606.842 115583096 114589776 113479120 112229840 110844792 109381656 
1607.204 107957624 106754056 105973472 105779816 106265248 107405816 
1607.566 109069072 111030616 113047144 114903232 116448424 117627576 
1607.928 118461608 119021568 119385688 119620160 119762680 119826816 
1608.290 119818824 119750592 119645048 119534424 119446480 119394712 
1608.651 119374240 119366480 119347352 119292840 119178144 118959608 
1609.013 118555008 117842408 116656064 114836760 112296408 109078960 
1609.375 105404600 101656192 98353312 95994240 94964952 95434552 97305416 
1609.797 100237472 103732824 107302392 110524312 113151744 115124184 
1610.159 116519192 117485408 118169040 118682728 119082768 119390056 
1610.521 119614872 119772216 119885944 119979448 120062856 120130512 
1610.883 120167392 120163992 120127376 120083224 120063640 120093088 
1611.244 120172176 120277112 120369184 120417080 120411128 120369760 
1611.606 120327448 120318416 120356112 120426072 120490864 120509312 
1611.968 120457080 120336368 120175216 120012760 119884392 119805632 
1612.330 119771568 119763816 119764576 119765176 119769448 119787776 
1612.692 119829352 119894456 119973896 120052240 120115232 120154464 
1613.053 120167240 120154712 120118792 120061928 119989072 119910968 
1613.415 119844360 119805440 119803064 119829656 119861592 119863816 
1613.777 119806368 119679016 119498512 119303904 119140968 119044744 
1614.139 119021664 119047880 119077632 119066032 118982504 118823232 
1614.501 118607056 118365680 118127880 117908976 117711104 117527240 
1614.863 117348736 117168392 116979792 116772120 116526152 116218720 
1615.224 115828752 115348816 114790600 114183248 113560464 112942456 
1615.586 112323752 111667816 110916416 109997944 108847560 107409032 
1615.948 105624696 103427656 100719768 97363760 93207352 88092288 81903008 
1616.370 74609920 66292480 57177896 47613772 38096016 29187582 21476288 
1616.792 15549254 11863167 10722702 12224538 16243064 22436858 30292556 
1617.214 39239880 48657016 57984252 66790232 74751632 81697128 87582448 
1617.636 92463392 96459488 99722632 102410648 104649160 106534088 108128016 
1618.059 109467512 110583792 111512624 112296096 112982864 113613208 
1618.420 114209296 114772784 115288552 115736024 116100464 116380928 
1618.782 116589136 116742920 116856424 116936680 116984264 116999560 
1619.144 116990112 116973032 116970856 117005864 117090304 117223880 
1619.506 117396008 117593056 117803776 118020928 118238920 118447144 
1619.868 118626936 118756040 118814808 118798088 118719168 118607584 
1620.229 118494712 118398264 118312216 118207472 118043496 117786264 
1620.591 117427152 116988896 116522144 116086256 115740344 115528072 
1620.953 115472840 115582152 115847176 116242952 116721336 117215048 
1621.315 117643888 117929696 118027448 117939976 117725744 117474720 
1621.677 117284984 117222064 117296312 117465064 117654488 117792920 
1622.039 117823824 117710520 117411928 116849472 115904648 114431976 
1622.400 112313576 109533736 106231824 102720128 99403168 96728640 95039816 
1622.823 94478184 94948056 96125296 97532064 98576968 98697832 97394752 
1623.245 94276880 89147584 82036704 73276160 63477396 53579852 44713712 
1623.667 37961708 34274736 34182740 37705444 44335124 53185872 63178088 
1624.089 73207536 82441360 90341448 96702432 101589600 105232552 107920016 
1624.511 109905312 111402400 112563040 113490928 114268144 114951784 
1624.873 115576792 116155592 116679672 117129600 117488120 117751864 
1625.235 117934312 118061096 118156920 118237608 118303424 118343536 
1625.596 118344944 118304816 118236376 118169536 118138992 118173096 
1625.958 118282768 118457176 118667936 118880112 119067008 119214760 
1626.320 119324032 119401944 119452304 119468840 119436952 119341104 
1626.682 119177400 118959616 118717664 118481896 118268680 118066456 
1627.044 117838528 117531496 117093280 116483328 115653824 114520312 
1627.406 112930704 110627688 107297424 102648176 96524504 89045880 80689080 
1627.828 72309528 64926712 59618716 57230908 58137576 62188348 68718080 
1628.250 76774328 85246912 93197616 100006504 105385416 109369200 112185152 
1628.672 114137376 115481592 116406888 117032688 117433344 117681888 
1629.034 117858480 118038208 118279760 118602696 118988000 119389584 
1629.396 119759416 120065352 120298520 120469760 120597592 120696456 
1629.757 120770696 120817912 120835584 120826952 120802472 120775464 
1630.119 120755528 120745576 120741920 120739304 120736304 120737808 
1630.481 120752984 120789512 120847528 120917512 120983200 121030000 
1630.843 121050856 121050888 121044368 121048840 121075424 121123600 
1631.205 121180560 121227440 121246312 121226816 121169472 121082944 
1631.566 120979224 120867176 120750840 120630112 120504672 120378720 
1631.928 120262936 120172456 120123608 120126544 120181816 120278776 
1632.290 120399920 120524928 120636456 120724248 120783760 120813560 
1632.652 120811616 120772952 120691088 120562048 120389072 120185216 
1633.014 119971400 119771928 119604272 119473904 119371904 119280264 
1633.375 119178656 119053496 118902552 118732408 118551496 118361656 
1633.737 118152992 117905496 117596136 117205512 116725056 116155592 
1634.099 115501840 114764576 113934632 112988560 111888312 110567552 
1634.461 108917096 106777736 103911456 100036880 94891288 88301312 80303928 
1634.883 71213256 61665600 52469272 44500216 38477872 34723820 33089760 
1635.305 32946114 33407968 33483846 32421438 29911234 26146522 21767986 
1635.727 17671284 14842291 14043801 15730548 19978184 26523002 34833700 
1636.149 44226016 54031116 63604488 72440888 80221224 86785632 92141336 
1636.572 96409224 99779264 102437384 104534272 106171168 107394384 108214656 
1636.994 108608768 108514272 107800560 106260512 103649776 99730936 94405744 
1637.416 87818216 80454296 73088272 66678184 62220276 60427684 61615332 
1637.838 65584348 71715032 79066944 86626024 93579080 99359464 103757936 
1638.260 106855880 108929016 110313200 111310928 112158936 112991120 
1638.622 113867912 114796640 115751792 116687720 117549936 118291016 
1638.984 118877880 119305680 119598752 119803136 119969600 120135704 
1639.345 120315736 120498400 120657280 120764504 120805248 120780688 
1639.707 120703944 120587432 120430912 120211728 119887336 119398888 
1640.069 118691616 117735416 116544056 115188776 113799744 112561872 
1640.431 111664744 111275288 111489840 112300440 113589736 115152384 
1640.793 116761400 118199184 119323976 120090112 120535088 120747576 
1641.155 120823896 120841048 120835632 120815544 120778256 120727824 
1641.516 120682024 120665168 120692376 120759312 120839432 120895512 
1641.878 120889648 120795696 120597696 120278072 119810000 119156488 
1642.240 118286160 117202448 115971096 114734024 113674952 112994584 
1642.602 112840384 113256944 114172152 115415632 116778208 118052832 
1642.964 119102976 119873352 120378160 120669392 120805768 120832576 
1643.325 120776168 120658616 120508032 120358464 120243968 120180120 
1643.687 120154744 120129024 120056984 119908288 119684840 119422216 
1644.049 119174992 118992512 118893720 118861744 118851528 118814896 
1644.411 118716008 118544624 118310416 118028872 117706064 117333832 
1644.773 116895192 116377696 115781912 115119536 114399216 113608440 
1645.135 112698928 111593856 110192288 108389928 106092920 103196728 
1645.496 99575328 95070784 89486200 82651040 74493088 65135716 54942376 
1645.918 44549312 34821120 26640380 20850040 18059070 18524596 22150926 
1646.341 28503578 36931500 46600828 56680928 66433128 75239312 82718680 
1646.763 88701288 93202504 96342984 98254096 98976440 98416384 96360032 
1647.185 92583400 87007104 79844416 71678736 63407596 56184736 51080116 
1647.607 48891824 49959496 54062740 60457564 67999088 75461896 81616976 
1648.029 85498704 86570360 84736576 80395448 74338968 67722440 61780724 
1648.451 57645360 56182308 57748656 62178888 68809064 76723672 84889544 
1648.873 92422016 98779192 103740568 107394056 109992520 111847088 113204056 
1649.295 114212968 114950592 115451624 115753912 115916880 116007096 
1649.657 116083000 116174232 116279192 116379696 116461688 116529056 
1650.019 116604016 116712376 116865632 117049848 117229096 117359704 
1650.381 117407760 117364520 117245232 117078712 116888864 116685072 
1650.743 116458296 116190520 115865376 115479048 115040672 114565896 
1651.104 114064472 113531752 112944984 112270744 111471392 110512744 
1651.466 109369488 108017848 106427432 104554328 102326480 99643248 96382592 
1651.888 92394880 87532864 81674680 74751600 66791944 57953204 48555016 
1652.311 39033192 29944890 21890144 15378824 10802753 8325149 7856270 
1652.733 9047360 11358939 14162321 16784574 18677654 19465036 18985186 
1653.155 17311958 14728731 11688573 8701854 6326058 5069781 5312499 7307062 
1653.637 11120367 16638100 23559270 31450688 39788120 47971536 55438248 
1654.059 61653544 66140428 68545600 68628520 66329828 61812420 55532616 
1654.481 48240704 40885636 34606396 30452388 29205768 31259830 36495376 
1654.904 44327336 53805012 63915080 73693888 82427976 89762944 95633656 
1655.326 100201968 103720792 106462784 108640024 110393960 111824752 
1655.688 113001728 113983344 114818976 115536032 116137520 116604840 
1656.049 116914488 117054560 117039824 116911056 116730984 116565984 
1656.411 116471056 116486304 116628448 116891328 117243136 117630472 
1656.773 117980152 118211992 118266736 118122912 117816296 117430848 
1657.135 117086144 116894560 116923640 117181872 117617856 118148344 
1657.497 118687096 119181912 119621400 120026896 120427744 120840112 
1657.858 121253424 121637040 121953336 122177936 122309360 122366696 
1658.220 122377688 122365496 122343976 122318096 122292080 122275936 
1658.582 122283552 122325936 122400416 122487456 122554376 122571208 
1658.944 122527896 122442672 122357968 122321256 122367408 122499320 
1659.306 122687896 122882280 123035184 123117920 123129664 123091272 
1659.667 123032912 122979304 122941344 122919712 122911480 122917040 
1660.029 122941352 122989032 123058064 123136416 123206808 123254344 
1660.391 123274272 123273392 123263952 123252528 123232744 123185256 
1660.753 123087760 122927672 122705984 122430008 122094680 121661312 
1661.115 121056096 120187256 118983488 117445776 115679216 113897568 
1661.477 112357928 111317128 110940152 111249864 112123248 113330376 
1661.838 114612568 115723736 116503888 116877576 116835448 116400272 
1662.200 115586984 114367560 112655032 110282360 107007192 102561408 
1662.562 96681872 89228632 80286424 70277320 59965620 50375876 42713852 
1662.984 38011064 36956956 39715168 45886160 54579768 64617328 74885936 
1663.406 84427568 92647808 99333728 104549296 108525896 111531056 113814840 
1663.828 115556320 116884512 117905160 118703528 119353984 119910136 
1664.190 120396424 120816952 121168808 121457584 121705504 121944400 
1664.552 122199160 122474552 122749016 122984456 123142176 123203728 
1664.914 123177000 123092352 122985192 122884600 122804496 122746776 
1665.276 122711424 122704544 122737944 122821824 122952960 123109376 
1665.637 123253176 123348080 123374480 123340352 123276568 123223816 
1665.999 123211832 123245232 123304288 123357888 123383608 123378792 
1666.361 123362240 123360232 123390264 123446816 123502720 123521120 
1666.723 123477584 123371904 123230560 123090784 122984848 122922688 
1667.085 122890512 122860344 122808296 122727352 122627928 122527120 
1667.447 122433680 122338592 122218760 122048632 121812600 121505816 
1667.808 121113320 120575136 119767040 118481176 116474272 113553256 
1668.170 109653584 104928912 99761568 94753040 90547896 87714064 86596120 
1668.592 87197400 89171056 91868616 94532368 96354472 96659464 95011608 
1669.014 91198448 85259544 77439096 68186336 58089016 47866748 38377480 
1669.437 30461544 24923754 22401630 23214596 27330124 34323796 43496756 
1669.859 53916120 64635044 74863312 83992336 91706680 97935952 102791336 
1670.281 106476920 109228960 111273424 112785200 113906088 114739672 
1670.643 115349672 115771816 116014448 116068800 115914768 115519336 
1671.004 114819168 113680736 111889880 109145632 105103744 99513712 92333192 
1671.427 83875784 74808784 66173576 59167460 54826880 53883776 56496924 
1671.849 62250576 70211704 79233760 88190936 96159832 102632936 107463768 
1672.271 110801992 112939288 114217232 114938832 115330656 115583464 
1672.633 115849264 116242648 116837080 117637328 118579456 119544384 
1672.994 120408928 121080648 121527360 121776768 121891680 121933592 
1673.356 121933192 121889528 121784504 121609048 121380224 121139144 
1673.718 120930344 120778856 120672264 120565584 120401456 120142400 
1674.080 119784448 119356288 118894280 118417280 117905680 117306960 
1674.442 116548904 115566472 114308960 112714464 110680048 108023576 
1674.803 104463056 99687568 93419056 85531664 76138056 65635840 54669016 
1675.226 43966864 34295108 26272204 20296660 16585848 15192807 16085106 
1675.648 19187294 24393852 31527180 40276176 50205020 60721428 71157112 
1676.070 80920192 89526832 96716488 102456856 106896344 110281168 112864920 
1676.492 114867496 116428328 117630376 118531648 119186304 119663592 
1676.854 120039848 120374872 120702352 121020896 121306632 121530584 
1677.216 121679448 121762952 121809400 121848408 121895168 121941408 
1677.577 121960376 121920168 121803016 121618408 121405632 121222896 
1677.939 121124440 121148216 121300480 121558336 121877280 122209176 
1678.301 122514456 122766616 122954656 123076168 123131984 123123112 
1678.663 123051928 122925472 122756624 122564360 122367824 122179576 
1679.025 122003048 121832744 121660048 121478040 121281592 121056312 
1679.386 120755976 120289296 119503416 118201256 116206824 113419112 
1679.748 109901408 105906688 101896312 98426296 95993016 94910848 95152464 
1680.170 96330528 97742520 98625232 98331616 96568392 93511792 89795448 
1680.593 86343984 84048568 83606664 85266224 88807944 93612720 98899208 
1681.015 103942736 108208520 111483824 113819560 115440472 116598576 
1681.376 117500600 118255984 118888704 119386880 119743000 119971360 
1681.738 120099584 120143048 120088288 119894160 119518376 118946440 
1682.100 118213752 117396816 116592224 115877880 115281168 114776688 
1682.462 114299816 113777592 113134920 112291976 111135152 109463400 
1682.824 106991432 103371944 98260664 91466096 83053576 73452192 63397256 
1683.246 53919740 46137648 40965256 39003512 40309960 44391364 50211996 
1683.668 56456704 61786024 65032220 65552288 63294696 58835920 53159748 
1684.090 47496904 42990760 40364180 39837276 41043820 43206876 45275176 
1684.512 46270148 45508928 42701848 38017112 31987136 25403630 19075032 
1684.934 13769532 10106093 8475478 9089175 11965189 16960750 23772624 
1685.356 31977416 41083420 50531372 59812600 68507840 76313888 83090840 
1685.779 88830136 93626072 97617352 100957376 103778264 106173000 108212000 
1686.201 109947704 111425448 112694064 113798472 114773672 115640128 
1686.562 116400224 117045096 117565528 117963640 118259784 118491248 
1686.924 118698744 118917080 119160880 119422720 119679432 119906784 
1687.286 120092000 120237304 120352480 120438624 120470336 120394304 
1687.648 120137120 119633720 118860608 117849552 116678448 115424680 
1688.010 114115096 112673808 110922896 108612144 105537632 101650312 
1688.372 97161120 92537040 88464376 85703840 84835176 86148232 89507360 
1688.794 94412568 100072440 105647976 110478176 114154888 116616048 
1689.156 118061056 118841776 119291808 119647640 120010784 120369632 
1689.517 120663480 120835040 120850648 120668192 120189840 119237296 
1689.879 117540976 114830912 110948032 105957824 100213464 94346832 89195584 
1690.301 85544408 84006120 84838944 87889992 92628304 98285168 104089816 
1690.723 109351656 113642432 116817504 118963248 120309280 121125344 
1691.085 121655720 122054784 122401848 122720696 123009024 123262376 
1691.447 123483040 123676928 123847400 123990768 124098368 124161384 
1691.809 124176256 124145320 124073416 123962632 123810072 123610856 
1692.171 123365840 123090168 122817856 122593616 122465560 122465840 
1692.532 122598208 122834200 123121168 123399776 123617456 123747280 
1692.894 123789504 123766728 123709328 123644168 123584864 123529888 
1693.256 123468056 123386888 123280328 123151000 123008312 122862224 
1693.618 122718048 122572792 122416632 122236904 122025080 121780328 
1693.980 121510392 121227056 120941368 120656920 120367448 120057160 
1694.342 119705824 119295200 118811232 118246600 117598152 116863016 
1694.703 116035928 115106696 114055856 112850448 111426832 109671136 
1695.065 107418280 104430144 100432384 95181608 88516448 80454304 71226608 
1695.487 61303848 51283616 41794900 33381196 26344056 20738334 16399624 
1695.909 13080136 10569793 8832057 8035112 8524896 10685191 14782541 
1696.332 20863366 28693166 37800928 47546216 57312588 66568068 74936688 
1696.754 82235144 88416688 93537136 97701304 101039056 103666792 105655536 
1697.176 107007760 107638800 107396992 106111376 103698040 100251712 
1697.538 96127760 91887024 88254544 85940424 85417576 86843312 89981936 
1697.960 94312456 99121344 103738536 107684272 110706040 112798616 114112232 
1698.382 114862400 115228584 115329960 115219456 114906008 114384544 
1698.744 113651896 112710968 111570576 110247104 108768808 107180808 
1699.105 105529688 103836376 102055072 100051120 97589912 94366752 90102912 
1699.528 84595296 77798936 69843608 61034428 51792556 42573336 33865672 
1699.950 26106934 19663984 14827410 11740254 10369475 10460644 11581256 
1700.372 13142519 14522231 15242670 15029619 13907087 12153786 10247028 
1700.794 8705766 7968229 8351999 9999064 12922866 17057740 22312324 28585136 
1701.276 35758852 43691496 52176432 60942316 69687832 78075480 85798320 
1701.698 92620328 98382272 103036064 106635784 109328912 111310472 112796240 
1702.121 113981840 114995448 115900024 116693488 117336768 117780304 
1702.482 117990264 117957896 117695800 117231016 116602360 115872344 
1702.844 115130440 114501000 114130896 114139864 114586712 115427208 
1703.206 116522448 117660216 118630208 119297880 119629728 119696304 
1703.568 119617384 119505752 119406344 119289000 119071064 118668512 
1703.930 118016672 117059176 115706224 113761912 110903704 106758520 
1704.292 100991328 93511336 84600352 75013792 65841240 58308848 53566252 
1704.714 52309464 54684440 60229240 68072016 77073568 86114048 94360944 
1705.136 101271952 106664120 110621128 113391160 115266912 116507400 
1705.498 117316200 117810888 118047568 118038016 117764000 117178816 
1705.859 116194416 114674336 112402608 109102792 104502056 98391960 90765496 
1706.281 81902272 72457344 63358096 55693596 50547296 48665232 50351052 
1706.704 55345680 62932276 72021296 81409824 90075056 97218840 102436272 
1707.126 105692032 107255360 107587712 107234704 106761616 106612712 
1707.488 107088384 108300240 110174352 112483272 114916504 117187624 
1707.849 119073944 120479888 121429224 122029360 122411376 122681128 
1708.211 122901448 123087464 123231696 123328024 123385216 123425912 
1708.573 123474504 123543168 123628472 123716072 123792656 123854112 
1708.935 123908128 123968048 124045136 124141848 124251936 124363664 
1709.297 124464568 124540704 124574200 124544000 124427472 124210272 
1709.658 123892848 123485592 122987024 122352888 121460072 120115328 
1710.020 118096000 115224192 111482000 107085632 102520768 98416984 95467392 
1710.442 94218824 94901000 97383832 101197904 105705640 110209952 114179456 
1710.865 117327592 119605168 121146072 122164784 122871120 123399664 
1711.226 123818480 124148080 124393896 124569568 124698664 124802600 
1711.588 124890824 124956520 124985744 124969816 124915024 124841312 
1711.950 124773184 124725064 124695032 124666136 124618120 124537208 
1712.312 124423784 124288992 124145688 123995808 123823712 123594464 
1712.674 123264328 122792776 122154768 121354640 120433376 119473400 
1713.035 118581136 117879792 117476504 117427480 117722400 118276480 
1713.397 118957632 119605440 120077184 120258520 120036624 119278672 
1713.759 117792184 115322800 111641032 106635272 100458776 93575840 86802424 
1714.181 81139720 77488688 76493880 78280104 82441552 88103016 94223144 
1714.603 99820936 104135592 106767320 107562640 106490696 103523600 98597504 
1715.025 91700840 83019656 73122400 62989008 53854304 47087880 43746928 
1715.448 44346188 48722836 56105420 65296620 74951840 83988960 91660296 
1715.870 97668360 102089904 105233976 107481336 109151136 110479176 
1716.231 111586368 112513208 113254136 113779728 114049736 114019464 
1716.593 113650768 112913904 111787984 110251744 108257472 105706928 
1716.955 102447008 98259392 92914600 86235472 78159000 68808424 58527196 
1717.377 47909516 37689024 28716588 21843020 17725912 16795124 19129524 
1717.799 24458286 32167530 41425452 51349348 61044696 69795400 77079928 
1718.221 82529064 85920560 87100784 85965528 82490616 76797728 69248216 
1718.644 60449516 51325020 42977740 36479332 32795102 32508332 35740836 
1719.066 42128588 50933932 61176000 71783288 81870848 90770728 98121984 
1719.488 103865096 108159792 111296904 113583728 115309360 116680336 
1719.850 117819312 118793632 119630864 120344976 120949296 121456736 
1720.211 121877464 122215424 122469808 122642048 122743856 122799304 
1720.573 122844168 122913104 123026504 123183352 123361072 123526384 
1720.935 123648800 123716280 123737768 123736656 123733632 123732752 
1721.297 123712608 123635000 123458216 123161592 122759656 122306912 
1721.659 121882304 121565640 121419952 121469840 121702408 122074576 
1722.021 122532776 123022312 123496792 123923000 124274696 124533808 
1722.382 124692008 124752952 124733864 124660752 124562616 124459736 
1722.744 124359712 124259952 124154832 124041576 123915536 123754464 
1723.106 123487856 122974256 122017424 120381576 117883680 114481920 
1723.468 110353480 105908032 101732032 98510960 96801912 96928272 98871272 
1723.890 102289304 106582384 111054584 115128736 118400872 120732728 
1724.252 122206112 123043592 123493344 123748352 123924872 124057944 
1724.614 124144776 124183152 124191360 124207344 124269568 124394712 
1724.975 124569904 124758072 124918392 125020472 125057344 125041336 
1725.337 124993912 124932064 124863208 124788544 124710728 124641720 
1725.699 124603656 124619448 124703560 124851192 125038632 125228136 
1726.061 125382560 125477568 125504416 125468704 125381848 125254320 
1726.423 125091752 124898576 124684160 124465520 124268024 124118080 
1726.784 124032856 124016048 124056304 124134664 124230976 124331992 
1727.146 124431568 124525616 124606784 124661360 124671792 124626408 
1727.508 124527120 124394128 124258944 124155968 124106848 124112272 
1727.870 124152728 124198896 124226128 124223112 124195512 124158784 
1728.232 124127856 124107464 124091672 124069952 124037752 124002768 
1728.594 123983424 123997368 124049776 124123440 124182920 124184264 
1728.955 124097112 123917544 123671192 123398840 123136624 122892968 
1729.317 122636680 122294096 121758816 120915104 119632608 117778408 
1729.679 115225136 111847128 107559712 102358488 96374416 89894536 83371896 
1730.101 77404472 72586296 69454096 68366544 69417152 72438528 77034408 
1730.523 82699616 88858992 95002440 100744864 105813736 110076344 113502312 
1730.945 116136176 118066056 119407400 120287464 120820768 121113624 
1731.307 121253376 121304200 121318968 121337064 121382888 121460752 
1731.669 121542784 121562832 121413024 120973632 120138976 118859440 
1732.031 117174760 115229856 113261472 111531856 110297464 109726120 
1732.393 109854704 110578960 111678880 112878360 113886576 114483736 
1732.754 114535768 113986672 112823752 111012208 108435744 104889280 
1733.116 100081728 93731232 85692400 76069552 65308708 54173072 43741828 
1733.538 35140516 29363594 27104214 28547952 33361170 40718144 49545244 
1733.960 58595072 66684348 72902416 76576656 77368392 75238144 70408656 
1734.383 63315280 54558340 44910952 35180664 26199680 18762976 13485675 
1734.805 10820788 10997115 14011687 19643226 27476682 36974188 47459684 
1735.227 58239700 68677936 78218296 86506576 93390544 98914328 103260488 
1735.649 106687008 109450072 111732232 113647040 115242112 116534368 
1736.011 117547952 118330240 118946352 119466880 119940368 120385520 
1736.373 120795568 121154288 121452664 121698624 121912248 122114552 
1736.734 122312816 122496048 122640208 122723808 122741912 122710792 
1737.096 122658680 122606232 122545512 122429304 122173384 121674792 
1737.458 120852984 119675280 118187376 116510928 114845240 113426536 
1737.820 112471704 112153776 112542344 113589896 115128896 116920432 
1738.182 118700360 120232632 121379024 122104624 122473184 122598200 
1738.543 122603728 122576040 122545080 122497464 122399728 122223872 
1738.905 121954136 121579496 121073000 120373632 119395912 118045336 
1739.267 116247120 113966064 111187512 107875888 103932264 99156168 93286448 
1739.689 86105376 77562088 67915520 57786136 48178796 40224652 35016708 
1740.111 33362534 35541120 41274800 49765536 59966016 70693448 80926520 
1740.533 89981872 97487104 103398688 107884808 111231864 113727616 115618528 
1740.956 117095992 118281992 119259552 120084136 120790336 121402064 
1741.317 121933528 122392360 122784888 123119032 123405648 123658312 
1741.679 123888216 124099992 124288920 124442352 124544216 124583104 
1742.041 124559520 124488400 124395160 124303888 124228888 124166152 
1742.403 124096344 123990248 123818448 123548240 123121760 122436264 
1742.765 121316760 119515000 116784552 112950400 108036664 102326880 
1743.126 96405680 91042072 86961120 84697560 84357608 85593664 87664184 
1743.549 89730168 91105816 91486208 91053256 90391656 90271056 91307136 
1743.971 93806984 97636792 102328224 107205344 111636256 115190936 117654056 
1744.393 119016616 119377888 118882840 117686504 115993640 114102536 
1744.755 112374280 111215728 110955032 111723728 113414144 115698536 
1745.116 118159688 120389120 122139776 123350840 124099808 124499632 
1745.478 124603672 124355992 123629256 122302504 120368208 117979144 
1745.840 115454248 113188464 111521800 110677840 110687952 111417960 
1746.202 112613928 114002832 115349664 116494256 117378048 118022488 
1746.564 118502392 118893336 119223384 119413192 119262152 118442072 
1746.926 116597960 113483120 109087328 103740032 98099424 93079176 89538688 
1747.348 88103040 88945944 91741456 95734312 99968936 103624880 106144512 
1747.770 107403688 107649392 107382232 107133080 107301952 108082256 
1748.132 109420824 111064672 112607824 113597496 113544672 112000208 
1748.493 108660056 103424568 96514872 88482168 80249144 72919712 67557648 
1748.916 65029872 65704212 69376432 75248648 82180032 88856760 94112456 
1749.338 97261936 98163488 97268632 95405600 93621352 92825352 93562000 
1749.760 95947008 99668944 104152032 108718672 112836640 116179816 118654080 
1750.182 120334536 121373640 121923272 122093232 121971928 121632384 
1750.544 121123384 120428248 119405680 117765304 115077584 110931024 
1750.906 105070448 97557136 88801872 79524368 70556656 62548352 55861780 
1751.328 50479196 46142060 42555192 39643168 37665096 37208160 38938636 
1751.750 43346828 50498444 59941112 70755760 81774416 91970136 100581768 
1752.172 107297528 112207896 115667264 118101088 119848576 121126720 
1752.534 122013128 122514552 122631296 122394664 121878328 121189896 
1752.896 120444672 119769376 119290600 119121040 119344696 119984256 
1753.257 120983304 122199112 123442496 124530952 125331904 125809784 
1753.619 126017872 126068440 126072064 126105624 126190312 126304928 
1753.981 126414168 126498312 126564168 126637272 126740848 126878864 
1754.343 127032240 127171528 127274304 127337872 127378352 127417824 
1754.705 127467136 127517368 127544488 127526552 127461192 127372296 
1755.066 127300512 127281656 127329464 127425896 127531608 127604352 
1755.428 127623032 127594096 127544920 127502320 127476480 127451712 
1755.790 127396736 127278064 127077472 126795320 126441864 126023272 
1756.152 125532112 124945336 124230048 123338000 122180520 120607216 
1756.514 118360192 115079024 110398024 104035200 95984848 86624152 76810552 
1756.936 67738192 60683784 56812820 56773748 60578348 67562184 76631720 
1757.358 86467296 95841160 103938024 110350520 115091352 118426768 120734392 
1757.780 122346592 123484256 124284640 124825160 125172536 125404472 
1758.142 125588104 125756208 125881256 125882200 125645040 125071296 
1758.504 124124552 122852800 121391992 119931848 118698696 117891704 
1758.865 117647352 118018008 118953704 120311568 121875488 123422464 
1759.227 124751480 125735208 126345056 126638720 126729144 126730816 
1759.589 126731960 126765736 126819800 126860104 126861352 126823000 
1759.951 126768808 126728064 126717360 126727736 126731592 126697896 
1760.313 126613704 126492712 126369168 126275824 126221344 126178320 
1760.675 126090872 125895864 125545248 125026424 124359776 123585472 
1761.036 122740208 121847888 120916288 119942872 118914144 117787736 
1761.398 116462296 114720832 112228040 108565464 103292400 96131008 87098528 
1761.820 76647824 65621420 55228028 46821192 41528020 40128580 42803356 
1762.242 49139916 58188872 68730480 79558680 89603008 98190240 105034000 
1762.665 110183208 113901680 116550888 118483400 119954120 121137184 
1763.026 122127240 122967680 123682912 124287768 124791256 125196512 
1763.388 125502040 125708240 125826776 125884016 125919880 125977592 
1763.750 126085856 126250288 126448896 126643648 126792344 126868400 
1764.112 126870336 126821216 126757576 126714104 126713568 126759328 
1764.474 126839640 126935312 127030176 127114496 127185592 127244168 
1764.835 127290576 127323376 127341112 127344664 127338448 127328024 
1765.197 127316168 127299016 127266248 127205680 127112272 126994984 
1765.559 126879712 126800888 126793328 126877048 127049144 127283008 
1765.921 127537512 127771776 127953488 128068848 128119936 128118656 
1766.283 128078088 128008296 127916232 127808056 127693432 127585640 
1766.645 127496872 127433280 127388736 127345104 127274800 127151800 
1767.006 126960744 126702624 126395312 126068432 125756008 125484848 
1767.368 125271768 125119944 125018984 124939920 124825144 124577192 
1767.730 124022080 122903184 120890704 117581120 112608680 105734920 
1768.092 96974304 86680784 75611688 64898488 55778604 49503760 47007928 
1768.514 48672224 54264192 62955516 73565848 84705240 95179360 104157696 
1768.936 111223928 116385992 119927712 122263168 123764208 124727064 
1769.298 125345536 125733576 125981032 126165096 126344680 126549160 
1769.660 126763560 126940448 127024488 126988968 126850384 126662304 
1770.021 126480192 126331128 126191528 126000728 125688112 125216608 
1770.383 124603592 123916720 123238280 122623072 122073968 121537936 
1770.745 120926024 120128880 119033040 117489264 115276536 112115000 
1771.107 107672968 101687040 94108752 85240880 75798368 66798640 59484464 
1771.529 54941128 53860756 56379468 62031188 69861392 78631336 87207832 
1771.951 94665040 100458632 104434424 106699184 107483512 106987416 
1772.313 105307576 102396968 98109248 92267864 84782168 75740480 65507612 
1772.735 54705364 44236768 35179252 28530154 25135708 25450466 29449838 
1773.157 36624860 46101664 56856164 67818216 78150032 87299032 94998560 
1773.579 101242448 106184056 110054792 113076336 115450208 117334928 
1773.941 118841712 120056600 121038456 121826688 122454608 122953576 
1774.303 123358680 123709472 124037816 124360656 124673608 124956056 
1774.665 125181936 125335568 125420872 125460416 125484152 125514120 
1775.027 125556376 125596808 125602872 125515736 125244080 124642048 
1775.388 123491672 121546648 118570672 114445960 109271488 103444216 
1775.750 97647416 92689880 89414472 88413608 89878408 93542760 98763608 
1776.172 104692992 110455152 115423816 119267368 121970120 123731248 
1776.534 124849584 125598528 126149008 126586696 126934080 127197488 
1776.896 127395760 127559512 127715088 127869488 128007672 128106264 
1777.258 128153904 128163176 128167280 128200696 128276688 128378312 
1777.620 128466312 128504208 128479576 128416680 128364344 128372920 
1777.981 128461888 128607384 128746792 128810456 128746408 128543760 
1778.343 128231432 127863608 127494456 127158736 126872384 126636856 
1778.705 126447672 126292256 126139448 125925640 125548504 124900008 
1779.067 123902880 122567456 121015536 119485072 118271208 117622776 
1779.429 117687080 118442904 119722184 121252264 122763640 124061096 
1779.791 125051024 125741936 126195752 126478728 126624616 126634480 
1780.152 126488496 126159696 125600112 124710072 123314504 121135664 
1780.514 117864512 113267088 107311112 100279272 92805208 85837744 80364624 
1780.936 77270824 77083056 79825256 85022504 91816400 99242344 106345320 
1781.358 112444848 117209536 120615112 122868992 124277744 125149296 
1781.720 125692168 126017128 126155128 126101488 125863024 125486640 
1782.082 125055920 124683336 124473680 124494768 124766912 125257768 
1782.444 125899064 126603424 127295104 127919376 128447352 128872832 
1782.806 129200536 129437552 129588592 129657848 129652232 129583304 
1783.167 129467776 129322440 129160528 128991776 128823344 128663520 
1783.529 128522216 128405344 128306952 128202104 128052208 127814296 
1783.891 127464992 127017736 126529944 126086280 125766344 125619608 
1784.253 125642768 125789128 125991336 126194512 126356344 126415064 
1784.615 126243016 125575464 124003872 121079576 116414688 109912344 
1784.977 101900712 93234016 85125712 78893120 75705872 76163592 80184048 
1785.399 86977864 95357128 103953840 111599896 117621704 121821888 124436816 
1785.821 125906712 126715552 127207288 127550200 127790440 127920440 
1786.183 127950728 127936424 127950888 128050528 128240624 128477728 
1786.544 128694528 128841448 128912104 128940064 128972312 129035848 
1786.906 129120528 129185312 129185136 129100224 128952312 128796168 
1787.268 128692512 128673392 128729800 128816744 128883480 128897168 
1787.630 128862136 128810552 128781664 128792952 128829480 128850616 
1787.992 128816728 128711296 128552264 128378760 128228816 128112400 
1788.354 128004328 127855440 127623824 127303384 126935368 126594296 
1788.715 126355144 126265704 126324320 126488536 126698104 126909344 
1789.077 127107800 127306424 127523568 127761032 127991880 128172200 
1789.439 128259240 128237144 128121840 127948592 127743072 127500368 
1789.801 127181320 126738736 126151864 125460328 124760832 124187000 
1790.163 123852760 123800208 123983544 124283984 124562384 124688632 
1790.524 124568928 124114736 123175608 121512720 118791008 114655688 
1790.886 108905096 101633320 93364192 84971592 77636392 72525736 70465272 
1791.308 71797944 76235184 82982080 90877912 98786824 105795104 111347552 
1791.730 115315168 117873152 119361704 120105688 120351408 120213512 
1792.092 119697040 118738200 117231376 115036984 111951112 107722752 
1792.454 102081928 94810040 85870120 75511672 64359636 53313428 43525256 
1792.876 36163164 32117394 31913908 35537712 42486900 51832208 62479016 
1793.298 73372632 83597976 92577192 100031888 105945624 110474808 113869152 
1793.720 116399528 118295440 119756192 120930680 121916488 122775336 
1794.082 123530576 124180096 124711064 125115920 125403000 125599912 
1794.444 125743712 125871960 126011112 126170384 126344832 126519080 
1794.806 126671960 126773168 126783384 126658144 126355648 125860968 
1795.168 125205272 124480640 123817880 123358832 123202616 123354040 
1795.530 123701336 124027368 124080848 123619184 122495816 120695400 
1795.891 118334216 115622008 112807720 110152224 107871744 106145584 
1796.253 105119936 104894440 105523488 106988392 109185600 111908016 
1796.615 114870712 117772296 120317152 122297064 123619032 124306104 
1796.977 124478352 124316032 124026544 123786656 123732672 123938696 
1797.339 124409960 125091608 125884656 126679880 127374448 127904864 
1797.700 128255704 128452352 128540424 128561680 128538608 128470336 
1798.062 128346256 128165728 127950336 127745456 127603224 127556552 
1798.424 127604904 127710192 127815904 127867664 127838904 127735016 
1798.786 127582920 127408200 127219136 127002384 126734960 126395408 
1799.148 125963240 125398048 124588896 123316000 121265152 118046248 
1799.510 113341616 107048208 99414312 91071232 82983568 76323104 72103968 
1799.932 71027064 73261696 78424888 85648648 93810736 101867488 108954496 
1800.354 114602776 118727168 121528656 123345520 124515840 125307224 
1800.716 125867544 126271784 126566136 126790984 126974136 127080816 
1801.077 126974832 126385536 124968752 122432624 118658944 113843712 
1801.439 108517936 103523176 99743776 97918872 98421472 101130944 105468376 
1801.861 110557264 115545720 119736512 122775752 124631608 125453688 
1802.223 125394472 124474992 122558992 119460272 115113328 109755056 
1802.585 103956568 98594144 94647616 92863168 93613800 96740568 101653040 
1803.007 107445656 113199952 118220112 122095632 124765760 126410672 
1803.369 127337248 127832336 128113056 128306808 128465048 128607632 
1803.731 128745120 128886264 129034080 129179448 129304288 129390304 
1804.093 129432728 129444912 129454280 129486312 129552328 129642344 
1804.454 129731712 129792280 129806888 129775960 129713008 129632784 
1804.816 129538440 129415016 129233192 128961560 128578856 128087280 
1805.178 127515856 126920096 126367000 125929152 125671256 125633808 
1805.540 125828744 126230936 126784328 127405320 128005560 128514112 
1805.902 128887280 129121104 129243088 129299520 129332808 129370824 
1806.263 129421224 129476128 129521944 129548664 129554336 129542912 
1806.625 129519704 129487616 129447200 129398760 129344832 129290400 
1806.987 129239544 129192464 129144656 129090096 129024496 128944080 
1807.349 128836976 128663816 128342024 127752120 126747656 125217064 
1807.711 123142208 120652920 118027392 115655392 113967320 113282496 
1808.073 113744352 115259000 117540552 120166408 122705816 124844824 
1808.434 126408008 127385872 127879696 128046712 128031232 127937752 
1808.796 127833656 127755136 127727096 127768024 127883920 128060960 
1809.158 128263072 128445256 128566264 128608856 128584432 128526808 
1809.520 128473304 128447720 128453032 128473728 128487120 128474280 
1809.882 128427056 128344528 128226440 128066752 127847328 127531416 
1810.243 127055824 126303216 125094088 123195936 120340632 116330272 
1810.605 111131888 104990056 98433224 92265088 87422792 84687080 84557848 
1811.027 87057408 91751120 97814904 104293200 110362016 115429232 119274560 
1811.449 121976032 123798104 125029064 125898040 126536504 126992104 
1811.811 127285728 127444032 127497600 127453784 127260416 126805560 
1812.173 125941696 124567336 122696312 120507088 118309296 116483384 
1812.535 115384400 115215320 115995120 117548968 119590448 121776296 
1812.897 123808600 125497944 126756808 127597848 128092512 128342720 
1813.259 128444704 128477544 128499376 128540472 128609768 128699128 
1813.620 128793248 128878320 128950728 129018696 129098216 129203136 
1813.982 129336336 129486152 129630624 129746648 129818384 129843992 
1814.344 129833648 129804128 129770368 129743296 129729288 129732544 
1814.706 129756944 129803656 129866800 129929216 129965240 129949616 
1815.068 129868176 129728640 129561056 129409136 129309224 129277280 
1815.429 129299776 129342928 129366408 129345112 129279896 129195464 
1815.791 129125272 129093024 129102128 129135128 129165776 129173624 
1816.153 129155880 129126104 129104184 129102240 129118296 129138776 
1816.515 129150552 129151528 129155184 129182320 129248736 129352392 
1816.877 129473336 129582920 129660832 129699744 129693800 129614288 
1817.239 129377400 128834632 127814328 126168448 123869304 121063040 
1817.600 118102640 115466960 113639152 113001448 113686112 115553312 
1817.962 118216880 121197480 124017312 126329976 127991616 129026512 
1818.324 129574712 129800440 129849320 129809304 129721936 129611616 
1818.686 129502312 129424104 129404432 129451712 129549968 129664480 
1819.048 129761712 129822496 129850544 129863928 129881032 129904992 
1819.409 129921320 129905376 129840032 129727544 129592640 129469840 
1819.771 129388904 129360864 129375512 129409744 129442432 129466200 
1820.133 129487680 129519456 129567296 129623400 129669056 129686664 
1820.495 129671800 129639216 129616760 129630664 129687912 129769848 
1820.857 129837648 129853144 129794296 129668848 129507984 129353784 
1821.219 129236688 129163872 129120344 129081696 129030248 128965000 
1821.580 128900856 128858408 128850488 128874464 128914040 128949152 
1821.942 128967200 128966160 128951696 128928664 128895520 128845560 
1822.304 128774184 128685776 128591032 128493672 128368776 128154832 
1822.666 127755328 127074568 126070768 124797160 123420760 122179392 
1823.028 121340112 121092720 121491648 122435728 123710840 125058024 
1823.389 126249384 127163880 127784624 128175160 128419896 128586328 
1823.751 128699960 128755576 128744408 128677312 128587248 128516216 
1824.113 128487584 128491984 128489168 128432752 128292792 128072616 
1824.475 127801816 127516616 127231816 126925984 126536096 125965368 
1824.837 125089048 123725032 121631352 118501424 113981880 107803456 
1825.198 99900192 90570856 80500624 70786688 62746668 57545544 56038880 
1825.621 58464508 64419600 72918624 82699168 92534152 101393144 108697096 
1826.043 114272920 118269576 120995480 122805048 124006216 124809912 
1826.405 125368032 125781920 126116144 126411136 126677944 126906096 
1826.766 127078536 127191144 127263504 127336824 127451976 127630480 
1827.128 127859496 128099040 128298024 128420608 128461448 128442744 
1827.490 128397840 128350576 128306592 128256328 128190888 128116976 
1827.852 128059376 128050464 128109992 128228928 128367960 128472736 
1828.214 128501360 128437472 128294544 128098392 127868000 127600464 
1828.575 127275656 126870640 126374176 125779232 125049008 124083120 
1828.937 122683880 120577856 117519480 113386768 108317472 102731544 
1829.299 97337464 92939824 90220544 89602176 91085008 94273776 98448648 
1829.721 102802736 106533144 108948680 109562272 108028728 104181672 
1830.083 98069064 90037384 80789784 71331352 62968644 56969248 54311380 
1830.505 55485116 60321064 68051376 77469920 87344176 96572800 104433096 
1830.927 110659896 115330600 118736200 121201840 123014488 124356448 
1831.289 125330648 126012400 126471528 126785128 127025784 127236728 
1831.651 127429664 127593816 127718512 127811400 127902640 128028584 
1832.013 128212856 128446792 128691496 128891624 129005896 129025832 
1832.375 128981120 128922560 128900392 128941352 129040232 129169648 
1832.736 129300368 129420408 129537928 129668480 129810480 129920952 
1833.098 129912864 129674720 129103032 128157376 126889936 125459912 
1833.460 124087984 123023592 122471592 122529096 123171400 124254264 
1833.822 125569688 126881392 128001672 128824872 129330176 129569160 
1834.184 129630864 129609488 129570008 129545176 129538104 129536936 
1834.545 129528440 129506944 129474808 129437560 129398336 129355504 
1834.907 129304400 129241752 129169000 129093016 129022760 128965768 
1835.269 128925480 128901384 128891976 128897560 128920832 128964288 
1835.631 129025424 129093888 129150408 129173464 129146864 129066656 
1835.993 128944424 128804848 128679320 128594176 128566744 128600848 
1836.354 128688728 128813840 128955976 129096200 129217552 129307888 
1836.716 129357784 129352760 129264376 129036440 128572944 127754936 
1837.078 126455632 124589472 122165248 119328848 116373928 113678152 
1837.440 111667968 110681904 110882968 112220224 114439520 117157776 
1837.802 119943880 122461832 124506232 126025632 127086536 127815512 
1838.164 128336856 128729664 129032048 129252056 129392408 129466152 
1838.525 129495608 129501512 129492704 129462584 129397832 129292472 
1838.887 129157544 129021600 128918552 128869240 128872432 128904096 
1839.249 128932320 128932152 128900720 128856728 128830584 128845672 
1839.611 128907368 129001312 129104632 129199016 129281760 129364504 
1839.973 129463472 129584200 129713640 129821216 129873360 129850568 
1840.334 129756864 129619032 129473752 129352256 129265448 129204000 
1840.696 129146936 129077520 128992320 128904120 128832880 128796616 
1841.058 128801976 128844440 128913816 129001760 129104064 129215824 
1841.420 129325360 129409960 129440296 129395792 129275992 129105400 
1841.782 128917040 128726488 128498096 128137016 127494472 126427832 
1842.144 124866336 122869024 120641664 118509400 116854184 115977952 
1842.505 116042624 117008856 118665000 120672016 122669088 124380256 
1842.867 125637104 126410056 126768096 126831976 126712560 126478912 
1843.229 126149776 125702656 125098184 124305960 123324712 122188264 
1843.591 120957448 119691152 118415080 117074544 115509208 113417400 
1843.953 110401360 106031152 99916088 91857888 81949472 70649024 58726388 
1844.375 47253632 37440268 30349316 26835380 27316230 31720268 39493192 
1844.797 49725876 61346852 73209288 84372752 94156736 102171672 108332328 
1845.219 112769928 115758072 117604736 118629608 119114464 119279024 
1845.581 119309040 119339488 119456560 119706584 120093520 120592064 
1845.943 121161264 121764200 122376272 122988712 123603856 124225616 
1846.304 124851488 125470344 126063592 126611176 127096832 127508024 
1846.666 127836920 128078960 128233088 128303768 128302424 128247512 
1847.028 128158592 128053520 127944440 127838128 127739760 127651960 
1847.390 127566112 127440040 127176712 126616336 125534624 123715040 
1847.752 121018616 117475488 113330896 109060600 105301016 102654904 
1848.114 101601592 102328304 104693784 108254344 112403840 116551304 
1848.475 120202576 123090664 125155712 126489008 127244368 127577552 
1848.837 127614184 127443568 127154392 126849224 126633416 126602336 
1849.199 126800288 127204008 127725512 128249120 128674936 128948176 
1849.561 129076232 129111112 129119952 129148600 129210216 129287080 
1849.923 129351856 129386088 129393336 129393712 129411384 129457464 
1850.284 129523976 129588368 129628584 129635632 129619456 129602296 
1850.646 129607304 129645224 129709152 129778288 129829104 129847224 
1851.008 129830872 129789072 129733088 129670144 129600576 129522264 
1851.370 129437784 129358520 129303992 129294672 129340944 129437848 
1851.732 129564592 129694608 129803192 129877824 129919072 129935016 
1852.094 129932224 129909256 129855928 129760120 129616296 129433296 
1852.455 129233424 129048112 128906816 128825840 128805816 128832464 
1852.817 128885192 128942872 128991376 129024776 129043000 129049512 
1853.179 129049072 129047672 129052040 129069632 129106432 129163960 
1853.541 129237432 129316496 129389576 129447496 129488288 129516952 
1853.903 129542904 129574176 129613704 129658680 129703968 129746936 
1854.264 129791568 129847536 129926256 130033000 130161536 130292208 
1854.626 130397424 130452136 130441008 130365888 130244224 130104256 
1854.988 129973128 129870360 129803384 129768056 129753248 129746688 
1855.350 129740264 129731320 129722824 129720920 129733088 129765120 
1855.712 129819272 129892616 129976632 130057792 130119160 130146104 
1856.073 130129072 130067256 129968384 129846808 129718600 129596376 
1856.435 129488544 129399280 129331504 129290640 129284960 129323768 
1856.797 129413072 129550584 129723400 129909056 130083144 130223808 
1857.159 130318936 130368096 130380552 130370256 130349840 130328664 
1857.521 130311144 130298736 130292128 130292032 130298408 130308664 
1857.883 130317328 130316360 130298272 130259368 130199768 130120136 
1858.244 130015432 129866832 129640080 129292024 128781328 128091608 
1858.606 127247488 126326800 125444272 124737728 124333232 124303624 
1858.968 124655224 125319120 126178176 127085816 127912344 128573600 
1859.330 129034272 129307312 129432232 129455680 129410904 129315064 
1859.692 129173592 128990096 128776856 128559040 128368880 128241464 
1860.053 128203104 128265304 128424384 128663408 128957056 129273680 
1860.415 129582112 129852816 130061016 130192024 130241488 130215680 
1860.777 130126808 129989176 129814600 129611824 129391896 129172352 
1861.139 128978136 128838240 128770008 128765088 128778192 128737528 
1861.501 128561248 128192360 127631304 126950944 126286904 125790128 
1861.863 125594360 125759784 126257728 126977632 127772216 128504592 
1862.224 129080664 129474304 129711760 129846136 129922752 129965640 
1862.586 129975048 129942056 129865608 129762640 129662888 129598296 
1862.948 129585392 129618912 129675048 129726096 129753160 129753952 
1863.310 129740120 129728096 129728248 129740080 129755384 129766208 
1863.672 129771384 129776432 129786888 129799888 129799240 129761512 
1864.033 129667816 129517624 129334824 129163592 129052528 129032080 
1864.395 129104744 129242712 129403656 129544576 129639816 129684616 
1864.757 129687904 129660856 129608824 129531912 129432112 129322184 
1865.119 129228104 129178408 129191896 129262768 129360768 129439384 
1865.481 129458600 129403480 129288872 129150072 129022224 128924192 
1865.843 128850168 128777744 128680312 128536336 128317872 127966920 
1866.204 127382680 126410344 124885296 122707872 119913136 116725544 
1866.566 113533032 110848160 109134056 108694168 109586096 111609872 
1866.928 114366920 117371472 120214216 122599792 124398816 125618344 
1867.290 126345664 126692016 126750208 126581072 126190560 125516776 
1867.652 124407704 122644984 119976568 116208016 111323736 105579912 
1868.013 99544536 93965752 89697912 87434864 87519872 89884024 94057576 
1868.436 99328936 104872872 110009296 114270856 117432728 119491760 
1868.797 120583256 120908864 120654184 119956024 118840200 117193136 
1869.159 114736968 111091472 105900224 98979376 90510496 81132280 71966288 
1869.581 64310576 59441852 58258952 60996968 67191792 75778616 85472472 
1870.003 94953000 103250920 109884376 114796368 118249072 120628528 
1870.365 122316752 123570264 124531096 125254072 125743392 125982872 
1870.727 125946360 125608024 124958136 124034608 122942400 121870520 
1871.089 121046064 120671608 120869360 121624440 122791784 124135352 
1871.451 125426400 126492528 127264112 127766744 128080736 128289472 
1871.812 128441808 128551944 128613816 128627488 128614136 128609448 
1872.174 128644568 128726480 128831576 128917096 128945600 128908832 
1872.536 128833344 128768504 128757728 128819448 128935336 129063736 
1872.898 129159368 129199888 129193952 129174936 129178800 129226344 
1873.260 129313400 129417536 129511992 129582032 129630496 129671352 
1873.622 129715560 129759904 129785424 129768456 129696416 129579208 
1873.983 129448232 129344408 129300248 129323000 129392936 129472576 
1874.345 129527576 129538776 129510424 129462408 129418784 129393368 
1874.707 129385296 129383072 129374632 129355568 129331144 129311120 
1875.069 129302112 129301960 129301480 129290736 129267824 129241960 
1875.431 129230672 129249360 129301624 129375104 129446640 129493176 
1875.792 129502184 129478056 129438440 129404632 129389248 129391976 
1876.154 129401760 129406704 129402288 129395992 129402048 129432720 
1876.516 129487752 129552184 129600544 129610632 129573728 129500440 
1876.878 129415248 129347632 129319528 129337472 129394352 129475736 
1877.240 129568800 129665304 129761320 129852312 129928416 129975960 
1877.602 129982888 129946688 129879008 129804232 129750864 129737352 
1877.963 129765440 129817944 129868728 129892752 129879392 129835880 
1878.325 129783472 129745864 129738928 129765728 129817400 129879640 
1878.687 129939320 129989464 130027264 130050440 130054232 130030248 
1879.049 129970048 129869432 129730304 129559344 129363512 129146744 
1879.411 128909408 128652904 128387576 128135888 127933424 127820104 
1879.772 127824384 127954616 128191992 128498232 128823656 129125032 
1880.134 129375824 129565592 129697048 129777248 129812616 129807952 
1880.496 129771120 129717920 129670560 129654256 129686264 129767088 
1880.858 129878032 129986992 130062104 130081400 130042880 129962080 
1881.220 129865040 129774896 129705080 129656928 129624088 129598976 
1881.582 129578416 129564288 129560288 129567392 129581776 129595920 
1881.943 129603440 129602848 129598168 129595384 129597320 129599336 
1882.305 129590728 129559232 129499072 129416016 129327832 129257656 
1882.667 129223296 129230928 129271296 129325000 129369208 129388424 
1883.029 129378368 129345472 129301504 129258296 129223832 129201192 
1883.391 129190672 129191360 129201696 129218160 129234608 129243992 
1883.752 129241592 129230312 129222616 129239648 129301704 129419520 
1884.114 129584648 129768208 129922016 129988224 129914896 129659576 
1884.476 129200064 128537992 127703440 126756952 125787408 124914488 
1884.838 124260088 123929064 123981456 124407584 125124216 125988448 
1885.200 126846944 127560656 128048936 128302544 128372248 128340528 
1885.562 128286112 128266448 128303120 128391672 128515896 128662064 
1885.923 128823064 128995024 129171368 129337968 129476288 129572432 
1886.285 129623648 129641632 129645472 129653120 129670464 129690112 
1886.647 129697392 129682552 129648880 129613896 129598448 129614728 
1887.009 129654520 129691400 129689752 129624560 129495640 129330600 
1887.371 129173328 129064128 129024984 129050216 129114048 129184784 
1887.732 129242480 129283384 129315608 129346024 129369776 129367784 
1888.094 129317672 129206648 129044096 128859584 128693048 128573200 
1888.456 128505968 128473832 128450480 128417920 128379408 128355280 
1888.818 128367328 128416128 128471912 128477720 128373432 128117752 
1889.180 127684904 127041032 126097072 124654400 122424584 119073880 
1889.542 114343608 108209336 100992640 93414840 86419560 81087944 78312600 
1889.964 78553192 81754592 87338960 94397704 101846936 108775608 114566728 
1890.386 118956688 122011168 123999672 125265152 126088992 126672080 
1890.748 127117904 127465560 127734888 127946760 128126728 128298336 
1891.109 128470648 128637320 128783648 128899376 128986064 129057456 
1891.471 129129664 129212104 129299880 129376808 129422512 129424296 
1891.833 129383072 129312624 129231416 129153336 129082680 129014504 
1892.195 128941144 128860360 128779288 128713032 128676816 128676592 
1892.557 128704192 128738928 128757552 128743432 128697064 128636616 
1892.918 128593376 128597400 128667408 128803688 128989416 129196888 
1893.280 129397376 129570816 129705960 129798840 129847648 129848384 
1893.642 129795400 129685600 129524536 129329080 129125832 128945752 
1894.004 128812400 128736832 128715352 128734680 128778336 128833352 
1894.366 128892296 128948160 128989600 128999568 128958176 128854248 
1894.728 128692952 128495376 128280976 128039424 127696904 127114016 
1895.089 126091584 124430400 122021416 118913088 115364592 111800920 
1895.451 108780880 106824608 106281048 107252264 109551680 112764480 
1895.813 116338648 119775568 122697112 124920160 126452944 127431680 
1896.175 128041512 128436528 128721792 128941056 129103304 129212376 
1896.537 129281856 129334528 129391344 129457296 129519288 129554328 
1896.898 129546856 129500208 129439888 129400160 129409752 129473384 
1897.260 129568576 129651624 129678256 129621760 129482800 129288256 
1897.622 129080056 128900448 128775920 128715488 128712312 128752528 
1897.984 128821024 128905696 128997432 129086560 129162752 129216640 
1898.346 129242744 129242784 129225408 129203120 129185664 129176664 
1898.708 129172288 129165128 129148848 129123248 129094352 129071896 
1899.069 129063104 129068680 129082104 129093648 129096144 129089696 
1899.431 129082440 129087064 129114544 129167720 129239768 129316408 
1899.793 129383008 129428936 129451888 129456168 129449136 129436008 
1900.155 129417752 129392088 129357064 129314560 129271744 129238312 
1900.517 129222952 129228608 129251000 129279968 129304048 129315544 
1900.878 129312192 129297136 129275624 129252376 129229648 129208576 
1901.240 129191744 129184464 129194200 129225904 129276616 129330960 
1901.602 129361880 129339176 129236952 129046976 128783920 128486496 
1901.964 128206112 127994064 127890576 127911656 128048904 128272448 
1902.326 128543464 128820360 129068688 129267376 129406472 129486896 
1902.688 129516296 129506656 129470600 129419624 129363944 129311040 
1903.049 129266752 129236248 129224240 129235176 129271744 129332984 
1903.411 129412016 129495792 129567944 129611128 129613720 129573592 
1903.773 129499560 129408640 129320792 129252728 129210456 129186688 
1904.135 129160560 129104144 128986624 128784024 128487520 128108200 
1904.497 127679056 127249696 126883184 126637920 126555936 126653080 
1904.858 126912848 127290240 127721552 128146584 128517248 128809856 
1905.220 129025080 129179720 129294792 129384672 129454240 129500512 
1905.582 129519776 129514016 129492664 129469376 129455208 129451904 
1905.944 129451176 129439128 129405920 129352456 129293272 129249672 
1906.306 129241632 129275760 129341696 129414520 129467024 129480480 
1906.667 129451904 129393376 129324768 129263160 129214920 129175872 
1907.029 129137096 129093448 129048184 129011848 128994936 129000632 
1907.391 129020520 129037696 129032784 128991488 128902048 128744832 
1907.753 128482304 128047296 127352480 126323584 124931872 123237456 
1908.115 121395208 119655800 118295072 117544824 117541056 118272696 
1908.477 119592120 121249168 122983160 124563328 125842192 126772184 
1908.838 127380232 127738168 127924368 128011256 128051080 128078424 
1909.200 128116768 128176528 128255104 128336600 128398760 128419696 
1909.562 128384416 128282696 128091848 127754384 127170328 126191576 
1909.924 124668544 122512824 119759152 116608160 113416592 110664240 
1910.286 108801416 108166240 108883264 110830520 113666056 116918248 
1910.647 120138976 122953720 125157024 126713008 127711360 128303328 
1911.009 128638128 128834936 128959112 129039456 129087544 129112040 
1911.371 129126256 129144824 129175848 129217472 129258440 129285184 
1911.733 129287640 129264688 129223216 129174936 129130736 129098360 
1912.095 129082720 129087192 129115200 129169104 129247176 129340040 
1912.457 129429592 129494432 129514264 129480344 129399976 129297048 
1912.818 129203424 129148232 129148680 129202768 129291632 129386880 
1913.180 129464176 129509744 129525272 129523280 129519976 129525496 
1913.542 129538896 129548960 129540800 129504024 129438320 129354416 
1913.904 129269968 129202928 129163992 129155280 129171992 129207776 
1914.266 129258472 129323576 129403408 129494096 129584352 129656984 
1914.627 129692832 129680432 129621328 129531936 129436568 129359816 
1914.989 129316944 129308776 129324008 129345840 129361056 129363568 
1915.351 129355096 129340696 129324216 129306232 129286296 129267672 
1915.713 129259616 129275904 129327784 129414616 129518632 129606904 
1916.075 129645016 129607752 129493256 129322976 129135176 128966744 
1916.437 128839456 128755520 128702320 128664936 128637760 128627952 
1916.798 128648512 128704872 128785160 128858984 128890008 128854960 
1917.160 128753912 128610800 128456800 128311424 128166584 127989816 
1917.522 127738640 127381728 126895656 126233584 125283072 123802776 
1917.884 121417992 117715272 112335472 105188312 96581704 87326128 78586976 
1918.306 71661144 67743856 67513320 71010496 77581872 86134704 95325544 
1918.728 103922304 111119960 116546576 120281504 122671088 124177056 
1919.090 125188152 125948984 126578264 127101304 127516944 127835184 
1919.452 128081224 128281872 128446648 128564464 128615768 128594344 
1919.813 128519824 128437640 128398248 128433160 128541192 128689176 
1920.175 128829544 128921968 128953400 128938488 128908456 128889608 
1920.537 128891544 128902800 128902328 128872928 128814528 128744256 
1920.899 128688800 128668288 128686408 128728488 128771088 128793736 
1921.261 128789568 128767168 128743856 128733448 128736344 128737296 
1921.623 128712336 128642320 128522800 128369816 128213088 128083464 
1921.984 127991856 127914456 127781976 127493432 126925944 125966752 
1922.346 124554432 122704288 120534664 118252288 116152528 114547816 
1922.708 113695984 113748920 114677952 116258384 118067976 119599968 
1923.070 120328016 119836168 117952968 114798040 110804488 106601080 
1923.432 102956496 100561152 99864600 101012408 103794880 107729672 
1923.793 112153600 116446928 120127544 122938584 124867880 126077728 
1924.155 126812592 127286072 127646488 127949512 128189688 128345848 
1924.517 128417336 128434208 128446624 128495200 128592736 128719256 
1924.879 128838192 128916400 128943120 128932464 128912400 128905096 
1925.241 128913176 128919648 128900680 128843376 128756840 128670088 
1925.603 128618008 128624176 128687416 128784008 128880608 128954560 
1925.964 129002968 129042448 129093944 129167560 129251280 129316808 
1926.326 129333104 129288416 129199656 129110088 129066880 129100768 
1926.688 129209112 129358056 129496840 129583352 129604520 129579192 
1927.050 129546784 129543632 129587280 129667224 129754440 129816376 
1927.412 129836168 129817512 129779768 129742248 129712944 129682704 
1927.773 129633368 129549120 129429448 129290992 129161912 129066936 
1928.135 129015952 129001456 129005288 129010552 129011408 129015480 
1928.497 129036944 129084680 129153272 129221640 129261400 129251480 
1928.859 129186336 129079992 128957768 128847352 128766416 128720112 
1929.221 128705128 128716984 128755296 128823216 128921576 129041832 
1929.583 129163144 129259512 129307912 129301224 129251960 129188584 
1929.944 129141400 129128704 129150032 129188080 129219688 129228440 
1930.306 129213800 129189088 129172160 129172448 129185104 129192936 
1930.668 129178312 129134048 129071320 129014824 128992680 129019392 
1931.030 129088032 129170952 129234288 129251424 129215896 129142424 
1931.392 129059096 128992456 128954440 128939680 128930216 128907400 
1931.753 128860480 128792080 128714352 128642424 128586224 128548728 
1932.115 128528528 128524688 128539992 128579904 128647296 128737288 
1932.477 128835136 128921472 128978344 128999072 128990384 128969184 
1932.839 128951520 128942928 128931648 128892448 128794136 128612944 
1933.201 128343792 128003664 127629120 127264544 126957328 126745384 
1933.562 126651792 126684040 126832016 127069848 127357520 127651760 
1933.924 127912360 128112624 128247096 128330424 128390256 128453096 
1934.286 128535432 128636064 128739984 128826512 128882072 128906536 
1934.648 128913000 128919128 128937712 128969472 129003304 129022664 
1935.010 129015576 128982080 128934648 128892248 128870208 128874616 
1935.372 128899984 128934544 128966976 128993200 129017000 129046552 
1935.733 129087936 129141320 129200696 129258136 129307696 129348248 
1936.095 129381688 129408752 129425312 129423088 129393632 129335824 
1936.457 129259936 129187616 129142256 129140440 129182960 129254448 
1936.819 129328736 129380720 129397360 129379568 129338992 129287880 
1937.181 129231960 129167312 129085952 128984832 128873176 128773088 
1937.542 128712336 128709648 128766040 128860728 128961432 129035072 
1937.904 129064504 129054448 129028920 129018144 129044400 129113696 
1938.266 129213848 129321560 129411728 129468104 129484984 129466360 
1938.628 129420920 129359472 129293088 129232360 129188016 129167096 
1938.990 129169200 129183360 129190752 129171368 129113232 129020560 
1939.352 128914400 128825672 128779800 128787136 128836728 128903456 
1939.713 128958376 128984464 128983336 128973008 128976080 129007424 
1940.075 129067136 129142224 129215544 129276184 129325048 129371296 
1940.437 129422552 129475624 129513808 129514392 129463120 129365160 
1940.799 129248448 129152992 129116560 129154352 129253272 129376096 
1941.161 129480544 129532384 129515784 129430648 129280288 129059824 
1941.522 128754072 128344952 127829016 127230016 126604624 126026056 
1941.884 125564176 125267752 125149048 125186520 125328184 125499216 
1942.246 125582440 125400752 124723816 123254760 120705584 116892512 
1942.608 111823432 105777384 99297680 93167888 88188416 85052208 84189288 
1943.030 85654688 89149520 94095208 99830896 105680544 111109656 115790728 
1943.452 119563312 122423280 124461400 125827016 126681528 127183600 
1943.814 127479960 127678912 127854088 128039256 128234632 128422040 
1944.176 128580416 128698008 128774272 128816656 128833296 128829248 
1944.538 128806168 128766144 128715664 128664600 128622456 128592064 
1944.899 128566544 128530352 128465168 128356696 128194200 127967312 
1945.261 127660600 127249824 126711712 126040240 125267688 124471136 
1945.623 123768288 123293440 123146680 123368424 123915728 124681008 
1945.985 125513448 126269104 126849616 127203752 127325720 127230312 
1946.347 126934824 126452984 125807152 125050560 124271816 123595736 
1946.708 123155368 123043920 123292840 123853120 124619112 125452872 
1947.070 126235344 126896440 127416648 127817792 128136304 128402664 
1947.432 128628128 128809944 128942224 129026568 129075072 129105056 
1947.794 129128744 129148696 129158048 129148792 129119984 129082296 
1948.156 129053696 129051216 129079960 129129856 129179200 129207112 
1948.518 129202192 129168880 129123200 129085032 129067040 129069440 
1948.879 129081776 129090096 129084504 129062176 129026136 128980320 
1949.241 128925616 128860112 128783496 128702920 128633616 128596408 
1949.603 128607296 128667800 128760840 128855736 128921520 128938376 
1949.965 128908472 128853728 128806800 128793648 128823976 128887408 
1950.327 128961672 129022728 129057064 129065952 129061896 129059864 
1950.688 129068688 129088424 129112304 129132912 129146464 129153984 
1951.050 129157728 129156304 129143064 129108168 129045440 128958264 
1951.412 128862112 128779736 128730792 128724768 128755208 128803872 
1951.774 128847944 128871640 128870984 128853000 128828680 128806080 
1952.136 128785888 128763440 128734616 128702336 128677576 128676232 
1952.498 128709776 128778160 128867264 128954752 129019424 129049416 
1952.859 129047064 129024840 128997408 128972184 128946688 128911184 
1953.221 128857344 128784864 128704672 128634040 128590040 128580560 
1953.583 128602320 128644024 128694512 128748280 128806832 128874064 
1953.945 128948896 129019960 129068336 129073560 129025608 128931744 
1954.307 128816856 128713888 128650160 128638504 128671920 128728744 
1954.668 128780304 128801840 128772608 128673088 128482144 128174096 
1955.030 127727664 127140608 126445280 125714656 125049416 124565248 
1955.392 124351336 124447640 124832312 125431344 126138192 126842232 
1955.754 127462904 127952784 128300104 128515752 128620072 128632584 
1956.116 128569120 128446728 128285952 128111688 127951672 127828008 
1956.478 127753760 127731136 127753808 127811072 127891712 127986504 
1956.839 128086624 128183400 128269264 128338936 128392640 128436272 
1957.201 128479344 128528912 128584184 128633536 128658152 128637720 
1957.563 128559576 128425024 128250144 128060888 127883128 127737936 
1957.925 127635800 127577848 127559744 127575272 127618024 127679728 
1958.287 127749640 127813736 127857352 127871120 127854456 127816960 
1958.648 127773848 127740280 127723608 127720328 127718160 127703312 
1959.010 127668088 127615200 127557176 127510968 127491312 127504168 
1959.372 127546536 127608888 127681160 127755496 127828144 127897736 
1959.734 127962952 128021520 128071584 128114040 128153840 128198784 
1960.096 128255600 128324840 128398392 128460840 128496832 128497056 
1960.458 128464600 128413744 128366048 128340448 128345728 128378256 
1960.819 128424072 128464896 128482544 128463336 128395984 128269608 
1961.181 128074568 127805472 127469136 127089616 126712736 126397600 
1961.543 126199816 126160296 126287696 126557160 126914720 127297824 
1961.905 127649528 127930752 128127968 128247248 128306952 128326960 
1962.267 128325304 128314928 128304256 128299400 128303736 128317448 
1962.628 128337552 128359296 128379040 128396784 128416704 128445040 
1962.990 128485648 128536104 128586848 128624824 128640792 128634592 
1963.352 128617848 128609104 128627088 128679768 128759960 128845520 
1963.714 128909576 128929624 128896984 128819712 128719208 128621264 
1964.076 128545296 128500664 128484936 128488896 128501504 128515552 
1964.438 128528976 128543272 128560680 128581536 128603040 128619864 
1964.799 128625272 128612672 128577808 128519888 128443528 128358752 
1965.161 128281456 128229040 128215112 128244992 128311488 128396080 
1965.523 128472840 128518848 128520088 128476864 128402016 128316008 
1965.885 128236968 128170864 128104792 128003800 127815920 127474672 
1966.247 126919632 126114032 125066160 123843240 122577728 121456064 
1966.608 120663712 120355512 120598688 121349968 122458016 123708264 
1966.970 124895304 125858224 126527120 126904408 127016448 126854848 
1967.332 126338112 125312936 123626840 121205160 118147624 114743456 
1967.694 111471760 108881208 107422952 107371232 108714632 111186024 
1968.056 114317408 117607296 120628784 123098768 124927256 126168296 
1968.417 126962776 127458016 127778264 128000768 128161992 128281472 
1968.779 128373496 128452336 128530696 128613624 128698416 128778912 
1969.141 128852952 128926384 129011680 129119520 129251136 129392488 
1969.503 129518640 129599432 129612120 129549120 129419088 129242976 
1969.865 129046432 128855944 128692912 128574496 128513688 128516616 
1970.227 128580072 128688224 128815304 128928640 128999888 129015520 
1970.588 128980520 128916912 128852872 128812904 128805520 128821888 
1970.950 128840112 128837920 128801520 128732224 128644112 128557864 
1971.312 128490560 128448600 128426712 128411560 128388888 128348592 
1971.674 128289096 128216792 128144216 128085536 128054472 128062208 
1972.036 128114712 128211792 128345584 128501680 128659808 128798936 
1972.397 128902976 128963096 128980224 128962792 128923696 128875112 
1972.759 128826712 128785440 128756192 128743576 128751696 128782376 
1973.121 128833056 128895248 128956824 129004280 129028488 129028040 
1973.483 129009632 128984672 128964304 128954448 128952952 128950256 
1973.845 128932968 128889944 128815224 128710936 128586072 128455432 
1974.207 128335592 128241432 128184808 128170984 128197848 128255072 
1974.568 128326816 128394184 128439720 128453120 128432792 128386640 
1974.930 128328368 128275016 128242120 128240728 128278000 128356336 
1975.292 128473576 128622072 128788344 128952888 129091448 129182512 
1975.654 129211032 129174560 129083744 128960288 128829536 128711784 
1976.016 128619192 128553400 128509200 128479312 128459088 128447496 
1976.377 128445256 128451664 128462504 128470296 128468344 128453912 
1976.739 128431240 128409560 128400136 128410336 128440304 128483112 
1977.101 128528656 128568680 128600056 128625400 128649864 128676392 
1977.463 128702224 128718480 128713472 128678512 128611536 128519272 
1977.825 128414480 128313120 128228728 128169880 128140448 128140192 
1978.187 128166208 128213192 128273528 128336096 128387176 128414072 
1978.548 128407144 128363832 128289064 128194304 128093440 127998928 
1978.910 127920936 127866280 127840064 127847224 127891424 127973168 
1979.272 128086624 128219120 128351040 128460512 128530080 128549192 
1979.634 128517424 128442256 128336704 128214856 128089936 127974824 
1979.996 127880696 127817128 127789680 127797048 127829416 127869880 
1980.357 127901176 127910720 127897736 127873544 127858400 127871960 
1980.719 127924840 128014224 128125352 128237536 128332096 128399744 
1981.081 128440400 128459880 128463384 128451888 128421872 128369840 
1981.443 128297776 128216392 128142904 128096544 128089504 128122600 
1981.805 128184912 128259832 128331112 128388688 128430616 128459560 
1982.167 128478432 128487168 128483240 128465536 128437992 128411320 
1982.528 128398760 128409568 128442776 128485544 128517056 128517456 
1982.890 128478552 128407936 128327192 128260784 128227384 128230192 
1983.252 128257520 128288336 128304128 128297288 128273384 128246632 
1983.614 128231528 128235232 128254176 128277032 128291528 128291752 
1983.976 128280280 128266360 128259632 128265696 128283224 128306400 
1984.337 128328848 128348072 128365968 128386120 128409112 128429576 
1984.699 128435896 128415664 128360384 128271264 128159392 128044112 
1985.061 127946352 127882216 127861128 127883936 127945000 128033896 
1985.423 128138264 128244408 128338624 128410416 128454256 128471912 
1985.785 128471400 128464576 128461304 128465072 128471896 128473304 
1986.146 128462312 128438760 128411360 128394600 128402240 128439208 
1986.508 128498456 128562704 128613016 128634928 128624784 128588384 
1986.870 128535904 128474320 128403464 128317296 128209912 128081936 
1987.232 127944400 127815264 127713720 127652304 127632104 127644416 
1987.594 127676008 127716296 127759064 127801936 127842120 127873032 
1987.956 127885272 127870432 127823680 127742392 127616480 127414224 
1988.317 127079264 126531832 125695840 124540056 123112320 121559576 
1988.679 120097896 118987248 118440240 118561872 119319760 120554344 
1989.041 122027848 123485088 124741736 125701400 126362352 126782528 
1989.403 127041720 127204624 127305928 127362216 127385544 127395288 
1989.765 127419616 127481280 127584416 127707912 127815000 127868880 
1990.126 127852088 127775376 127672720 127584264 127536032 127532664 
1990.488 127558816 127593200 127620504 127638896 127654952 127672936 
1990.850 127686216 127677896 127631352 127544736 127438120 127347968 
1991.212 127306512 127325432 127384632 127444288 127463600 127425616 
1991.574 127338064 127206832 126991632 126564368 125691784 124107816 
1991.936 121590072 118092440 113821192 109273216 105145080 102121096 
1992.297 100756000 101259376 103456152 106815688 110642064 114258080 
1992.659 117144728 119086056 120138512 120564968 120686160 120800248 
1993.021 121095736 121630480 122366384 123209992 124061168 124829512 
1993.383 125455048 125907496 126184872 126313568 126345672 126351808 
1993.745 126397336 126528824 126755584 127049128 127352976 127607344 
1994.106 127774384 127847672 127853248 127832944 127828032 127859928 
1994.468 127927592 128012688 128093560 128154872 128193008 128213272 
1994.830 128223152 128225800 128218712 128196720 128157760 128106432 
1995.192 128053696 128011600 127987520 127980536 127982416 127981832 
1995.554 127970384 127946912 127917344 127891416 127877256 127879048 
1995.916 127896000 127924784 127962264 128007192 128059528 128118096 
1996.277 128178920 128234800 128277272 128300344 128302336 128286480 
1996.639 128258192 128222376 128180648 128131488 128072784 128005432 
1997.001 127935488 127874568 127835712 127829344 127859280 127921312 
1997.363 128004440 128094184 128177776 128245152 128290632 128312408 
1997.725 128311368 128290776 128256312 128216776 128182576 128164080 
1998.086 128169144 128200072 128252760 128317424 128382104 128434784 
1998.448 128466272 128471552 128448264 128395544 128312584 128197944 
1998.810 128050224 127869384 127658432 127424352 127179080 126940176 
1999.172 126727712 126564048 126469528 126457096 126529888 126678136 
1999.534 126881720 127111944 127339928 127543032 127707240 127829424 
1999.896 127914096 127969448 128002936 128020344 128026360 128026000 
2000.257 128026464 128036128 128061336 128103664 128157720 128212744 
2000.619 128255504 128276256 128272008 128246896 128208992 128166128 
2000.981 128122368 128077328 128029224 127979536 127935688 127911552 
2001.343 127922136 127976216 128071048 128190528 128309832 128401920 
2001.705 128449088 128447688 128409032 128352920 128300784 128267256 
2002.066 128255904 128260672 128270520 128275696 128270704 128255568 
2002.428 128233408 128207328 128178104 128144320 128104312 128058856 
2002.790 128012464 127972992 127948144 127942856 127956368 127982400 
2003.152 128010384 128029576 128032816 128018032 127989072 127953928 
2003.514 127922904 127904968 127906560 127930568 127975976 128038416 
2003.875 128110584 128183712 128247080 128289808 128302392 128277656 
2004.237 128213208 128112552 127985880 127847576 127714064 127600192 
2004.599 127514560 127458760 127427672 127413720 127410728 127418664 
2004.961 127444248 127499424 127595064 127734888 127910856 128103352 
2005.323 128285272 128427880 128511112 128526840 128480552 128387040 
2005.685 128265992 128135568 128008112 127891048 127787496 127698648 
2006.046 127625320 127567848 127525472 127495696 127475024 127460152 
2006.408 127449672 127444544 127447272 127459672 127480920 127506840 
2006.770 127531320 127549680 127560920 127569224 127582200 127607736 
2007.132 127649456 127704648 127764104 127816064 127849024 127854960 
2007.494 127830192 127773152 127681904 127553056 127382704 127170680 
2007.855 126924648 126664400 126419040 126222640 126107696 126093880 
2008.217 126184576 126364544 126605896 126872272 127128408 127348816 
2008.579 127518416 127635288 127707112 127747568 127770216 127784480 
2008.941 127793472 127793560 127776912 127735320 127664864 127567904 
2009.303 127453168 127331888 127214600 127106688 127007616 126913168 
2009.665 126820096 126730376 126653560 126603672 126594440 126632928 
2010.026 126715000 126825008 126939848 127038056 127104080 127133664 
2010.388 127133048 127115888 127097848 127092168 127109080 127154208 
2010.750 127229376 127332224 127455512 127586120 127705792 127796568 
2011.112 127844056 127843696 127802232 127736400 127666160 127606952 
2011.474 127565728 127539016 127517136 127489992 127453368 127410600 
2011.835 127370880 127343448 127333496 127339592 127355616 127374464 
2012.197 127392680 127411992 127437824 127475048 127524368 127580392 
2012.559 127633880 127675104 127697488 127699696 127684448 127655960 
2012.921 127617416 127570976 127519312 127467528 127424624 127400864 
2013.283 127403272 127431408 127475384 127518256 127541176 127532272 
2013.645 127490464 127426608 127357992 127303440 127276648 127283344 
2014.006 127323328 127392928 127487696 127601512 127725216 127844840 
2014.368 127941760 127999360 128008824 127975032 127915504 127855088 
2014.730 127814352 127799200 127797832 127785864 127739984 127649352 
2015.092 127524856 127395504 127299488 127265512 127303088 127399056 
2015.454 127526344 127654664 127762736 127843688 127900432 127937792 
2015.815 127955576 127947472 127906504 127832816 127738272 127642576 
2016.177 127564192 127510184 127471368 127426880 127355776 127248688 
2016.539 127106792 126927560 126683152 126296312 125644104 124593456 
2016.901 123045176 121006384 118625832 116209328 114134128 112779056 
2017.263 112418648 113128720 114774560 117040408 119548920 121921712 
2017.625 123892752 125348752 126305640 126867856 127163656 127308232 
2017.986 127370408 127381888 127352680 127284496 127176752 127022232 
2018.348 126803408 126492616 126066688 125526304 124913304 124311400 
2018.710 123825728 123561232 123578440 123875440 124381920 124986552 
2019.072 125562704 126005112 126261528 126333320 126269928 126142200 
2019.434 126027168 125983288 126040256 126199968 126439584 126721160 
2019.795 126998776 127233048 127396448 127479360 127490776 127454216 
2020.157 127399400 127350904 127324248 127322264 127339112 127366136 
2020.519 127398120 127435360 127481728 127539976 127607840 127676952 
2020.881 127736976 127780176 127806976 127826064 127851592 127895640 
2021.243 127961408 128040360 128114256 128162144 128166024 128118160 
2021.604 128021528 127887904 127732080 127568664 127409872 127264528 
2021.966 127140528 127045208 126984504 126962240 126978296 127028624 
2022.328 127106056 127202832 127312040 127427352 127542600 127649504 
2022.690 127736608 127791264 127800808 127756256 127654744 127500000 
2023.052 127301728 127073520 126833528 126602624 126403656 126261408 
2023.414 126195976 126218504 126325464 126497904 126702960 126901856 
2023.775 127063216 127168096 127216016 127220904 127204856 127187432 
2024.137 127179192 127180856 127186448 127189376 127187360 127183936 
2024.499 127186184 127200352 127227800 127264344 127302560 127336152 
2024.861 127362496 127383384 127402440 127421664 127438752 127447840 
2025.223 127442248 127419456 127383896 127347224 127323544 127325328 
2025.584 127357944 127417888 127493840 127570696 127634744 127675168 
2025.946 127686432 127667416 127620424 127550336 127464488 127372168 
2026.308 127282144 127200888 127129592 127063744 126994568 126913936 
2026.670 126819744 126719296 126628608 126566952 126550760 126585264 
2027.032 126662184 126760928 126857392 126930440 126969000 126974704 
2027.394 126959320 126939608 126930376 126942456 126980280 127043144 
2027.755 127126568 127223560 127325144 127420336 127498840 127552992 
2028.117 127580792 127586944 127581616 127576368 127578328 127587768 
2028.479 127597704 127598728 127584136 127555456 127522528 127500200 
2028.841 127499704 127522288 127555808 127579288 127569552 127511656 
2029.203 127406112 127269760 127130672 127016624 126949024 126934968 
2029.564 126967984 127031768 127107736 127180040 127237688 127275584 
2029.926 127292328 127289096 127268984 127237616 127203056 127173888 
2030.288 127157568 127156832 127168608 127184344 127193960 127190008 
2030.650 127171008 127142336 127114488 127099304 127104904 127133936 
2031.012 127182856 127244368 127309264 127369184 127418048 127451304 
2031.374 127466344 127462368 127441024 127406920 127367584 127332776 
2031.735 127311304 127309560 127329680 127369608 127424200 127487328 
2032.097 127553720 127618784 127678464 127728320 127762480 127774760 
2032.459 127759888 127715032 127641328 127543688 127430232 127309856 
2032.821 127191928 127085136 126996792 126933752 126901464 126903048 
2033.183 126938704 127004832 127094472 127197632 127303856 127402784 
2033.544 127484640 127541520 127566424 127554216 127503168 127416408 
2033.906 127303280 127178072 127059440 126965024 126907288 126891032 
2034.268 126911856 126958040 127013464 127063552 127097600 127111272 
2034.630 127106608 127090376 127071232 127056208 127049248 127049320 
2034.992 127051192 127046744 127028944 126994896 126948824 126901808 
2035.354 126870128 126870664 126913864 127000448 127118968 127249960 
2035.715 127369400 127457320 127503568 127508904 127483656 127442176 
2036.077 127398024 127358328 127323008 127286240 127240640 127180840 
2036.439 127106656 127023552 126941888 126873888 126829824 126816216 
2036.801 126833160 126874488 126928240 126980736 127019656 127037424 
2037.163 127033880 127015584 126993360 126977064 126972600 126979368 
2037.524 126992008 127003592 127010752 127016224 127028968 127059816 
2037.886 127116128 127197360 127293712 127388392 127462920 127504760 
2038.248 127510224 127485952 127444944 127403280 127374184 127364848 
2038.610 127376288 127403616 127437728 127465952 127474896 127451600 
2038.972 127386672 127277936 127132464 126966776 126801616 126658632 
2039.333 126552760 126488640 126461576 126461600 126479536 126510880 
2039.695 126557016 126621624 126705248 126800960 126893112 126960832 
2040.057 126986552 126960904 126887888 126782752 126669096 126570656 
2040.419 126505512 126484688 126510584 126578696 126678808 126797272 
2040.781 126917640 127022896 127100192 127142080 127147360 127116720 
2041.143 127044352 126909592 126675352 126290160 125708808 124914112 
2041.504 123938720 122870184 121845280 121027088 120551872 120506896 
2041.866 120900224 121664816 122671680 123768104 124820296 125724032 
2042.228 126426288 126917560 127217928 127361424 127385768 127328776 
2042.590 127223160 127099192 126982040 126886976 126818800 126771504 
2042.952 126733640 126693648 126646488 126594880 126546456 126507480 
2043.313 126477600 126448184 126406720 126343384 126258392 126164024 
2043.675 126082456 126036656 126039368 126087416 126160000 126226616 
2044.037 126254184 126221120 126123400 125976648 125810232 125660152 
2044.399 125560320 125531696 125580360 125695904 125856784 126034536 
2044.761 126202880 126345208 126456528 126544120 126622096 126705200 
2045.123 126800320 126902808 126996200 127059208 127072032 127024784 
2045.484 126921776 126781328 126630792 126497320 126404256 126364456 
2045.846 126379592 126441224 126533800 126637624 126730520 126793448 
2046.208 126812408 126782224 126708376 126606368 126498000 126403712 
2046.570 126338912 126308888 126309720 126331456 126364072 126401264 
2046.932 126441240 126484968 126532360 126579608 126619752 126645168 
2047.293 126652184 126643712 126629304 126621120 126628072 126652616 
2047.655 126689512 126729472 126763872 126790120 126812784 126841632 
2048.017 126885840 126950000 127031336 127121824 127211336 127292376 
2048.379 127362488 127422936 127475768 127520400 127551816 127561968 
2048.741 127543064 127490696 127406304 127297080 127174328 127049920 
2049.103 126935688 126841776 126775416 126740920 126737336 126757520 
2049.464 126787312 126809248 126807640 126773632 126709784 126629312 
2049.826 126551960 126494568 126466064 126463992 126478272 126497288 
2050.188 126515960 126538952 126578696 126647424 126748592 126871384 
2050.550 126992808 127084856 127124616 127105008 127037064 126946848 
2050.912 126863680 126813056 126807792 126847112 126920664 127015072 
2051.273 127119720 127227976 127337000 127444728 127547432 127639936 
2051.635 127716456 127772592 127806368 127817024 127803456 127763240 
2051.997 127692616 127589136 127454520 127296744 127129336 126968256 
2052.359 126829016 126721712 126650512 126614192 126608360 126627112 
2052.721 126663648 126710520 126758168 126795960 126814872 126809632 
2053.083 126781880 126739744 126696376 126664552 126653040 126664752 
2053.444 126697064 126744384 126800840 126861856 126922560 126976080 
2053.806 127013200 127022888 126997472 126937520 126855440 126773416 
2054.168 126717616 126710576 126761272 126862576 126992424 127123696 
2054.530 127230800 127298544 127325264 127320264 127298552 127273992 
2054.892 127256648 127250232 127253312 127260624 127264880 127257536 
2055.253 127229784 127175576 127093928 126991704 126882704 126786152 
2055.615 126719984 126693888 126706232 126743632 126786392 126814000 
2055.977 126813472 126781760 126724784 126652688 126575616 126500728 
2056.339 126432112 126373768 126331920 126314840 126331104 126384528 
2056.701 126471072 126577520 126685584 126777424 126840344 126871168 
2057.062 126875016 126862248 126843168 126826144 126816600 126818160 
2057.424 126834824 126871008 126929768 127010368 127106248 127205752 
2057.786 127294128 127359352 127395040 127402352 127388232 127362712 
2058.148 127335328 127312272 127296864 127289704 127289352 127291864 
2058.510 127290104 127273960 127230880 127150816 127030032 126874632 
2058.872 126699304 126524376 126369048 126244280 126151592 126084512 
2059.233 126035064 125999424 125982256 125994712 126050168 126155920 
2059.595 126308488 126491736 126682120 126853640 126983864 127059672 
2059.957 127076520 127038048 126953544 126837776 126709184 126587032 
2060.319 126489728 126427864 126400120 126391080 126376160 126329096 
2060.681 126232048 126084776 125906296 125730352 125591816 125519016 
2061.042 125523768 125601224 125734824 125905024 126096488 126298808 
2061.404 126505520 126708968 126896528 127052592 127161656 127214544 
2061.766 127212616 127167480 127096720 127016360 126937584 126864016 
2062.128 126794520 126727504 126664352 126610000 126570768 126550216 
2062.490 126546680 126553272 126561368 126563712 126557840 126546184 
2062.852 126534112 126526688 126526440 126533328 126545912 126563032 
2063.213 126584184 126608808 126634848 126657912 126673176 126677368 
2063.575 126671616 126661368 126654472 126656784 126668568 126684288 
2063.937 126695816 126697872 126691488 126683760 126682632 126689920 
2064.299 126696872 126685904 126639240 126551288 126434968 126318664 
2064.661 126228424 126167768 126097752 125939296 125584488 124943752 
2065.022 123985688 122769960 121443216 120217344 119319432 118912744 
2065.384 119068528 119739216 120787296 122013480 123219296 124256560 
2065.746 125033176 125524664 125752944 125767048 125622104 125373544 
2066.108 125077584 124785720 124547872 124404536 124376768 124463856 
2066.470 124643048 124880040 125136776 125384824 125610336 125811368 
2066.832 125992768 126158744 126308224 126434448 126527672 126579336 
2067.193 126586192 126551392 126484648 126399728 126314640 126248352 
2067.555 126217552 126234456 126301136 126407496 126530440 126640736 
2067.917 126709560 126717488 126662216 126559008 126436632 126325720 
2068.279 126252616 126230024 126256048 126317128 126395008 126473208 
2068.641 126540072 126590976 126626256 126648904 126662208 126669024 
2069.002 126671408 126670576 126666680 126658640 126644032 126619704 
2069.364 126583216 126534336 126475896 126413208 126352888 126301328 
2069.726 126262904 126240216 126234544 126246624 126276816 126324216 
2070.088 126385320 126452400 126514128 126558240 126574080 126557392 
2070.450 126512544 126453072 126397592 126365960 126373752 126426560 
2070.812 126518328 126631216 126740912 126819784 126845256 126806200 
2071.173 126705720 126561696 126401968 126259616 126161424 126122672 
2071.535 126143416 126210216 126300656 126390512 126461960 126504576 
2071.897 126516208 126499608 126459008 126397648 126317848 126223056 
2072.259 126119544 126017008 125927776 125862600 125828608 125827416 
2072.621 125855704 125906936 125973520 126048432 126123904 126191104 
2072.982 126240288 126261760 126250232 126208144 126147968 126088944 
2073.344 126052392 126054104 126097200 126170336 126250352 126312104 
2073.706 126334712 126310456 126246040 126160120 126075000 126008736 
2074.068 125970600 125958576 125962360 125967968 125964488 125947120 
2074.430 125919160 125890128 125873568 125882336 125924328 126000384 
2074.792 126102728 126216992 126323744 126404712 126446488 126443208 
2075.153 126398056 126321832 126230448 126140152 126066592 126022128 
2075.515 126014240 126045096 126109480 126194608 126278992 126337480 
2075.877 126347272 126294488 126181904 126030600 125877400 125761560 
2076.239 125716616 125758064 125879144 126053232 126243264 126415168 
2076.601 126543376 126617720 126640600 126621784 126571848 126499440 
2076.962 126411768 126316328 126224272 126150560 126109752 126112768 
2077.324 126161488 126247984 126355608 126464880 126559528 126628624 
2077.686 126668848 126681904 126671432 126640168 126589264 126519072 
2078.048 126430768 126327992 126216936 126105152 126000728 125910696 
2078.410 125840064 125792304 125768648 125767896 125785744 125815216 
2078.771 125847208 125872224 125883672 125879232 125861928 125838784 
2079.133 125819272 125812424 125824488 125858784 125915392 125991920 
2079.495 126083704 126184720 126287640 126384688 126469728 126539208 
2079.857 126593120 126634128 126665584 126688728 126701552 126699112 
2080.219 126677000 126635352 126582032 126531832 126502784 126510536 
2080.581 126560840 126646840 126749696 126845976 126912864 126935856 
2080.942 126912024 126848392 126757832 126653496 126546656 126444568 
2081.304 126351976 126273328 126213376 126177304 126169704 126192952 
2081.666 126246968 126328968 126434032 126554240 126678208 126791632 
2082.028 126876848 126918032 126906040 126843032 126744152 126634880 
2082.390 126544920 126496160 126497392 126540384 126605288 126667016 
2082.751 126705984 126714744 126697752 126667072 126634568 126607112 
2083.113 126584016 126560304 126531592 126498568 126467768 126448736 
2083.475 126448240 126467192 126499632 126536864 126571864 126604040 
2083.837 126638896 126684344 126743672 126810576 126867272 126890888 
2084.199 126860552 126766864 126617432 126436984 126261304 126124440 
2084.561 126052840 126056184 126126944 126242736 126374128 126492688 
2084.922 126575072 126609824 126597512 126550096 126485728 126425088 
2085.284 126385240 126374312 126390656 126423448 126457928 126479368 
2085.646 126479032 126456320 126418112 126375352 126339064 126317568 
2086.008 126314272 126328184 126354784 126387632 126418248 126436840 
2086.370 126434120 126402056 126337384 126243360 126130464 126013632 
2086.731 125908072 125825720 125771168 125742264 125732576 125735808 
2087.093 125748216 125769272 125799368 125836208 125872080 125895024 
2087.455 125890792 125849312 125769016 125658720 125535200 125418688 
2087.817 125328224 125275792 125266384 125298920 125369064 125471304 
2088.179 125599864 125748736 125909640 126072184 126224848 126355704 
2088.541 126455792 126520464 126550080 126549728 126528464 126497976 
2088.902 126469536 126452768 126452464 126466712 126486472 126498000 
2089.264 126488000 126447744 126378136 126289728 126200544 126128072 
2089.626 126083992 126069944 126077936 126093512 126100544 126085368 
2089.988 126034640 125933560 125764704 125508032 125150128 124694344 
2090.350 124171832 123640536 123178008 122865752 122759112 122874576 
2090.711 123179776 123607744 124070736 124489600 124816592 125037688 
2091.073 125170528 125247032 125299680 125347160 125393168 125431640 
2091.435 125455536 125463160 125460336 125456544 125460808 125477272 
2091.797 125505104 125540784 125581368 125625952 125674056 125723032 
2092.159 125765856 125791448 125789168 125753576 125688192 125604736 
2092.521 125519808 125448304 125397504 125366704 125349760 125340824 
2092.882 125338704 125348432 125377992 125433560 125514320 125611336 
2093.244 125709792 125795752 125860144 125901528 125924208 125934440 
2093.606 125935984 125928688 125910008 125878736 125837544 125793480 
2093.968 125754088 125723192 125697400 125667232 125621216 125552928 
2094.330 125466360 125377184 125308488 125280856 125306328 125381968 
2094.691 125491960 125611712 125717968 125795480 125839760 125856712 
2095.053 125858688 125860304 125873488 125907008 125965280 126048000 
2095.415 126149704 126259128 126360952 126436464 126469424 126450672 
2095.777 126381032 126271744 126141456 126011784 125899776 125815824 
2096.139 125762424 125736056 125730256 125738424 125755600 125777872 
2096.500 125802224 125826208 125848168 125867976 125887080 125907520 
2096.862 125929976 125952288 125968904 125973152 125959968 125929632 
2097.224 125888760 125849680 125825664 125825424 125849760 125890304 
2097.586 125932528 125960024 125961192 125931912 125876120 125802680 
2097.948 125722168 125643416 125571640 125510104 125461864 125431328 
2098.310 125425072 125449744 125509168 125601856 125719560 125848120 
2098.671 125969296 126066520 126127488 126147440 126130088 126086272 
2099.033 126030672 125976360 125931952 125898072 125867872 125829312 
2099.395 125771152 125688400 125586592 125481576 125396960 125357424 
2099.757 125378944 125464208 125599200 125758240 125908344 126020552 
2100.119 126078360 126080256 126039800 125979312 125923824 125891296 
2100.480 125889472 125914488 125954704 125994720 126021064 126026312 
2100.842 126009008 125972640 125922368 125863104 125798080 125729552 
2101.204 125660824 125597440 125547168 125518472 125516280 125539328 
2101.566 125578376 125619096 125645040 125644216 125613888 125561440 
2101.928 125501928 125451696 125423744 125422088 125441944 125472184 
2102.290 125501192 125520680 125527712 125524176 125513848 125500032 
2102.651 125484352 125468496 125456104 125453712 125470000 125510992 
2103.013 125575512 125651224 125716840 125746624 125718720 125625048 
2103.375 125474928 125294800 125118328 124980000 124903136 124894208 
2103.737 124943760 125030976 125132144 125225496 125297872 125344688 
2104.099 125368496 125375944 125375336 125374792 125380584 125397352 
2104.460 125427608 125471656 125527840 125593120 125664008 125736992 
2104.822 125809192 125878144 125941184 125995464 126037664 126064240 
2105.184 126072096 126058496 126021320 125959480 125873768 125768632 
2105.546 125653032 125542208 125454568 125407360 125411672 125466160 
2105.908 125555408 125651640 125725184 125751416 125720768 125641744 
2106.270 125538864 125443632 125382368 125370544 125407216 125478648 
2106.631 125563344 125641400 125698664 125728296 125729960 125707152 
2106.993 125665520 125611984 125555848 125508336 125479840 125477504 
2107.355 125501080 125542192 125585632 125615848 125622848 125606216 
2107.717 125575312 125545432 125531312 125540296 125570472 125611856 
2108.079 125652272 125681360 125694968 125694816 125685984 125673240 
2108.440 125658896 125643032 125625248 125606480 125589464 125576976 
2108.802 125569528 125563576 125552856 125530904 125496024 125453640 
2109.164 125416664 125400712 125417968 125472504 125557696 125658568 
2109.526 125756248 125835648 125888272 125913464 125916112 125903184 
2109.888 125880888 125853272 125823720 125795736 125773240 125759648 
2110.250 125755528 125757304 125757376 125747384 125721552 125679840 
2110.611 125628336 125577408 125537376 125514040 125507616 125513328 
2110.973 125525216 125539120 125555056 125576248 125606552 125646840 
2111.335 125693224 125736872 125767576 125776168 125757648 125712360 
2111.697 125645224 125564048 125477296 125394024 125322560 125270072 
2112.059 125242232 125241344 125265552 125308344 125360824 125413448 
2112.420 125458936 125494416 125520832 125541480 125559328 125575704 
2112.782 125589712 125599576 125604408 125605480 125606176 125610888 
2113.144 125623080 125644272 125673952 125710632 125752856 125799688 
2113.506 125850400 125903176 125954512 125999712 126033856 126054056 
2113.868 126060368 126055488 126042776 126024200 125999000 125964520 
2114.229 125918328 125861208 125797920 125736752 125685672 125648240 
2114.591 125621624 125597168 125564600 125515936 125449360 125368592 
2114.953 125279224 125183184 125075312 124943944 124777440 124571416 
2115.315 124336592 124098624 123895832 123766000 123733456 123801864 
2115.677 123951248 124144848 124337904 124494416 124593504 124633424 
2116.039 124628384 124602520 124582136 124587704 124633200 124723816 
2116.400 124857328 125025088 125214056 125408840 125592632 125751560 
2116.762 125875976 125961736 126009904 126024912 126012080 125975616 
2117.124 125918712 125844600 125757968 125666856 125581888 125513840 
2117.486 125471800 125459360 125473584 125505016 125540696 125566200 
2117.848 125568856 125541080 125481088 125393896 125289856 125184296 
2118.209 125093848 125032536 125010248 125029232 125084312 125163752 
2118.571 125253216 125338072 125405768 125448048 125459984 125439688 
2118.933 125387944 125308360 125207672 125095280 124983184 124882776 
2119.295 124802448 124746192 124712952 124698488 124697992 124708840 
2119.657 124731176 124766896 124817016 124879408 124948024 125014896 
2120.019 125072568 125117720 125152168 125181808 125212920 125248544 
2120.380 125286440 125320168 125342072 125347904 125339840 125326968 
2120.742 125322104 125336096 125374048 125431976 125498096 125555240 
2121.104 125586864 125581232 125533496 125446672 125330336 125199024 
2121.466 125068408 124954592 124871520 124827928 124827064 124865224 
2121.828 124933272 125017768 125105112 125184504 125248984 125296656 
2122.189 125329064 125349976 125363512 125374136 125386664 125405968 
2122.551 125436760 125481728 125539544 125603336 125661232 125699384 
2122.913 125704696 125670296 125597848 125498368 125388720 125288656 
2123.275 125216128 125182160 125190264 125235416 125306400 125386688 
2123.637 125458184 125504744 125513176 125477112 125397880 125284816 
2123.999 125152792 125019664 124902712 124813592 124757472 124732040 
2124.360 124729920 124740760 124754976 124766560 124773480 124777848 
2124.722 124784136 124797440 124821208 124856224 124900296 124949360 
2125.084 124998696 125044640 125085824 125122984 125158112 125192784 
2125.446 125226952 125258376 125283400 125298096 125299872 125287984 
2125.808 125262960 125225312 125174704 125110104 125031576 124942936 
2126.169 124853544 124776896 124728824 124720944 124755840 124824688 
2126.531 124909760 124990672 125051096 125086224 125103552 125119592 
2126.893 125150472 125205296 125280344 125361136 125427160 125461744 
2127.255 125459496 125428160 125385368 125350656 125338592 125352096 
2127.617 125382728 125414168 125430328 125420048 125381152 125319720 
2127.979 125247544 125177768 125120672 125083048 125067112 125071440 
2128.340 125091896 125122968 125158688 125193456 125223376 125246552 
2128.702 125262696 125272216 125275088 125270408 125257016 125235264 
2129.064 125208752 125184568 125172384 125180216 125210552 125257512 
2129.426 125307776 125343744 125349120 125315848 125246192 125152960 
2129.788 125053912 124968128 124909824 124885648 124895576 124934472 
2130.149 124994704 125066944 125141784 125209616 125261576 125292056 
2130.511 125300200 125291144 125273880 125258944 125253408 125258224 
2130.873 125268272 125275440 125273768 125262728 125248312 125239840 
2131.235 125245192 125265248 125292264 125311664 125308888 125274016 
2131.597 125206472 125114176 125010672 124909288 124819136 124745368 
2131.958 124690752 124658864 124656168 124689952 124764744 124877624 
2132.320 125016872 125162552 125292320 125389488 125446168 125465456 
2132.682 125457528 125434864 125406216 125374400 125337824 125293992 
2133.044 125243424 125191408 125146304 125116752 125107736 125118496 
2133.406 125142592 125170280 125191784 125198536 125184984 125148792 
2133.768 125091008 125016632 124935008 124859912 124805496 124783040 
2134.129 124795576 124835504 124884800 124920464 124923912 124886456 
2134.491 124814520 124726744 124649352 124605200 124606832 124653536 
2134.853 124733008 124826400 124914064 124982088 125022344 125032512 
2135.215 125014016 124970968 124909592 124838088 124767216 124707648 
2135.577 124667008 124647712 124645768 124652728 124659688 124662336 
2135.938 124662720 124668496 124687488 124722672 124767424 124806888 
2136.300 124821176 124794760 124723576 124618680 124503680 124407520 
2136.662 124356832 124365416 124432480 124543480 124678112 124815968 
2137.024 124943608 125057064 125159384 125256112 125349888 125437272 
2137.386 125508616 125551272 125553656 125510848 125426816 125314776 
2137.748 125192416 125078640 124988000 124926936 124894448 124883944 
2138.109 124888000 124901136 124922384 124954120 124999152 125056960 
2138.471 125121504 125181048 125222336 125234392 125213432 125164768 
2138.833 125102240 125044088 125006312 124999592 125025136 125075216 
2139.195 125134432 125184528 125208152 125191408 125128272 125021584 
2139.557 124884328 124736616 124604152 124511976 124476944 124504608 
2139.918 124585912 124700768 124821584 124923408 124990264 125018056 
2140.280 125014648 124995304 124977280 124972952 124988232 125021976 
2140.642 125068456 125119736 125168216 125207984 125234352 125244376 
2141.004 125237032 125213616 125177920 125135568 125092600 125052960 
2141.366 125017472 124983576 124947088 124904376 124854520 124800120 
2141.728 124746440 124699104 124661920 124636056 124620224 124612280 
2142.089 124610432 124614256 124624136 124640296 124662144 124688264 
2142.451 124717408 124749464 124785440 124826224 124870488 124912760 
2142.813 124943880 124953784 124935232 124888648 124823616 124757720 
2143.175 124709528 124693824 124715488 124768552 124838488 124908448 
2143.537 124965960 125005016 125026792 125035760 125035904 125027496 
2143.898 125007640 124973048 124923848 124865936 124810784 124771032 
2144.260 124757224 124773368 124816024 124875600 124940112 124999008 
2144.622 125044216 125071440 125079224 125068184 125041320 125004704 
2144.984 124968520 124944648 124945008 124976304 125036144 125111120 
2145.346 125179120 125216192 125201536 125126320 124996088 124830904 
2145.708 124658600 124509064 124407752 124368464 124393176 124471856 
2146.069 124587208 124716976 124839608 124938744 125003720 125031592 
2146.431 125025632 124993216 124942224 124878928 124806776 124726760 
2146.793 124639712 124548672 124460080 124383992 124331456 124310448 
2147.155 124323496 124365656 124425928 124489240 124541648 124573368 
2147.517 124580336 124564432 124531648 124489944 124446424 124406840 
2147.878 124374992 124352768 124341032 124339864 124349120 124368688 
2148.240 124398744 124439624 124491376 124552920 124621048 124689616 
2148.602 124750760 124795704 124817664 124814632 124790824 124756664 
2148.964 124725800 124712864 124728264 124775160 124848376 124935656 
2149.326 125020384 125084784 125115576 125105560 125055664 124973968 
2149.688 124874384 124773112 124684112 124617384 124575872 124555712 
2150.049 124547320 124539232 124521688 124489432 124443992 124393224 
2150.411 124349448 124324792 124328672 124364592 124429416 124514208 
2150.773 124606832 124695552 124769944 124823224 124851560 124852744 
2151.135 124825496 124769064 124684600 124576432 124454304 124333784 
2151.497 124232672 124169120 124155064 124192088 124269696 124367568 
2151.858 124461680 124529184 124556912 124543648 124499856 124442232 
2152.220 124388840 124353176 124340264 124347296 124365560 124384792 
2152.582 124395208 124390232 124367112 124326752 124273384 124214192 
2152.944 124159040 124117720 124098064 124102904 124128448 124164440 
2153.306 124197496 124216696 124217184 124202856 124184112 124173928 
2153.667 124180776 124204456 124235248 124258344 124259776 124232776 
2154.029 124181416 124119784 124067424 124041288 124052736 124104192 
2154.391 124191152 124305088 124437160 124579648 124724664 124863280 
2154.753 124984576 125076288 125129184 125140040 125114488 125065352 
2155.115 125010216 124965152 124939392 124934160 124943352 124957848 
2155.477 124969312 124973736 124971536 124965264 124956296 124942296 
2155.838 124916296 124869296 124792712 124682408 124541072 124379128 
2156.200 124213104 124061616 123943576 123872376 123853352 123882312 
2156.562 123946560 124027704 124105784 124166592 124204184 124223096 
2156.924 124235280 124256088 124297336 124362160 124443696 124527056 
2157.286 124594952 124631936 124630312 124590816 124521752 124434784 
2157.647 124342680 124256904 124185960 124136944 124115240 124124200 
2158.009 124164368 124232168 124319608 124414200 124501656 124568304 
2158.371 124602488 124597808 124553392 124474944 124373704 124266608 
2158.733 124173600 124112504 124096248 124127200 124195744 124280672 
2159.095 124355736 124397648 124392208 124340232 124256688 124166296 
2159.457 124093152 124055032 124057656 124094752 124151352 124209992 
2159.818 124256632 124281896 124282600 124259768 124217512 124162160 
2160.180 124102720 124051944 124023952 124032608 124087008 124187472 
2160.542 124323720 124476224 124622344 124739936 124814664 124842776 
2160.904 124830416 124790352 124737104 124683656 124637440 124600600 
2161.266 124570920 124544192 124515896 124482800 124443592 124398224 
2161.627 124347168 124290296 124226048 124151624 124063800 123960584 
2161.989 123843152 123717088 123593016 123483888 123403528 123363368 
2162.351 123369360 123422072 123516664 123644928 123795744 123956816 
2162.713 124115008 124255536 124364672 124431344 124450096 124423752 
2163.075 124363960 124289472 124219696 124171416 124153512 124165560 
2163.437 124199888 124245840 124294712 124341600 124386576 124432424 
2163.798 124482024 124536336 124593960 124652424 124709808 124765512 
2164.160 124819824 124872344 124920448 124958744 124980896 124981384 
2164.522 124958648 124916184 124862328 124807384 124760912 124729712 
2164.884 124715912 124717656 124729928 124746344 124759656 124763232 
2165.246 124752472 124725856 124686328 124641160 124601176 124576744 
2165.607 124574528 124594840 124631320 124673136 124708992 124732096 
2165.969 124741296 124740464 124734576 124726296 124713728 124692072 
2166.331 124657352 124611624 124564936 124534720 124538240 124586152 
2166.693 124675552 124789488 124899416 124974136 124991400 124942232 
2167.055 124834808 124689424 124533656 124392136 124280952 124206112 
2167.417 124163696 124143640 124133760 124124776 124112152 124097792 
2167.778 124088656 124094936 124125296 124182392 124259384 124339544 
2168.140 124400408 124418528 124379800 124284800 124151584 124009712 
2168.502 123893680 123832304 123838624 123908768 124023464 124157384 
2168.864 124284432 124386104 124453432 124484728 124482528 124450448 
2169.226 124392288 124312528 124218128 124119624 124028856 123957440 
2169.587 123913384 123898904 123911208 123944296 123992032 124049184 
2169.949 124112072 124177248 124239624 124292680 124329192 124343576 
2170.311 124334480 124305776 124265888 124224680 124191760 124173896 
2170.673 124174312 124193744 124231208 124284440 124349104 124418304 
2171.035 124482136 124528160 124545232 124525920 124469536 124382512 
2171.396 124277296 124168560 124068368 123984632 123919384 123870104 
2171.758 123831920 123800200 123772024 123746464 123724152 123706520 
2172.120 123695072 123690736 123693904 123704040 123719960 123739904 
2172.482 123762280 123786408 123812816 123842936 123877752 123916248 
2172.844 123954360 123985264 124001216 123997624 123975704 123944400 
2173.206 123917496 123910840 123935680 123994112 124077576 124169184 
2173.567 124249680 124301736 124316288 124293200 124239872 124166880 
2173.929 124084928 124002432 123924648 123855456 123798584 123757856 
2174.291 123736976 123737744 123758936 123795680 123840672 123885688 
2174.653 123922824 123946336 123952744 123941128 123913144 123873376 
2175.015 123829336 123789752 123763704 123757184 123770648 123797928 
2175.376 123827456 123845784 123840616 123805568 123741064 123653736 
2175.738 123553152 123449576 123351776 123266048 123197888 123152352 
2176.100 123133672 123144000 123180832 123235968 123295368 123343688 
2176.462 123368760 123365992 123340904 123307664 123284880 123287624 
2176.824 123323832 123390904 123478072 123569600 123651352 123715312 
2177.186 123760808 123793752 123823224 123858168 123903552 123959512 
2177.547 124021232 124081304 124131224 124163968 124176256 124169048 
2177.909 124148232 124122992 124105104 124105368 124130928 124183592 
2178.271 124258560 124345280 124429032 124495504 124532856 124534672 
2178.633 124501312 124439400 124359944 124274752 124194752 124126616 
2178.995 124071704 124026488 123984328 123938048 123882160 123815168 
2179.356 123739776 123662312 123590056 123529984 123486688 123461624 
2179.718 123453392 123458408 123471896 123488080 123501184 123506304 
2180.080 123500176 123482984 123459016 123436928 123426936 123438584 
2180.442 123476576 123538312 123613256 123685608 123739776 123763720 
2180.804 123754112 123716432 123663512 123609944 123567984 123543872 
2181.166 123536424 123538440 123539688 123531392 123508224 123470456 
2181.527 123423456 123377000 123342680 123330888 123349432 123400352 
2181.889 123479368 123575240 123672944 123755664 123808584 123823512 
2182.251 123799584 123743848 123668104 123586632 123511648 123450632 
2182.613 123406192 123376448 123357648 123346240 123341176 123344184 
2182.975 123358992 123388920 123434360 123490312 123546416 123587208 
2183.336 123596280 123561704 123479664 123357840 123214216 123075120 
2183.698 122966360 122907856 122908984 122966520 123067072 123191736 
2184.060 123323160 123447664 123557736 123651000 123727568 123788224 
2184.422 123833768 123865768 123887336 123903552 123920248 123941248 
2184.784 123966312 123989888 124003264 123996944 123964928 123907200 
2185.146 123829736 123742048 123653144 123569576 123493704 123425656 
2185.507 123366016 123318112 123288584 123285656 123315192 123377944 
2185.869 123467720 123573672 123682128 123781432 123864840 123930304 
2186.231 123979352 124014336 124036416 124044816 124037904 124015224 
2186.593 123978928 123934384 123889176 123850184 123822192 123805896 
2186.955 123798120 123792840 123783304 123764416 123733864 123693008 
2187.316 123646496 123601552 123565560 123544728 123542616 123559288 
2187.678 123591896 123635992 123687632 123744256 123805312 123871184 
2188.040 123941520 124013888 124083432 124143608 124188856 124216192 
2188.402 124226304 124222440 124208256 124185320 124151840 124103152 
2188.764 124034680 123945112 123838664 123725016 123616568 123525736 
2189.125 123460376 123422880 123410608 123418504 123441136 123473960 
2189.487 123513272 123554184 123589648 123611472 123611832 123587488 
2189.849 123542224 123488032 123441416 123418664 123430784 123478488 
2190.211 123551808 123631976 123698504 123732760 123723720 123670272 
2190.573 123580888 123471320 123360224 123267440 123208496 123192272 
2190.935 123219584 123282968 123368408 123458472 123538472 123598896 
2191.296 123638328 123662120 123679504 123698424 123721200 123742984 
2191.658 123753216 123740208 123695496 123619080 123520624 123418728 
2192.020 123334544 123287448 123288792 123337976 123421784 123517096 
2192.382 123598376 123641824 123634360 123577320 123487352 123391496 
2192.744 123319752 123297888 123337640 123434544 123568504 123712248 
2193.105 123836896 123921240 123956880 123947576 123906320 123849288 
2193.467 123792752 123748568 123723728 123721096 123739584 123774208 
2193.829 123815288 123850008 123862912 123839800 123772904 123663280 
2194.191 123522432 123368664 123224304 123108320 123032168 122999184 
2194.553 123005312 123042504 123101624 123175272 123257376 123342472 
2194.915 123425192 123499496 123559760 123602360 123625944 123631624 
2195.276 123621512 123597704 123561184 123512544 123453376 123387672 
2195.638 123322544 123267616 123231744 123221272 123237432 123276176 
2196.000 123329008 123385592 123436776 123475400 123497848 123503656 
2196.362 123494800 123474600 123447016 123415736 123383104 123349616 
2196.724 123314024 123274176 123228544 123178136 123127288 123083792 
2197.085 123056248 123051208 123070728 123110832 123162488 123213800 
2197.447 123254512 123278120 123283816 123275888 123262536 123253368 
2197.809 123256800 123279232 123322904 123385264 123458192 123529336 
2198.171 123584712 123611720 123604768 123567640 123514296 123463632 
2198.533 123435080 123440568 123479960 123540824 123602976 123646848 
2198.895 123658568 123635656 123585704 123522736 123460400 123407952 
2199.256 123368928 123342304 123325528 123317040 123316704 123324176 
2199.618 123336992 123350088 123356648 123351536 123334032 123308680 
2199.980 123282776 123262440 123248512 123235376 123213176 123173440 
2200.342 123115272 123048376 122991520 122964728 122982832 123047272 
2200.704 123145344 123252640 123343264 123398288 123410960 123388288 
2201.065 123346672 123305464 123278752 123273400 123288144 123317064 
2201.427 123352616 123388776 123421784 123448656 123466120 123470008 
2201.789 123455552 123419704 123362688 123289576 123209288 123133904 
2202.151 123076168 123046072 123050048 123088752 123157064 123243744 
2202.513 123333480 123409776 123456504 123462896 123425400 123348920 
2202.875 123245392 123131800 123026552 122944144 122893960 122877744 
2203.236 122890160 122919824 122952328 122973696 122972200 122942000 
2203.598 122883952 122805920 122720216 122641392 122582872 122552928 
2203.960 122554000 122581960 122628304 122681568 122730472 122766560 
2204.322 122784904 122785624 122773416 122756880 122745456 122746888 
2204.684 122764064 122793256 122824528 122845208 122846320 122826824 
2205.045 122797264 122776448 122787040 122844464 122949536 123084520 
2205.407 123218120 123314536 123344744 123299152 123190336 123050688 
2205.769 122918528 122829360 122802848 122838280 122917168 123011416 
2206.131 123094480 123147136 123163832 123151152 123124360 123100360 
2206.493 123093536 123111896 123155144 123215560 123279840 123333672 
2206.854 123363832 123362424 123328448 123267224 123187712 123098904 
2207.216 123007344 122915472 122823304 122731696 122645032 122572720 
2207.578 122527368 122519464 122553616 122624568 122718544 122815592 
2207.940 122896760 122949584 122969824 122961624 122933896 122896832 
2208.302 122858152 122822784 122793456 122771512 122757600 122750976 
2208.664 122748872 122746008 122736304 122715656 122683928 122646048 
2209.025 122609968 122583568 122570056 122566360 122563976 122553904 
2209.387 122530720 122496904 122462000 122440464 122445240 122482640 
2209.749 122550472 122638848 122734136 122822016 122891616 122935616 
2210.111 122949608 122931672 122882344 122805992 122711336 122612248 
2210.473 122524688 122461856 122431256 122431672 122454824 122488864 
2210.834 122524408 122557952 122592576 122634832 122690744 122761472 
2211.196 122842232 122923472 122994648 123048328 123080856 123092552 
2211.558 123085368 123061248 123021672 122968672 122906824 122843176 
2211.920 122786280 122743384 122717120 122704688 122699376 122695016 
2212.282 122689160 122685480 122691456 122714504 122756072 122809216 
2212.644 122859024 122889128 122888056 122855072 122801056 122745544 
2213.005 122709272 122705104 122734376 122785712 122840616 122878464 
2213.367 122885008 122856048 122797984 122724568 122652280 122595976 
2213.729 122563776 122556240 122566488 122583648 122595784 122594624 
2214.091 122578576 122553136 122528664 122515400 122519656 122540144 
2214.453 122568808 122594576 122610064 122616208 122624248 122650944 
2214.814 122713000 122817952 122959616 123117472 123262768 123368832 
2215.176 123416576 123401296 123331592 123226120 123106272 122992624 
2215.538 122902744 122848960 122838808 122873304 122945040 123036184 
2215.900 123120376 123170144 123162352 123089072 122960880 122806600 
2216.262 122662448 122561352 122523232 122548168 122619136 122709272 
2216.624 122794200 122857560 122895344 122913008 122920168 122924272 
2216.985 122927376 122926264 122914856 122887504 122840720 122774344 
2217.347 122691328 122597816 122502536 122417584 122357000 122333000 
2217.709 122353296 122416792 122513160 122623976 122729176 122813176 
2218.071 122868184 122895920 122904320 122902976 122898096 122891520 
2218.433 122882072 122868968 122854712 122845672 122849456 122871816 
2218.794 122913128 122968160 123027552 123082104 123125248 123153480 
2219.156 123165208 123158408 123129408 123074688 122994016 122894280 
2219.518 122789384 122699048 122641640 122627256 122654504 122710648 
2219.880 122777168 122835888 122876664 122898520 122907704 122912064 
2220.242 122916816 122921952 122924016 122919632 122909368 122898400 
2220.604 122895048 122906048 122933064 122971224 123011208 123042728 
2220.965 123057960 123053968 123031808 122994768 122946264 122889984 
2221.327 122830648 122774736 122731096 122707840 122708712 122730064 
2221.689 122760728 122785336 122789552 122766984 122721432 122666072 
2222.051 122616616 122586472 122581264 122598512 122630728 122670696 
2222.413 122715120 122764304 122819184 122876800 122927040 122955000 
2222.774 122945184 122888240 122786472 122654688 122516680 122396304 
2223.136 122313368 122277640 122289032 122340432 122421648 122522496 
2223.498 122632456 122741352 122838384 122912544 122955944 122965440 
2223.860 122944200 122899864 122842056 122778216 122711440 122641544 
2224.222 122567832 122492552 122422888 122369088 122340744 122342408 
2224.583 122370680 122414920 122461024 122498056 122521184 122533368 
2224.945 122542288 122556344 122579776 122611000 122643432 122669136 
2225.307 122682112 122679856 122663456 122635864 122600088 122558296 
2225.669 122512664 122466504 122424584 122392800 122375584 122373688 
2226.031 122382976 122395432 122402312 122397120 122378880 122352200 
2226.393 122325856 122308328 122305192 122316512 122337200 122358224 
2226.754 122369784 122364680 122339552 122296456 122242080 122186960 
2227.116 122142184 122116896 122115968 122138280 122177344 122223352 
2227.478 122267640 122304880 122334824 122360744 122386072 122410376 
2227.840 122427536 122426120 122394296 122325144 122220824 122093232 
2228.202 121961392 121846344 121763400 121720360 121716624 121746552 
2228.563 121802712 121878824 121970056 122070376 122171080 122260376 
2228.925 122324696 122354080 122345600 122305800 122248432 122191184 
2229.287 122150184 122134816 122147160 122182416 122232200 122286128 
2229.649 122334480 122369128 122383592 122374952 122345216 122302624 
2230.011 122259808 122231056 122226864 122248736 122287256 122324616 
2230.373 122342272 122326920 122277784 122206552 122134432 122082640 
2230.734 122065176 122084992 122134304 122199088 122264792 122321736 
2231.096 122365048 122393240 122405568 122400248 122375648 122332784 
2231.458 122277984 122222624 122179832 122160528 122168008 122196600 
2231.820 122233240 122263584 122276080 122266008 122235672 122192152 
2232.182 122143896 122098120 122061368 122040088 122041496 122073296 
2232.543 122140296 122241176 122365864 122497424 122615088 122699832 
2232.905 122740744 122735512 122689664 122611912 122511216 122394344 
2233.267 122266776 122136080 122013304 121912568 121849032 121832832 
2233.629 121866216 121942072 122047320 122166232 122285128 122395056 
2233.991 122489816 122563760 122610008 122619584 122584976 122504184 
2234.353 122384224 122241008 122096984 121976784 121899576 121877216 
2234.714 121912344 121999424 122125944 122273944 122422688 122547992 
2235.076 122627600 122646456 122600768 122501704 122373336 122247800 
2235.438 122152664 122103888 122100104 122125160 122154528 122166368 
2235.800 122150856 122112440 122067360 122034960 122031344 122062200 
2236.162 122122680 122200024 122279704 122349024 122399072 122425520 
2236.523 122426824 122404000 122360432 122302744 122240200 122182200 
2236.885 122136256 122104568 122083784 122066992 122048336 122026952 
2237.247 122008808 122004176 122023208 122069960 122139008 122215712 
2237.609 122280928 122318888 122320912 122288960 122232872 122166672 
2237.971 122102064 122045736 121998832 121958808 121922080 121886320 
2238.333 121851272 121818400 121790168 121769384 121759032 121761656 
2238.694 121777856 121804456 121833336 121852160 121846344 121805512 
2239.056 121727744 121623128 121510904 121415720 121359008 121350920 
2239.418 121388008 121454032 121527192 121585112 121612688 121604496 
2239.780 121563256 121496784 121414688 121326608 121240896 121165856 
2240.142 121110000 121080464 121082304 121116560 121179928 121265208 
2240.503 121363288 121465048 121561288 121643856 121705640 121741136 
2240.865 121748912 121733400 121705936 121681384 121674984 121695496 
2241.227 121740848 121797216 121843264 121858608 121829488 121755096 
2241.589 121646360 121522096 121400520 121294800 121211136 121150272 
2241.951 121111832 121097384 121110288 121153008 121222544 121308640 
2242.312 121393784 121459392 121492392 121489536 121458944 121416384 
2242.674 121379920 121362136 121368464 121397368 121443904 121503056 
2243.036 121571816 121648400 121729552 121808824 121877248 121925112 
2243.398 121946624 121941968 121917288 121880656 121838056 121789704 
2243.760 121730232 121651696 121549400 121426176 121294240 121171968 
2244.122 121077496 121024448 121016656 121048744 121108400 121182088 
2244.483 121258240 121329296 121392336 121447304 121495640 121539096 
2244.845 121579360 121617448 121653224 121684768 121708528 121720456 
2245.207 121717800 121701440 121676776 121653064 121639480 121641992 
2245.569 121659536 121683896 121700824 121694696 121654080 121573984 
2245.931 121458080 121317192 121168448 121031192 120924896 120867784 
2246.292 120872256 120942984 121073896 121248888 121442592 121626320 
2246.654 121776584 121878224 121928880 121936544 121915504 121879608 
2247.016 121838272 121796544 121756608 121721800 121698984 121697048 
2247.378 121723968 121781552 121862672 121950072 122020168 122049776 
2247.740 122018944 121916744 121742328 121505416 121225072 120929384 
2248.102 120655392 120441256 120323112 120325448 120452568 120685688 
2248.463 120984976 121302296 121588488 121809056 121950400 122017968 
2248.825 122030176 122009128 121974808 121940080 121912888 121898888 
2249.187 121902560 121926544 121968368 122018520 122059904 122072728 
2249.549 122041728 121960160 121832472 121670176 121486408 121289224 
2249.911 121080712 120861088 120635184 120419184 120241624 120134376 
2250.272 120124968 120222952 120415296 120667240 120934208 121175872 
2250.634 121363672 121488552 121557144 121585648 121591256 121589296 
2250.996 121592184 121609448 121649216 121715680 121805880 121907152 
2251.358 121998968 122059504 122071368 122029312 121939504 121814400 
2251.720 121662760 121483176 121263344 120989224 120657224 120287312 
2252.082 119923104 119628736 119467184 119478064 119666040 119995888 
2252.443 120405064 120817888 121172968 121432808 121588240 121653184 
2252.805 121654880 121623744 121584600 121556832 121552192 121574424 
2253.167 121618728 121671712 121714560 121727288 121697616 121625616 
2253.529 121523936 121409904 121295864 121178368 121036920 120838696 
2253.891 120555080 120178896 119735368 119281480 118889568 118633320 
2254.252 118560000 118680184 118966000 119364280 119810288 120242976 
2254.614 120620616 120918960 121131240 121262752 121326712 121340592 
2254.976 121322616 121291392 121261160 121240016 121230192 121229928 
2255.338 121237528 121254240 121283544 121326336 121372984 121399768 
2255.700 121366752 121228464 120951688 120529072 119992072 119406824 
2256.062 118867232 118463736 118263328 118293544 118535824 118933432 
2256.423 119406808 119880584 120291392 120601656 120801184 120901016 
2256.785 120926208 120905960 120869608 120838672 120825192 120832336 
2257.147 120855904 120888472 120922664 120953600 120976792 120984040 
2257.509 120959856 120877336 120702640 120405872 119971392 119412144 
2257.871 118773520 118134488 117585992 117215576 117088112 117226416 
2258.232 117609888 118177712 118849696 119534552 120151568 120645384 
2258.594 120985464 121170560 121222000 121178240 121082200 120973736 
2258.956 120883920 120828512 120810016 120820192 120845864 120871208 
2259.318 120879488 120852736 120767136 120594384 120307032 119885160 
2259.680 119330360 118673904 117983304 117347384 116864712 116621216 
2260.042 116662216 116984704 117533200 118219920 118937200 119589304 
2260.403 120114376 120487376 120721560 120853264 120927560 120978752 
2260.765 121024264 121064464 121090240 121093024 121073192 121040856 
2261.127 121010704 120990040 120968624 120912248 120769320 120487360 
2261.489 120029648 119398128 118641464 117856096 117158016 116664656 
2261.851 116464144 116589384 117014872 117661360 118424176 119186888 
2262.212 119854640 120370968 120718056 120915264 121004352 121036760 
2262.574 121054176 121082232 121126736 121177248 121214496 121219920 
2262.936 121183232 121102768 120981952 120821440 120611344 120329408 
2263.298 119947144 119441160 118811304 118092576 117361528 116716648 
2263.660 116264584 116088800 116221536 116636392 117251264 117957656 
2264.021 118638536 119206840 119622040 119889672 120050448 120158784 
2264.383 120263776 120390624 120539872 120692776 120825720 120920232 
2264.745 120971056 120984000 120967424 120919840 120822000 120633128 
2265.107 120303008 119789264 119077040 118196560 117229208 116301584 
2265.469 115548088 115091936 115007296 115299128 115903200 116703936 
2265.831 117573296 118390592 119079416 119613768 120008784 120301240 
2266.192 120527832 120710144 120849072 120933208 120951840 120906704 
2266.554 120815576 120705432 120596792 120490792 120359640 120152552 
2266.916 119806416 119274560 118547176 117668368 116730568 115865344 
2267.278 115216176 114893792 114960176 115405032 116153904 117078720 
2267.640 118035688 118903144 119595512 120084616 120389776 120561288 
2268.001 120652512 120703928 120734280 120743576 120726000 120682528 
2268.363 120625264 120572776 120534336 120495184 120406240 120193976 
2268.725 119783872 119126672 118231040 117175008 116103712 115183992 
2269.087 114576360 114387184 114637640 115263208 116131736 117091456 
2269.449 117994960 118744432 119302944 119685336 119938120 120113408 
2269.811 120250672 120364536 120451440 120501128 120509800 120485528 
2270.172 120444072 120395296 120329160 120207008 119969424 119548768 
2270.534 118902256 118035528 117020600 115982856 115082768 114479752 
2270.896 114278824 114513424 115130208 116013792 117007176 117960464 
2271.258 118769160 119380448 119799592 120068664 120245616 120377696 
2271.620 120492448 120597480 120687784 120755600 120795872 120804664 
2271.981 120770696 120667088 120452280 120073280 119487784 118685856 
2272.343 117709304 116654024 115658424 114883296 114459016 114462632 
2272.705 114891624 115668800 116656008 117692608 118643888 119414520 
2273.067 119971072 120331744 120547544 120674600 120754944 120810376 
2273.429 120843080 120846920 120817312 120755408 120663904 120537608 
2273.791 120356696 120083352 119673016 119094312 118347224 117478960 
2274.152 116581280 115784016 115214440 114971600 115100104 115576528 
2274.514 116315600 117190792 118076752 118864376 119488440 119932192 
2274.876 120215832 120379808 120464680 120502120 120507392 120484288 
2275.238 120431632 120348032 120231688 120075304 119862112 119562824 
2275.600 119142984 118579032 117873880 117071936 116256224 115545160 
2275.961 115056736 114880160 115054504 115553888 116295432 117157928 
2276.323 118023472 118792640 119405824 119846736 120129528 120284752 
2276.685 120343744 120335304 120282384 120205424 120125448 120058744 
2277.047 120010640 119966968 119893848 119741280 119458624 119017160 
2277.409 118423912 117731416 117025096 116414080 115997144 115837536 
2277.771 115952680 116308968 116835480 117439624 118038512 118569424 
2278.132 118999512 119325608 119564000 119739376 119873384 119981816 
2278.494 120072256 120146248 120201104 120230032 120220600 120152360 
2278.856 120000760 119742504 119366480 118884680 118339904 117804304 
2279.218 117359536 117085600 117032568 117206080 117564432 118031312 
2279.580 118519600 118948848 119271640 119476200 119581560 119621080 
2279.941 119628808 119627464 119624304 119616336 119596728 119560240 
2280.303 119503080 119420096 119301480 119131544 118895320 118587344 
2280.665 118221400 117832536 117475120 117211536 117091368 117142960 
2281.027 117363264 117722056 118167960 118643792 119100192 119497744 
2281.389 119814016 120040648 120180744 120246008 120254952 120230912 
2281.750 120195864 120167600 120153616 120148504 120134496 120086992 
2282.112 119983984 119812152 119574144 119288408 118987464 118707944 
2282.474 118483976 118341400 118291528 118332272 118449248 118621928 
2282.836 118826168 119039944 119247448 119438488 119608936 119758312 
2283.198 119886808 119993384 120075152 120128288 120150360 120141600 
2283.560 120105888 120048984 119977416 119896864 119811608 119726904 
2283.921 119650504 119593104 119568088 119586264 119651392 119756088 
2284.283 119882576 120005816 120099792 120146752 120139112 120080176 
2284.645 119978608 119843320 119678384 119483296 119257544 119007136 
2285.007 118749304 118514744 118339344 118255760 118283552 118421144 
2285.369 118645888 118919424 119201584 119456192 119659712 119801920 
2285.730 119879312 119888800 119822712 119667832 119412336 119054864 
2286.092 118614664 118132992 117671832 117302600 117083168 117048272 
2286.454 117196320 117493096 117879096 118289488 118672936 118996056 
2286.816 119247600 119428168 119537560 119566048 119492872 119293744 
2287.178 118955848 118488856 117930976 117338072 116775304 116295664 
2287.540 115926968 115672960 115519720 115450808 115458456 115548760 
2287.901 115736008 116030512 116425944 116892480 117378904 117829696 
2288.263 118194656 118445600 118581728 118626520 118617656 118593304 
2288.625 118584760 118605928 118651608 118696848 118703720 118626192 
2288.987 118420824 118062280 117551488 116922960 116235808 115567152 
2289.349 114987600 114541944 114243952 114076472 114007160 114005272 
2289.710 114059248 114179704 114392544 114720856 115170024 115715848 
2290.072 116308776 116877920 117347976 117655480 117749688 117602968 
2290.434 117212368 116605008 115839928 115009896 114239104 113651608 
2290.796 113355960 113414080 113822600 114512952 115368360 116263400 
2291.158 117080952 117744824 118224392 118522376 118658992 118653792 
2291.520 118515288 118237976 117806648 117203160 116415336 115443440 
2291.881 114310504 113067512 111807312 110658368 109762704 109261552 
2292.243 109244920 109724576 110618448 111772464 112993504 114096944 
2292.605 114967984 115572336 115957072 116211936 116436016 116694832 
2292.967 117002424 117326000 117603840 117769216 117760880 117537432 
2293.329 117077056 116381480 115481800 114449040 113398568 112465592 
2293.690 111791624 111476256 111540624 111912424 112438992 112937304 
2294.052 113234176 113236152 112951120 112487136 112003552 111663512 
2294.414 111576272 111756176 112120896 112514848 112771656 112750912 
2294.776 112396984 111755432 110971768 110247440 109785032 109746464 
2295.138 110195080 111088592 112287376 113609792 114866416 115910616 
2295.500 116669880 117134272 117339656 117333888 117158264 116834472 
2295.861 116370336 115771424 115046672 114206104 113251368 112169672 
2296.223 110938760 109549648 108034600 106495560 105104800 104060472 
2296.585 103554448 103695040 104472040 105751280 107322120 108961688 
2296.947 110487032 111809896 112923224 113866912 114674184 115335448 
2297.309 115788032 115948976 115751944 115195816 114356400 113380888 
2297.670 112437528 111668672 111165536 110948096 110984304 111215336 
2298.032 111587008 112057104 112592096 113153960 113675888 114054624 
2298.394 114163464 113857984 113019896 111590408 109598320 107175512 
2298.756 104554576 102058136 100016888 98736096 98423720 99134384 100762624 
2299.178 103059568 105713560 108386656 110809344 112822392 114368184 
2299.540 115476608 116217440 116662456 116851928 116793184 116470264 
2299.902 115865776 114980480 113850664 112550144 111200744 109958752 
2300.263 108988008 108444840 108418928 108894432 109713208 110595368 
2300.625 111176088 111083840 110077936 108114392 105407944 102371368 
2300.987 99566336 97536224 96646384 97026616 98521280 100767496 103276168 
2301.409 105611864 107483160 108791096 109619752 110162576 110626144 
2301.771 111132240 111691176 112207040 112546408 112599264 112348344 
2302.133 111880344 111368096 110997008 110901528 111122312 111592024 
2302.495 112158320 112621008 112792024 112498376 111597616 109988176 
2302.856 107611464 104495688 100791760 96829664 93086688 90113408 88454488 
2303.279 88454504 90176576 93348488 97457008 101838624 105854720 109069816 
2303.701 111261760 112435400 112731784 112352408 111484520 110286368 
2304.062 108929088 107607192 106549680 105992296 106089832 106869744 
2304.424 108198792 109834992 111477352 112860368 113814352 114237032 
2304.786 114055976 113171120 111419904 108632440 104725168 99821472 94305032 
2305.208 88825096 84200144 81158272 80222184 81531336 84829768 89514808 
2305.630 94810896 99983664 104403824 107694080 109721216 110552480 110393280 
2306.052 109531680 108302376 107015400 105955984 105343040 105290864 
2306.414 105809048 106797016 108081056 109432136 110625096 111473840 
2306.776 111831112 111604624 110735232 109175632 106884200 103825520 
2307.138 99999784 95481784 90481568 85379888 80684032 77026712 75000936 
2307.560 75003584 77133824 81103984 86291256 91824568 96876160 100808496 
2307.982 103329680 104532464 104806264 104675728 104586056 104830576 
2308.344 105479032 106433256 107504112 108504960 109295944 109776064 
2308.706 109877864 109549200 108763136 107540944 105964496 104152920 
2309.068 102192672 100072712 97639256 94649656 90866464 86240272 81024912 
2309.490 75842696 71520568 68884408 68520432 70530176 74503616 79613544 
2309.912 84948928 89697400 93405744 96039512 97886248 99372080 100854040 
2310.334 102527408 104373312 106227824 107860688 109074280 109726832 
2310.696 109738400 109089664 107823656 106067960 104026832 101976288 
2311.058 100167224 98711080 97491856 96145800 94163664 91036608 86519568 
2311.480 80771416 74422520 68379256 63658524 61078884 61002280 63303500 
2311.902 67423128 72622176 78133504 83410520 88191680 92439512 96243600 
2312.324 99689760 102774360 105388416 107351312 108480576 108671776 
2312.686 107929592 106389368 104285088 101947368 99737232 97974536 96892136 
2313.108 96528608 96681048 96868608 96449680 94728768 91154376 85547344 
2313.530 78203280 69925032 61799544 55084692 50844320 49692732 51734272 
2313.952 56544668 63352000 71180552 79153920 86583544 93006760 98197192 
2314.374 102057840 104563416 105729304 105627664 104427184 102403776 
2314.736 99969528 97592064 95701808 94639200 94547088 95353568 96759904 
2315.158 98309672 99410264 99403480 97719184 93927000 87901288 79902488 
2315.580 70655096 61262364 52981240 47101860 44548988 45711568 50355152 
2316.002 57710944 66639644 75862128 84320176 91222440 96154792 99052888 
2316.425 100105368 99673184 98196008 96200808 94214384 92709064 92065232 
2316.847 92457384 93829384 95885008 98182728 100188464 101371792 101307024 
2317.269 99644712 96149616 90724280 83454504 74690416 65078148 55627624 
2317.691 47505964 41858908 39592620 41061260 45996128 53505672 62378248 
2318.113 71243272 78928072 84720704 88364656 90068376 90331776 89832296 
2318.535 89214600 88991888 89507848 90871096 92976096 95519632 98095992 
2318.957 100237056 101509544 101602456 100306616 97516056 93186072 87305752 
2319.379 79927088 71234080 61667804 51937136 43013648 36025940 31915984 
2319.802 31278476 34131012 39916928 47578044 55845584 63616752 70077728 
2320.224 74919544 78280712 80622072 82499688 84397024 86624712 89251296 
2320.646 92141744 95006488 97506216 99285776 100050728 99621552 97928184 
2321.068 95011736 90976880 85951192 80035664 73305520 65863964 57903100 
2321.490 49789416 42109184 35551136 30847302 28572394 28968944 31901868 
2321.912 36872660 43196748 50109456 57001092 63504444 69474896 74942392 
2322.334 79993056 84670824 88921728 92593568 95466832 97339232 98058184 
2322.756 97574704 95952576 93367568 90065944 86301616 82290752 78125992 
2323.178 73752064 68974488 63556584 57328720 50334900 42899996 35668544 
2323.601 29497976 25216942 23518854 24730480 28762346 35132532 43122396 
2324.023 51946448 60843420 69244704 76743568 83063536 88033904 91532600 
2324.445 93494976 93940528 93013032 90999224 88286120 85344680 82595136 
2324.867 80308368 78535728 77063960 75446120 73076088 69401736 64051116 
2325.289 57015052 48699556 39947188 31882340 25617266 22136640 21997662 
2325.711 25250452 31447024 39790108 49310164 58992192 68018016 75761504 
2326.133 81816712 86005888 88329040 88965256 88236000 86620528 84670904 
2326.555 82898632 81712848 81273216 81453104 81830472 81813080 80740744 
2326.978 78030464 73357784 66710028 58446520 49215360 39947044 31682036 
2327.400 25369366 21819360 21485142 24405432 30177662 38054060 47052884 
2327.822 56088596 64256588 70886800 75659928 78618896 80104488 80644872 
2328.244 80782968 81012560 81634800 82717704 84095648 85419896 86232912 
2328.666 86029016 84391600 81026024 75819456 68864672 60474692 51178220 
2329.088 41640692 32697406 25215858 19956278 17520724 18166310 21759734 
2329.510 27753482 35332748 43537784 51442752 58409460 64115296 68591464 
2329.932 72110840 75066808 77800208 80481528 83086928 85416744 87181056 
2330.354 88058760 87795240 86219216 83243760 78862008 73135200 66204356 
2330.777 58290764 49746876 41056504 32779352 25570342 20048730 16699821 
2331.199 15834008 17493438 21459234 27266440 34335724 42035812 49784584 
2331.621 57168364 63915936 69899624 75081376 79441400 82936472 85491640 
2332.043 87014024 87439616 86763040 85047296 82394496 78906520 74643184 
2332.465 69603592 63752912 57085616 49695484 41853644 34025932 26803274 
2332.887 20887154 16914964 15349141 16423277 20073846 25966666 33528790 
2333.309 42099128 50966700 59469940 67113280 73540840 78575424 82196816 
2333.731 84502904 85667440 85888936 85371192 84267992 82661464 80541480 
2334.154 77803248 74262048 69699808 63958468 57013048 49064240 40541424 
2334.576 32134308 24669092 18939128 15639123 15165855 17574220 22568438 
2334.998 29595686 37930080 46771444 55429372 63324476 70058840 75444136 
2335.420 79459256 82229232 83958088 84889376 85222400 85061608 84390640 
2335.842 83072424 80883648 77565304 72920640 66867852 59508224 51131092 
2336.264 42243716 33521716 25689090 19510266 15613923 14387279 15929328 
2336.686 20003488 26089650 33441860 41302764 48984480 55981580 62050632 
2337.108 67152376 71393520 74919416 77847224 80208584 81949312 82945720 
2337.531 83046352 82100048 79962224 76523160 71718296 65565664 58201084 
2337.953 49932884 41266308 32828366 25376940 19652404 16230930 15485846 
2338.375 17476468 21962944 28422330 36185304 44524008 52731584 60278376 
2338.797 66805452 72149608 76315416 79411528 81582352 82938424 83528224 
2339.219 83317608 82209760 80066216 76757568 72198704 66384112 59417008 
2339.641 51539536 43159412 34795116 27097046 20757608 16369531 14396592 
2340.063 15044174 18236428 23621170 30657260 38717940 47136672 55350460 
2340.485 62896056 69412976 74669336 78525288 80944816 81992264 81828664 
2340.907 80674560 78739968 76180152 73027848 69193416 64502464 58802604 
2341.330 52068680 44508504 36569804 28940578 22451132 17856288 15774288 
2341.752 16519916 20053630 25982484 33636004 42210020 50812496 58679040 
2342.174 65249420 70210232 73542064 75465752 76369712 76655696 76661304 
2342.596 76543608 76240752 75482904 73872808 71018720 66619128 60601696 
2343.018 53171028 44848204 36368668 28618694 22523120 18808812 17946990 
2343.440 20021658 24727440 31391254 39118680 47022068 54295500 60429372 
2343.862 65248572 68871024 71600856 73787144 75698808 77413560 78805272 
2344.284 79569784 79338744 77736448 74492968 69517136 62930900 55090688 
2344.707 46548324 38068808 30476792 24557824 20966458 20041592 21775170 
2345.129 25795302 31505854 38177236 45134780 51918996 58269148 64113204 
2345.551 69455136 74256744 78372056 81556704 83520944 84058912 83114192 
2345.973 80808088 77372640 73074432 68117120 62594684 56546112 50051432 
2346.395 43331192 36846940 31252672 27266824 25565684 26546932 30251796 
2346.817 36326772 44137096 52847084 61561528 69523128 76105888 80914592 
2347.239 83817952 84942296 84660224 83499384 82078392 80891616 80173760 
2347.661 79800832 79318904 78063512 75391480 70983776 65001748 58167612 
2348.083 51550776 46423692 43848168 44380784 47973348 53967828 61312000 
2348.506 68746736 75217664 80026424 82949616 84226952 84443800 84342336 
2348.928 84554816 85503576 87256528 89552904 91871592 93630552 94382824 
2349.350 93938416 92455952 90388472 88374256 86985928 86602000 87271680 
2349.772 88719488 90402576 91667568 91950456 90839464 88195744 84149704 
2350.194 79087280 73555832 68179816 63601392 60312024 58607564 58523304 
2350.616 59851512 62198748 65111956 68236216 71358240 74441088 77543112 
2351.038 80699832 83814064 86622800 88722280 89728024 89390456 87689248 
2351.460 84820768 81109816 76858480 72210816 67141880 61531364 55329408 
2351.883 48726128 42235700 36626784 32825680 31585458 33296270 37840656 
2352.305 44620948 52659828 60812144 68099816 73785064 77531160 79391984 
2352.727 79731440 79076448 77935448 76697528 75483624 74129368 72213880 
2353.149 69233912 64762668 58658704 51191288 43086060 35413360 29269052 
2353.571 25625728 25006790 27382526 32189548 38523220 45401984 51937848 
2353.993 57595180 62190364 65834260 68773272 71238496 73303048 74832408 
2354.415 75493968 74856200 72540432 68309032 62192540 54509644 45884744 
2354.837 37109292 29041510 22509616 18110778 16195693 16824496 19807262 
2355.260 24751744 31143044 38447400 46088344 53518524 60250660 65828656 
2355.682 69907936 72272016 72843648 71687800 68977136 64949152 59835660 
2356.104 53865104 47266188 40288404 33286942 26733768 21175368 17228134 
2356.526 15412815 16044568 19151010 24429992 31284210 38894444 46449976 
2356.948 53219300 58693796 62662096 65154320 66370004 66539196 65832492 
2357.370 64274920 61756560 58092724 53152776 46973844 39861024 32359808 
2357.792 25228074 19305834 15282542 13634077 14492750 17661146 22659526 
2358.214 28863466 35655708 42460556 48853620 54539960 59294944 62941516 
2358.636 65296536 66163216 65376996 62838192 58577908 52781604 45822848 
2359.059 38227080 30589568 23580158 17813340 13793194 11900632 12313744 
2359.481 15005968 19725288 26043766 33361136 40975648 48230976 54525580 
2359.903 59427880 62717124 64342020 64383648 62973684 60245108 56294400 
2360.325 51209340 45138876 38341252 31252144 24488848 18718732 14617807 
2360.747 12699242 13191947 16018758 20803998 26990766 33898984 40902472 
2361.169 47493156 53279648 58015424 61527584 63669864 64310112 63319500 
2361.591 60616336 56219688 50308304 43253144 35582208 27999694 21246624 
2362.013 16001198 12832079 12059226 13743410 17672546 23430528 30429084 
2362.436 37988528 45473124 52275616 57902568 62013516 64382356 64916168 
2362.858 63628400 60624984 56085572 50266356 43530552 36317476 29180402 
2363.280 22765934 17693824 14540988 13705040 15314171 19202132 24921446 
2363.702 31855710 39267496 46483744 52964192 58301640 62251768 64658972 
2364.124 65410596 64425896 61663380 57176896 51157832 44001544 36294948 
2364.546 28731494 22106960 17141244 14382060 14161155 16510849 21178740 
2364.968 27641926 35239760 43207716 50787988 57372104 62477556 65803328 
2365.390 67212944 66677828 64253616 60060424 54317284 47357644 39669124 
2365.812 31933004 24901760 19364446 16010402 15254738 17204612 21608486 
2366.235 27950242 35493060 43451328 51127456 57909236 63360564 67185504 
2366.657 69175336 69205432 67216984 63248772 57470828 50249740 42177492 
2367.079 33991132 26592154 20872570 17541056 17066656 19530684 24636016 
2367.501 31727186 39971808 48474096 56384756 63076536 68107320 71219512 
2367.923 72300288 71313840 68292288 63348888 56750160 48956380 40620672 
2368.345 32624630 25892804 21276426 19429636 20622478 24718368 31170754 
2368.767 39194588 47833944 56158088 63439296 69123744 72887424 74580512 
2369.189 74149512 71612752 67063416 60737184 53049544 44663204 36495568 
2369.612 29522534 24714218 22799922 24081292 28395626 35127132 43400156 
2370.034 52168532 60489672 67642824 73113408 76622520 78026168 77253832 
2370.456 74298976 69258320 62420784 54295012 45691148 37631160 31138514 
2370.878 27166202 26316950 28734670 34074584 41597524 50326704 59181804 
2371.300 67259848 73858256 78515768 81003096 81218560 79152672 74880072 
2371.722 68627208 60847044 52240644 43824600 36726068 31994904 30434112 
2372.144 32331948 37424472 44917664 53760552 62783176 70953320 77570136 
2372.566 82190144 84608048 84750688 82603352 78228952 71841568 63943764 
2372.989 55328884 47064472 40378256 36300808 35525724 38198692 43913836 
2373.411 51786208 60681628 69524696 77353624 83500080 87567816 89324816 
2373.833 88670208 85603592 80283224 73086512 64707880 56179148 48651376 
2374.255 43314944 41083960 42351688 46929472 54061960 62670888 71494728 
2374.677 79449456 85759608 89948784 91832800 91384000 88664504 83818600 
2375.099 77169112 69330000 61181096 53905668 48721944 46557512 47884560 
2375.521 52510328 59667564 68147592 76710328 84295752 90152024 93908864 
2375.943 95420416 94657976 91652648 86552536 79753520 71959792 64275560 
2376.365 57974124 54185592 53681528 56571560 62316660 69844216 77949952 
2376.788 85506280 91668240 95973832 98193680 98238728 96095736 91869600 
2377.210 85902760 78846248 71742984 65791860 62086032 61379060 63808072 
2377.632 68902216 75697272 83103320 90064928 95774736 99756472 101737864 
2378.054 101604776 99362920 95190976 89522008 83076456 76886888 72022984 
2378.476 69391384 69508736 72336272 77320064 83536424 90017360 95851552 
2378.898 100367184 103171768 104059040 102998312 100117920 95766136 90518872 
2379.320 85166352 80656136 77811568 77197104 78944728 82736256 87872456 
2379.742 93461288 98681440 102831312 105462704 106373768 105555712 103180096 
2380.165 99585200 95314168 91029360 87469080 85321544 85013400 86641208 
2380.587 89908400 94241648 98872112 103047352 106199976 107958640 108205768 
2381.009 107028472 104691448 101580848 98189736 95101688 92858904 91912968 
2381.431 92498320 94558512 97737840 101453656 105074016 107991592 109796152 
2381.853 110322720 109632464 107966376 105676472 103193144 100933176 
2382.215 99291976 98589456 98990768 100476720 102809496 105595344 108320840 
2382.637 110500328 111796456 112058280 111358040 109935168 108143456 
2382.999 106338720 104842080 103907856 103684008 104219200 105441576 
2383.361 107170040 109108392 110902872 112231608 112849800 112679672 
2383.722 111819344 110526408 109126472 107940160 107220792 107092064 
2384.084 107559432 108522328 109818808 111236936 112549336 113553240 
2384.446 114078848 114042880 113471536 112513536 111404616 110413768 
2384.808 109787160 109662912 110053976 110847152 111859224 112876288 
2385.170 113714320 114260512 114467832 114356384 113993304 113486840 
2385.531 112964560 112556808 112382088 112507208 112930320 113568760 
2385.893 114286320 114919672 115331008 115454296 115303456 114965488 
2386.255 114558344 114204264 113988008 113946720 114076880 114346744 
2386.617 114709528 115108024 115483496 115774280 115927040 115915272 
2386.979 115750568 115489584 115216152 115024976 114983472 115110360 
2387.341 115371872 115697824 116009280 116242056 116368648 116395056 
2387.702 116350200 116267096 116174648 116093256 116036832 116018448 
2388.064 116048072 116127080 116241648 116362792 116455208 116490224 
2388.426 116462648 116395336 116332992 116319448 116380800 116509832 
2388.788 116670888 116812208 116890736 116890160 116823960 116726768 
2389.150 116635720 116577624 116559440 116573664 116608352 116657104 
2389.511 116721128 116804144 116904272 117008448 117095112 117145096 
2389.873 117150896 117123600 117087504 117069944 117084920 117126000 
2390.235 117167856 117180816 117144840 117061368 116952368 116852008 
2390.597 116790152 116778744 116809376 116858424 116900472 116916688 
2390.959 116901952 116861984 116807416 116747192 116687232 116632968 
2391.321 116592000 116576080 116597424 116661800 116763552 116884512 
2391.682 117001200 117091976 117147672 117173616 117185784 117200416 
2392.044 117225608 117257296 117283144 117290248 117273880 117240800 
2392.406 117206424 117186648 117189368 117212200 117244936 117277072 
2392.768 117303184 117325296 117348448 117373768 117393496 117391440 
2393.130 117349584 117259096 117126816 116976568 116839200 116744192 
2393.491 116706632 116723664 116777904 116847288 116914208 116969272 
2393.853 117011040 117040192 117054344 117047384 117012760 116950024 
2394.215 116868496 116787568 116729888 116711760 116738360 116801456 
2394.577 116884960 116971080 117047808 117109512 117153528 117175808 
2394.939 117167896 117119224 117024232 116888656 116733048 116586704 
2395.301 116481248 116437248 116457624 116528112 116625064 116725568 
2395.662 116814120 116886184 116943456 116987400 117015040 117019240 
2396.024 116994256 116942280 116877192 116821840 116798936 116823928 
2396.386 116897176 117005256 117125856 117238664 117330744 117398120 
2396.748 117442672 117466392 117467544 117441408 117384432 117299672 
2397.110 117198168 117097808 117015520 116960648 116932336 116921432 
2397.471 116916904 116912576 116910888 116920792 116951472 117004856 
2397.833 117072232 117135712 117176296 117179280 117140704 117066568 
2398.195 116968848 116859064 116744608 116629400 116516296 116410848 
2398.557 116322616 116261576 116234552 116240752 116272024 116315848 
2398.919 116362056 116407576 116456896 116518144 116596664 116689848 
2399.281 116786720 116871632 116930704 116958608 116959360 116943616 
2399.642 116921768 116900088 116878840 116855768 116831016 116810752 
2400.004 116805496 116825464 116872448 116936032 116993944 117021720 
2400.366 117001264 116930056 116822296 116705064 116607208 116547712 
2400.728 116531952 116551144 116589552 116631144 116666784 116695192 
2401.090 116720304 116746920 116777448 116810888 116844216 116873816 
2401.451 116896368 116908720 116906840 116886448 116845296 116786152 
2401.813 116718520 116657032 116617880 116611088 116636440 116682472 
2402.175 116732168 116769464 116787064 116788896 116787304 116795248 
2402.537 116818152 116850456 116877720 116884440 116861160 116810752 
2402.899 116746832 116688680 116651192 116640216 116650544 116670816 
2403.260 116688568 116695992 116691560 116677288 116655184 116624832 
2403.622 116584008 116531960 116472552 116415440 116372080 116350912 
2403.984 116352128 116366912 116380280 116378736 116357504 116323048 
2404.346 116290672 116276368 116290376 116331264 116387536 116442496 
2404.708 116483240 116505040 116512336 116514184 116518784 116528536 
2405.070 116539552 116544792 116539304 116524152 116506928 116498320 
2405.431 116507016 116536320 116582584 116637288 116690120 116733056 
2405.793 116760912 116771080 116762520 116735032 116690184 116632376 
2406.155 116570208 116514944 116477176 116464072 116476184 116507728 
2406.517 116548808 116590040 116625016 116651312 116669256 116679440 
2406.879 116680992 116671984 116650960 116619208 116580904 116541968 
2407.240 116506672 116475512 116445400 116412760 116378008 116348936 
2407.602 116339080 116363784 116432024 116540224 116670024 116792976 
2407.964 116881472 116916024 116894024 116828936 116746104 116671800 
2408.326 116626128 116619376 116651088 116713704 116795600 116884152 
2408.688 116964760 117021696 117041032 117013368 116939696 116833336 
2409.050 116719840 116628072 116581080 116588200 116641080 116717136 
2409.411 116787840 116831320 116837152 116808472 116756400 116693304 
2409.773 116626232 116555456 116478016 116393280 116306904 116231624 
2410.135 116182048 116169408 116196680 116257944 116341304 116434200 
2410.497 116528504 116620424 116708544 116789920 116856960 116898648 
2410.859 116905000 116871544 116803616 116715496 116627008 116555080 
2411.220 116509696 116490784 116490672 116497696 116501528 116496464 
2411.582 116480952 116456152 116423664 116384224 116338136 116286128 
2411.944 116230456 116174384 116121184 116072960 116029984 115991840 
2412.306 115958928 115933608 115920656 115925520 115952136 116001728 
2412.668 116072304 116159984 116260192 116368696 116480624 116588504 
2413.030 116681984 116747552 116771880 116747176 116674360 116564760 
2413.391 116436488 116310984 116205496 116129160 116083536 116064784 
2413.753 116067840 116089000 116126512 116178168 116238600 116299080 
2414.115 116348432 116377504 116383320 116370328 116348408 116327928 
2414.477 116315520 116311096 116309520 116304568 116294128 116282040 
2414.839 116276840 116286064 116311592 116346296 116376840 116387848 
2415.200 116369728 116323000 116258584 116192888 116140992 116112368 
2415.562 116107680 116121448 116145856 116175528 116208392 116244880 
2415.924 116285216 116327552 116368024 116403064 116431792 116457224 
2416.286 116484344 116516888 116553280 116585304 116599576 116583568 
2416.648 116529960 116440800 116326376 116202544 116084936 115983864 
2417.010 115904016 115845016 115804576 115780784 115772888 115780256 
2417.371 115800656 115829896 115862792 115895384 115927208 115961384 
2417.733 116002664 116053848 116113240 116173976 116226784 116263224 
2418.095 116280144 116280664 116273120 116266712 116268208 116280104 
2418.457 116301120 116328648 116361248 116399432 116444232 116494560 
2418.819 116545584 116588384 116613216 116613472 116588280 116543168 
2419.180 116487592 116431264 116379968 116335064 116294984 116258448 
2419.542 116227312 116206904 116203536 116221352 116259176 116310256 
2419.904 116363888 116409880 116441688 116456920 116456432 116441496 
2420.266 116411760 116365480 116301616 116223152 116138280 116060288 
2420.628 116003352 115977208 115984584 116019944 116072568 116130208 
2420.990 116184264 116231088 116271248 116306856 116339008 116366608 
2421.351 116387144 116398408 116400216 116394480 116384312 116372112 
2421.713 116358424 116342344 116322632 116299096 116272824 116245384 
2422.075 116217464 116188192 116156264 116122200 116090880 116071272 
2422.437 116074888 116109952 116176376 116263008 116350328 116417144 
2422.799 116447656 116439240 116402792 116358968 116327400 116320240 
2423.160 116336392 116363984 116385784 116388456 116368448 116332592 
2423.522 116293936 116264560 116250592 116249368 116252032 116248048 
2423.884 116231128 116201248 116164472 116129104 116102856 116089744 
2424.246 116089392 116097936 116109416 116117408 116115224 116097704 
2424.608 116062592 116012336 115954792 115902768 115870848 115869376 
2424.969 115901144 115958536 116026728 116087264 116125624 116135912 
2425.331 116120936 116089280 116049728 116007520 115962552 115912024 
2425.693 115854944 115795232 115742480 115708392 115700568 115718912 
2426.055 115753976 115791424 115816904 115823256 115812872 115796336 
2426.417 115786232 115791464 115813152 115844440 115873640 115889232 
2426.779 115884744 115859200 115816384 115761608 115699848 115634488 
2427.140 115568072 115503960 115446520 115400616 115370176 115356264 
2427.502 115356944 115368000 115385392 115406096 115428960 115453568 
2427.864 115478736 115501696 115518744 115526520 115524288 115514576 
2428.226 115502736 115494568 115494344 115503784 115522344 115548824 
2428.588 115582640 115624112 115672760 115725448 115775688 115814184 
2428.949 115832904 115829176 115808192 115782000 115765288 115769688 
2429.311 115797752 115841872 115886624 115916456 115920496 115897640 
2429.673 115855448 115806912 115763952 115733128 115715088 115706256 
2430.035 115702496 115701712 115704640 115713208 115728112 115747672 
2430.397 115768168 115786056 115800144 115811904 115823656 115835504 
2430.759 115842648 115835536 115803016 115736768 115636664 115512456 
2431.120 115382976 115269280 115190752 115159464 115177872 115240000 
2431.482 115333592 115443944 115554152 115648344 115713512 115740912 
2431.844 115729648 115687600 115630808 115577440 115542896 115532976 
2432.206 115541680 115552744 115546704 115509984 115439704 115345992 
2432.568 115247088 115163872 115110872 115093280 115107336 115144704 
2432.929 115196744 115257472 115323904 115393152 115459992 115516904 
2433.291 115555080 115568840 115558376 115530416 115495336 115462776 
2433.653 115438384 115421856 115409096 115395640 115380064 115364960 
2434.015 115355328 115354968 115364256 115379416 115395136 115407008 
2434.377 115414440 115419976 115427080 115436512 115444920 115445888 
2434.739 115434448 115410744 115382536 115361976 115361344 115385992 
2435.100 115431168 115482992 115525112 115546856 115548056 115539512 
2435.462 115537120 115553952 115592136 115641240 115682080 115697272 
2435.824 115678504 115632368 115576928 115535600 115525752 115551232 
2436.186 115601072 115654424 115689688 115691920 115659520 115603424 
2436.548 115543320 115498944 115485848 115510808 115571368 115657384 
2436.909 115754048 115845976 115918272 115960416 115967712 115941944 
2437.271 115890776 115825536 115758504 115698424 115649360 115610144 
2437.633 115576584 115543688 115508360 115470304 115431448 115394680 
2437.995 115362432 115337040 115321016 115317984 115332672 115368968 
2438.357 115427808 115504768 115590456 115671432 115734376 115770664 
2438.719 115778168 115762112 115732024 115699288 115672792 115657160 
2439.080 115652640 115655928 115661384 115661720 115649760 115618736 
2439.442 115564424 115487280 115394024 115297488 115213112 115156024 
2439.804 115134792 115148776 115188000 115237440 115282384 115313336 
2440.166 115329272 115336320 115343808 115358512 115381792 115408048 
2440.528 115427848 115430720 115409936 115364544 115299600 115224544 
2440.889 115150976 115091528 115056864 115055104 115089904 115158832 
2441.251 115252464 115355128 115449440 115518888 115554008 115554952 
2441.613 115531456 115498800 115472200 115462320 115471192 115492952 
2441.975 115516592 115531568 115530808 115513384 115483824 115450256 
2442.337 115421192 115402544 115396880 115402776 115415856 115430088 
2442.698 115439968 115442208 115436736 115426752 115417608 115414352 
2443.060 115418808 115428032 115434376 115428696 115403040 115355104 
2443.422 115289144 115215160 115144304 115084888 115039800 115006496 
2443.784 114980088 114957552 114940608 114935648 114950488 114989288 
2444.146 115049152 115119552 115186536 115237080 115265320 115274008 
2444.508 115272568 115271128 115275408 115283712 115288400 115280536 
2444.869 115255896 115218696 115181664 115161344 115170728 115215304 
2445.231 115289904 115381768 115474352 115554240 115613968 115652296 
2445.593 115672008 115676776 115668528 115647136 115611512 115561952 
2445.955 115501232 115435288 115371464 115316512 115275336 115249472 
2446.317 115237272 115234176 115234136 115230360 115216600 115189000 
2446.678 115146896 115093544 115035056 114979200 114932720 114899224 
2447.040 114879096 114870144 114869872 114877160 114892952 114919112 
2447.402 114956008 115000688 115046056 115082576 115102216 115100824 
2447.764 115080424 115047808 115012248 114981280 114958544 114944000 
2448.126 114935904 114933536 114939016 114956272 114988944 115036896 
2448.488 115094976 115153208 115200384 115228680 115235872 115226232 
2448.849 115207864 115189864 115178528 115176592 115184536 115202656 
2449.211 115232664 115277520 115338904 115414448 115495608 115569496 
2449.573 115620784 115637552 115615480 115559224 115481008 115396224 
2449.935 115320088 115262320 115226248 115208832 115202840 115198320 
2450.297 115185096 115155488 115105112 115035232 114952632 114869528 
2450.658 114799840 114754976 114740408 114753144 114782584 114813760 
2451.020 114833616 114834424 114815960 114783920 114746784 114711896 
2451.382 114683024 114661256 114646712 114640688 114646224 114666168 
2451.744 114700224 114742600 114782808 114808176 114808968 114783288 
2452.106 114738344 114688648 114649560 114633256 114643792 114677448 
2452.468 114725440 114778936 114832528 114884856 114937088 114990024 
2452.829 115041952 115088872 115126448 115153008 115171080 115186920 
2453.191 115207336 115235768 115269840 115301176 115318240 115309152 
2453.553 115266240 115187200 115075064 114936448 114780432 114618160 
2453.915 114461584 114324840 114222192 114164696 114158088 114199632 
2454.277 114278840 114379200 114484128 114581384 114665120 114736048 
2454.638 114798328 114855616 114908088 114952184 114982456 114994976 
2455.000 114989432 114969808 114942360 114913632 114887504 114864560 
2455.362 114843080 114821056 114797872 114775320 114757072 114748000 
2455.724 114753272 114777344 114824240 114896184 114992224 115105728 
2456.086 115223240 115325536 115389112 115394080 115329616 115198784 
2456.448 115018696 114817704 114628584 114477416 114380400 114339616 
2456.809 114345712 114381856 114430408 114477752 114515024 114538944 
2457.171 114549704 114549328 114540464 114526328 114510976 114498824 
2457.533 114494696 114502760 114525736 114564792 114619664 114688976 
2457.895 114770240 114859560 114951296 115036976 115106872 115150968 
2458.257 115161208 115134448 115073656 114988232 114891272 114797952 
2458.618 114721104 114667824 114638616 114627056 114622424 114612080 
2458.980 114586328 114540968 114478720 114407864 114339752 114284648 
2459.342 114247408 114226160 114212888 114197504 114171440 114132376 
2459.704 114085456 114042264 114016160 114017392 114049616 114108256 
2460.066 114181992 114256104 114317952 114358856 114376256 114372720 
2460.427 114354376 114328512 114301584 114278776 114263152 114255760 
2460.789 114256048 114262184 114272016 114283600 114296056 114309368 
2461.151 114323800 114338824 114352464 114361408 114362784 114355880 
2461.513 114343960 114334040 114335376 114355200 114395392 114450312 
2461.875 114508368 114554968 114577576 114570840 114537488 114487504 
2462.237 114433336 114386928 114355720 114341968 114344360 114359920 
2462.598 114385688 114418560 114455024 114489992 114517088 114530688 
2462.960 114527776 114509824 114482096 114451912 114424840 114401888 
2463.322 114378984 114349080 114306000 114247944 114179400 114110392 
2463.684 114053744 114020128 114016272 114043544 114099160 114177616 
2464.046 114272344 114376544 114482088 114580120 114662136 114720928 
2464.407 114753424 114760984 114748480 114721344 114683120 114634088 
2464.769 114572752 114499568 114421032 114350464 114307424 114310592 
2465.131 114370040 114482344 114629104 114782064 114909328 114987552 
2465.493 115006248 114969736 114892656 114794744 114694072 114602224 
2465.855 114525096 114463824 114417136 114382680 114357344 114337168 
2466.217 114317248 114293888 114266384 114238720 114218496 114214544 
2466.578 114232680 114272272 114325336 114379312 114422760 114449280 
2466.940 114461024 114467000 114479720 114508648 114556400 114617544 
2467.302 114681408 114735568 114770152 114780776 114767824 114735224 
2467.664 114687992 114631712 114572104 114515096 114467256 114434192 
2468.026 114418832 114420184 114433584 114452400 114470912 114487104 
2468.387 114503088 114523536 114552352 114589864 114631456 114669296 
2468.749 114694904 114703304 114694744 114674416 114649352 114625504 
2469.111 114605568 114588728 114572360 114554528 114535408 114517104 
2469.473 114502032 114490776 114481496 114470800 114456216 114438352 
2469.835 114421712 114413264 114419592 114443112 114480448 114522704 
2470.197 114559376 114580976 114582824 114565896 114535840 114500216 
2470.558 114465968 114438544 114421312 114416344 114424904 114446944 
2470.920 114480232 114519072 114555312 114578896 114581040 114557384 
2471.282 114509240 114444016 114372784 114308680 114263104 114243648 
2471.644 114253304 114289656 114345232 114407848 114463704 114499136 
2472.006 114504816 114479216 114430256 114373944 114328528 114310144 
2472.367 114325056 114367552 114420664 114463400 114478168 114457184 
2472.729 114405824 114340248 114281472 114245640 114239848 114258984 
2473.091 114289560 114314064 114318632 114297520 114254008 114198472 
2473.453 114144440 114105536 114091200 114106248 114150200 114217848 
2473.815 114299352 114380928 114447744 114484776 114481352 114434456 
2474.177 114350416 114244320 114136152 114047424 113993480 113980552 
2474.538 114004096 114051472 114105368 114149344 114173368 114174824 
2474.900 114158648 114133608 114109288 114091712 114081728 114075552 
2475.262 114067352 114052456 114029848 114002880 113978040 113961992 
2475.624 113957760 113962952 113969648 113967568 113946992 113903448 
2475.986 113839696 113765856 113696144 113644704 113622496 113633584 
2476.347 113675240 113738728 113813016 113886576 113950224 113999144 
2476.709 114032944 114055464 114073048 114093056 114120760 114156968 
2477.071 114196720 114230144 114244864 114229600 114179536 114098512 
2477.433 113999928 113902088 113825168 113784352 113785632 113825400 
2477.795 113892488 113973112 114054184 114127848 114191600 114246656 
2478.156 114295016 114336904 114369224 114386464 114382080 114351136 
2478.518 114292440 114209224 114108944 114001392 113897792 113807944 
2478.880 113738760 113693568 113671448 113667672 113674744 113684968 
2479.242 113691696 113691568 113685472 113678576 113678992 113695136 
2479.604 113733784 113797208 113881928 113978320 114073216 114152736 
2479.966 114205688 114227856 114223080 114202696 114180720 114170120 
2480.327 114177000 114198152 114221736 114232408 114218176 114175536 
2480.689 114112672 114047024 114000384 113989040 114018528 114080584 
2481.051 114157008 114224752 114264552 114267768 114237032 114184288 
2481.413 114124480 114071176 114031744 114007184 113994464 113989952 
2481.775 113991736 114000512 114018200 114045976 114082288 114122664 
2482.136 114159888 114185976 114194344 114180448 114143232 114085400 
2482.498 114014216 113940512 113878008 113841440 113841752 113883504 
2482.860 113961624 114062328 114164656 114246208 114290144 114287664 
2483.222 114240840 114160032 114060968 113958656 113864344 113784224 
2483.584 113719312 113667240 113624000 113585280 113546896 113505280 
2483.946 113458296 113406016 113351456 113300312 113260296 113238360 
2484.307 113238544 113260664 113300704 113352528 113410456 113471784 
2484.669 113537120 113609208 113690184 113779088 113870440 113955376 
2485.031 114023200 114065512 114078744 114065200 114032136 113989448 
2485.393 113946952 113910776 113882664 113859552 113835624 113804360 
2485.755 113761568 113707616 113648464 113594672 113558384 113550624 
2486.116 113576256 113631824 113704536 113776072 113826208 113838752 
2486.478 113807552 113738200 113647936 113559520 113497848 113481528 
2486.840 113518200 113603056 113720000 113846296 113956368 114030136 
2487.202 114056072 114033520 113971664 113886712 113796896 113716072 
2487.564 113652056 113604752 113568640 113536280 113503000 113469432 
2487.926 113441656 113428024 113435096 113463968 113508624 113556872 
2488.287 113594056 113608848 113595664 113556824 113500440 113438080 
2488.649 113380424 113334552 113304008 113289168 113289144 113303112 
2489.011 113330592 113370712 113420736 113475488 113526552 113563360 
2489.373 113575792 113555280 113497728 113404912 113285504 113153896 
2489.735 113028040 112927576 112867936 112857872 112896856 112975576 
2490.096 113077816 113184720 113281080 113356744 113409048 113441136 
2490.458 113459240 113469448 113475448 113478600 113478792 113475840 
2490.820 113470680 113465024 113460816 113459104 113459600 113461096 
2491.182 113462304 113462648 113462248 113461272 113459232 113454640 
2491.544 113446016 113433312 113419648 113410968 113414592 113436048 
2491.906 113475312 113525000 113571232 113598680 113594352 113553584 
2492.267 113481696 113392880 113304864 113232912 113186264 113165448 
2492.629 113164256 113173352 113185216 113196112 113206912 113221072 
2492.991 113242056 113270632 113304056 113336208 113360024 113369672 
2493.353 113362176 113338400 113302672 113261536 113221184 113185896 
2493.715 113156224 113128912 113097888 113056888 113002880 112938312 
2494.076 112871856 112816208 112785352 112788808 112828656 112898368 
2494.438 112985640 113076136 113158080 113226200 113281192 113327544 
2494.800 113369440 113408104 113440600 113461888 113467520 113457024 
2495.162 113434600 113408240 113385688 113371584 113365376 113362008 
2495.524 113354160 113335944 113305712 113266824 113226672 113193560 
2495.885 113174984 113174928 113193416 113226840 113269232 113313416 
2496.247 113352336 113381072 113398040 113406216 113412592 113427032 
2496.609 113458728 113512008 113583664 113662040 113730456 113770336 
2496.971 113769104 113723848 113643208 113544064 113446960 113369896 
2497.333 113322000 113302528 113301552 113305176 113299112 113274224 
2497.695 113229088 113170112 113109600 113062112 113041752 113057096 
2498.056 113109408 113191376 113289288 113385432 113463112 113512440 
2498.418 113532464 113532232 113526928 113534256 113567120 113629376 
2498.780 113714360 113807208 113889168 113942280 113955632 113926688 
2499.142 113861912 113773712 113678552 113593064 113530080 113498008 
2499.504 113498288 113525336 113566656 113606056 113627096 113616400 
2499.865 113568784 113488416 113388816 113287840 113204544 113153112 
2500.227 113138952 113158544 113200992 113252800 113300640 113335760 
2500.589 113355000 113359712 113353856 113341496 113325224 113305264 
2500.951 113280384 113249072 113211128 113168304 113124312 113083552 
2501.313 113050192 113026760 113013856 113010600 113015768 113028904 
2501.675 113050592 113081848 113122736 113170616 113219864 113262104 
2502.036 113288864 113295136 113281376 113254584 113225872 113207768 
2502.398 113208536 113229408 113263712 113299848 113325008 113329848 
2502.760 113311880 113275168 113228256 113179592 113135080 113096120 
2503.122 113060456 113024328 112985304 112943592 112902152 112865328 
2503.484 112837240 112821144 112818928 112832192 112862656 112911736 
2503.845 112979592 113063304 113156392 113248368 113327272 113382968 
2504.207 113408912 113404360 113373640 113324432 113264328 113199352 
2504.569 113132824 113065704 112998112 112930688 112865248 112804976 
2504.931 112753632 112714864 112692096 112687928 112704096 112740656 
2505.293 112795144 112861576 112930152 112989608 113028936 113041336 
2505.655 113027096 112994440 112957760 112932360 112930848 112957408 
2506.016 113006256 113062480 113107680 113125008 113104456 113046472 
2506.378 112961496 112867088 112781136 112718632 112686736 112683984 
2506.740 112701520 112726744 112747656 112754896 112744616 112717888 
2507.102 112679704 112636528 112594816 112559784 112534400 112519944 
2507.464 112516176 112521936 112535536 112555208 112579552 112607776 
2507.825 112639872 112676352 112717640 112763256 112810976 112856464 
2508.187 112894192 112918104 112923480 112908576 112875216 112828656 
2508.549 112776040 112725416 112683384 112654056 112639048 112637608 
2508.911 112647592 112666400 112691816 112722176 112756384 112793528 
2509.273 112832384 112871056 112906888 112936584 112956912 112965520 
2509.635 112961272 112944576 112916792 112879312 112832512 112775480 
2509.996 112706792 112626400 112537880 112450096 112375792 112330192 
2510.358 112325376 112365464 112443792 112543504 112642096 112716560 
2510.720 112752560 112747632 112712184 112664336 112624776 112609232 
2511.082 112623728 112664928 112722904 112786896 112848784 112906088 
2511.444 112960848 113016688 113075072 113132960 113182208 113212512 
2511.805 113213736 113179744 113110792 113014040 112902344 112790784 
2512.167 112694968 112626400 112590072 112583568 112597536 112618024 
2512.529 112629584 112620680 112585928 112527960 112455552 112381480 
2512.891 112317984 112272784 112248504 112242552 112249648 112264040 
2513.253 112281920 112302072 112325208 112352744 112385712 112424048 
2513.615 112466600 112511176 112554976 112595064 112628480 112653256 
2513.976 112669192 112678696 112686504 112698232 112718608 112748712 
2514.338 112784872 112819288 112843376 112850584 112839744 112815288 
2514.700 112785504 112758320 112737224 112719736 112698600 112666080 
2515.062 112617952 112556936 112492144 112436104 112398736 112383920 
2515.424 112387808 112401816 112416280 112425320 112428960 112431904 
2515.785 112439584 112453976 112471272 112482856 112479016 112453088 
2516.147 112405160 112342456 112277224 112221248 112183224 112165872 
2516.509 112166504 112178848 112195696 112210976 112219616 112217776 
2516.871 112202488 112172072 112127368 112072784 112016888 111970120 
2517.233 111943160 111943744 111974296 112032000 112109880 112199608 
2517.594 112292640 112381976 112462200 112528408 112576488 112603224 
2517.956 112607280 112590072 112556032 112511696 112463480 112416792 
2518.318 112374848 112339256 112311440 112293928 112290448 112305200 
2518.680 112340536 112395328 112464016 112538272 112608808 112667872 
2519.042 112711544 112739080 112751672 112750368 112734744 112702912 
2519.404 112653176 112586048 112505808 112420208 112339680 112273560 
2519.765 112228104 112204856 112200688 112209240 112223168 112236816 
2520.127 112247040 112254016 112260464 112270792 112289456 112319456 
2520.489 112361416 112412752 112467872 112518512 112556208 112573272 
2520.851 112564832 112530056 112472328 112398856 112319088 112244424 
2521.213 112186168 112153616 112153416 112187216 112251080 112335176 
2521.574 112426520 112511232 112577976 112621368 112642040 112645304 
2521.936 112637480 112623216 112603400 112576112 112539488 112495352 
2522.298 112450840 112418176 112409736 112433088 112486576 112558536 
2522.660 112629536 112678288 112689856 112658512 112589664 112495888 
2523.022 112393120 112294376 112207072 112133704 112073632 112026128 
2523.384 111992160 111974208 111975128 111996400 112037384 112095512 
2523.745 112167456 112250048 112339696 112431384 112517656 112587592 
2524.107 112629312 112633240 112595472 112520640 112421816 112318200 
2524.469 112228424 112167424 112142312 112151632 112187072 112236544 
2524.831 112288048 112330416 112355648 112359184 112340232 112302464 
2525.193 112254000 112206880 112173120 112161992 112175616 112207464 
2525.554 112242768 112263184 112254000 112208312 112131160 112037552 
2525.916 111949168 111885768 111859944 111874168 111921480 111989144 
2526.278 112063960 112137352 112206528 112273504 112341960 112413864 
2526.640 112487192 112556216 112613232 112652080 112670752 112672160 
2527.002 112662848 112650528 112641104 112636184 112633152 112626584 
2527.364 112611464 112585536 112551000 112513504 112480456 112457192 
2527.725 112444600 112438240 112430104 112411720 112377808 112329264 
2528.087 112273824 112224400 112194192 112193880 112227432 112291152 
2528.449 112374440 112462808 112542096 112600280 112630832 112633048 
2528.811 112611608 112574776 112532912 112496520 112473432 112468184 
2529.173 112480744 112507040 112539464 112569008 112587328 112587424 
2529.534 112565152 112519232 112451096 112364696 112266576 112166240 
2529.896 112074496 112003280 111963120 111960336 111995872 112064488 
2530.258 112156648 112259840 112362312 112455176 112532168 112589808 
2530.620 112625856 112638280 112625656 112588168 112529184 112455360 
2530.982 112376720 112304144 112246064 112207432 112188256 112185104 
2531.344 112192720 112206472 112222976 112239640 112253800 112261664 
2531.705 112258472 112240448 112206680 112160872 112110680 112066384 
2532.067 112036912 112026680 112034424 112054064 112077640 112098296 
2532.429 112113192 112123336 112131960 112141560 112151880 112159520 
2532.791 112159984 112150176 112131256 112109040 112093144 112093008 
2533.153 112114232 112156584 112213536 112274624 112328376 112366736 
2533.514 112386464 112389504 112381040 112367192 112352200 112336992 
2533.876 112319336 112295144 112260896 112215416 112161464 112105760 
2534.238 112058448 112029808 112028376 112058104 112116720 112195208 
2534.600 112279024 112352056 112397920 112404496 112366368 112285344 
2534.962 112170512 112036152 111900632 111781664 111694424 111649024 
2535.323 111648000 111686104 111750888 111826432 111895088 111942416 
2535.685 111960560 111948776 111913368 111864688 111814848 111773312 
2536.047 111745480 111732480 111732008 111740264 111753664 111770088 
2536.409 111788528 111808608 111829688 111850392 111869032 111884464 
2536.771 111896896 111908224 111921264 111938304 111959096 111979376 
2537.133 111990712 111983096 111947192 111878688 111780800 111665312 
2537.494 111550072 111453440 111390456 111366664 111376760 111405392 
2537.856 111433152 111441792 111419736 111365720 111288216 111202280 
2538.218 111123232 111063736 111029856 111021080 111032096 111055952 
2538.580 111086816 111121072 111157872 111197928 111242136 111290208 
2538.942 111340000 111387008 111425416 111448576 111450880 111429928 
2539.303 111387960 111332776 111276232 111232776 111214312 111226672 
2539.665 111267272 111325808 111386784 111434640 111459824 111461192 
2540.027 111446808 111429928 111425408 111443592 111486920 111549176 
2540.389 111617584 111676656 111711112 111710952 111673008 111602296 
2540.751 111510592 111415624 111337640 111293656 111295032 111342792 
2541.113 111427208 111528472 111622264 111686360 111704360 111671000 
2541.474 111591648 111480376 111354456 111231600 111127112 111051544 
2541.836 111012192 111012552 111052176 111126000 111224104 111333368 
2542.198 111438736 111528112 111595192 111640600 111670656 111694104 
2542.560 111718016 111744312 111769592 111787072 111790488 111776800 
2542.922 111748088 111710024 111670056 111633784 111603576 111578552 
2543.283 111555968 111532984 111507728 111479480 111448080 111413384 
2543.645 111375544 111335760 111297224 111264600 111243168 111236136 
2544.007 111242568 111256664 111269712 111273080 111261632 111236208 
2544.369 111203240 111172384 111151880 111146680 111156872 111179344 
2544.731 111209904 111245720 111285504 111328056 111370128 111405376 
2545.093 111424768 111420552 111389640 111336720 111273336 111215648 
2545.454 111178712 111170848 111192424 111236368 111292760 111352552 
2545.816 111411464 111469992 111530816 111595288 111660728 111720040 
2546.178 111764680 111787416 111785936 111763544 111728136 111688744 
2546.540 111652032 111620752 111593392 111565984 111534088 111495136 
2546.902 111448976 111398048 111346424 111299456 111263400 111244408 
2547.263 111248600 111280352 111340664 111425864 111527112 111631720 
2547.625 111724080 111789960 111818952 111806424 111755096 111674568 
2547.987 111580344 111489400 111418480 111379408 111375848 111402368 
2548.349 111445240 111487224 111511048 111506376 111472456 111418560 
2548.711 111359568 111310856 111282680 111276208 111284040 111293800 
2549.073 111294632 111280936 111255552 111227704 111210024 111212680 
2549.434 111239512 111286752 111344336 111398824 111436464 111447376 
2549.796 111426544 111375056 111299440 111211584 111126968 111060744 
2550.158 111026224 111029816 111068976 111131504 111199104 111252736 
2550.520 111277984 111271192 111240448 111203528 111179904 111185144 
2550.882 111223608 111286944 111355552 111405728 111418608 111385096 
2551.243 111310368 111211672 111114584 111043312 111015272 111036672 
2551.605 111101712 111195336 111298024 111392896 111467688 111517632 
2551.967 111544224 111553200 111551288 111544200 111536160 111529616 
2552.329 111525888 111525336 111526960 111527664 111521784 111502656 
2552.691 111463944 111403072 111323224 111234352 111151056 111087936 
2553.052 111056408 111059824 111092856 111142552 111193432 111231104 
2553.414 111245680 111233872 111197768 111143416 111078136 111010400 
2553.776 110948824 110901832 110877784 110882680 110918168 110979904 
2554.138 111057728 111137456 111203808 111245888 111258728 111244520 
2554.500 111210344 111165656 111118832 111075056 111037248 111007136 
2554.862 110987240 110982104 110997312 111037664 111104784 111195432 
2555.223 111300992 111408704 111505528 111579592 111623392 111635064 
2555.585 111617880 111579168 111527664 111472352 111419528 111372112 
2555.947 111329552 111288992 111246928 111201408 111153440 111107416 
2556.309 111070072 111047856 111045520 111063912 111099768 111146200 
2556.671 111194624 111236336 111263200 111269320 111251296 111209072 
2557.032 111146616 111072504 110999376 110940344 110907040 110904824 
2557.394 110930808 110973672 111017352 111046488 111050336 111027072 
2557.756 110983000 110929984 110879552 110839624 110812264 110794432 
2558.118 110780880 110767176 110751880 110736064 110721856 110710456 
2558.480 110701248 110692424 110682600 110672312 110664224 110662088 
2558.842 110668856 110684960 110708312 110735928 110766488 110801672 
2559.203 110846064 110904224 110977344 111060088 111140672 111202736 
2559.565 111231984 111220816 111171904 111097280 111015304 110944864 
2559.927 110898704 110882280 110893136 110924400 110967752 111016744 
2560.289 111067608 111117824 111164576 111203480 111228088 111232072 
2560.651 111210648 111162936 111092736 111008784 110923504 110850080 
2561.012 110801792 110788344 110813672 110874584 110960248 111053928 
2561.374 111135048 111186000 111195568 111162808 111097024 111015928 
2561.736 110940320 110886896 110865840 110877936 110916520 110970544 
2562.098 111029280 111085520 111135928 111180760 111221520 111259016 
2562.460 111292112 111317904 111332520 111332864 111317336 111286552 
2562.822 111243080 111191248 111136104 111082488 111034664 110995008 
2563.183 110963872 110939368 110918328 110897176 110873352 110846240 
2563.545 110817424 110789864 110766544 110749384 110738448 110732352 
2563.907 110729144 110727800 110729160 110736152 110752776 110782768 
2564.269 110828160 110887960 110957768 111029928 111095272 111143416 
2564.631 111165048 111153928 111107920 111030656 110931272 110824360 
2564.992 110725936 110650672 110608232 110599976 110618752 110650456 
2565.354 110679664 110693072 110685064 110659304 110628088 110607760 
2565.716 110612736 110651184 110721048 110810496 110900208 110970632 
2566.078 111005896 110998440 110950512 110872720 110780560 110689112 
2566.440 110611032 110553648 110518888 110504544 110505848 110516800 
2566.802 110530512 110540416 110540312 110525152 110492728 110444384 
2567.163 110385872 110325928 110275608 110245448 110242808 110271336 
2567.525 110329912 110413440 110513176 110618464 110717200 110796464 
2567.887 110845424 110856560 110828536 110767496 110687600 110608312 
2568.249 110548496 110523160 110537224 110584456 110648176 110707216 
2568.611 110741672 110737744 110692280 110612128 110511816 110407488 
2568.972 110313928 110240536 110189960 110159656 110143936 110137072 
2569.334 110134920 110136392 110143072 110157736 110182440 110216608 
2569.696 110255960 110293448 110320600 110330368 110320256 110293312 
2570.058 110257808 110223968 110201296 110194104 110200304 110211656 
2570.420 110217608 110208584 110179208 110129984 110066408 109996840 
2570.781 109929296 109870832 109827312 109803656 109805664 109838896 
2571.143 109906976 110009136 110138208 110280584 110417472 110530816 
2571.505 110606168 110636304 110622168 110571264 110494608 110402776 
2571.867 110305344 110209600 110121344 110046384 109990352 109957952 
2572.229 109951856 109971000 110010168 110060232 110110776 110151176 
2572.591 110172984 110171864 110147832 110105992 110055312 110008744 
2572.952 109980256 109982216 110023624 110106904 110227352 110373024 
2573.314 110528144 110674560 110794728 110875408 110907240 110886408 
2573.676 110814800 110700200 110556024 110399256 110250200 110127208 
2574.038 110044096 110008040 110018072 110066640 110141488 110229712 
2574.400 110318056 110394160 110447416 110467976 110449112 110389664 
2574.761 110296592 110185488 110077776 109996792 109958656 109967872 
2575.123 110014712 110079832 110139912 110176904 110184872 110170320 
2575.485 110148384 110134064 110136176 110152200 110170232 110173880 
2575.847 110151312 110100584 110032272 109965192 109921456 109918712 
2576.209 109963592 110050752 110163752 110281312 110380272 110442696 
2576.571 110459296 110430240 110365000 110279552 110193584 110124160 
2576.932 110083120 110074312 110093792 110131952 110177520 110221912 
2577.294 110260216 110291488 110316416 110334616 110343376 110338440 
2577.656 110316384 110277904 110229328 110182160 110148576 110138128 
2578.018 110153648 110190656 110238904 110286568 110324608 110347832 
2578.380 110355264 110347640 110325056 110285848 110227528 110149392 
2578.741 110054776 109952536 109855936 109778280 109730568 109717528 
2579.103 109736880 109780136 109835688 109892200 109940216 109974920 
2579.465 109996208 110008720 110020048 110039176 110073544 110125640 
2579.827 110191168 110258616 110313136 110339568 110329288 110283832 
2580.189 110215696 110144320 110089528 110066000 110077440 110116856 
2580.551 110169648 110220824 110259024 110280072 110286096 110282232 
2580.912 110272560 110257584 110234440 110199224 110150312 110090472 
2581.274 110026928 109969520 109928312 109910048 109917568 109949456 
2581.636 110001432 110067136 110139512 110212008 110278680 110335712 
2581.998 110382176 110420256 110454184 110488272 110524352 110560152 
2582.360 110589112 110602608 110594112 110561944 110511224 110451792 
2582.721 110395480 110350912 110320352 110299464 110280000 110254240 
2583.083 110218832 110176928 110137240 110110864 110105896 110124816 
2583.445 110162424 110207840 110246456 110264384 110252640 110208552 
2583.807 110137408 110051088 109966872 109902056 109870328 109877824 
2584.169 109920616 109985216 110051736 110101520 110120936 110106560 
2584.531 110064832 110009304 109954456 109910000 109879048 109858176 
2584.892 109841392 109824112 109806248 109791816 109786128 109791472 
2585.254 109804504 109816104 109815304 109792808 109745976 109679864 
2585.616 109606192 109538584 109488064 109460624 109455960 109469264 
2585.978 109493688 109523208 109553064 109579832 109600984 109614160 
2586.340 109617808 109612112 109599792 109585880 109576296 109576520 
2586.701 109589360 109614560 109649104 109688824 109729344 109766880 
2587.063 109798536 109821464 109832888 109830840 109814912 109787520 
2587.425 109753648 109720152 109692968 109674984 109664856 109657832 
2587.787 109647960 109631368 109608776 109585992 109572016 109574832 
2588.149 109598344 109639424 109688664 109732008 109756184 109752760 
2588.510 109720896 109668048 109608184 109558872 109535256 109547584 
2588.872 109597816 109679176 109776488 109869544 109938320 109965192 
2589.234 109940760 109865456 109750176 109613168 109476376 109361280 
2589.596 109282440 109246112 109249048 109281360 109329264 109380056 
2589.958 109426120 109465456 109501448 109539520 109584192 109635760 
2590.320 109689696 109737760 109771728 109786504 109782456 109765176 
2590.681 109743328 109724800 109713040 109706192 109698256 109682808 
2591.043 109656032 109619200 109577672 109538248 109504776 109476032 
2591.405 109445864 109407072 109355720 109295360 109236944 109196728 
2591.767 109189720 109223232 109294312 109389992 109492720 109584912 
2592.129 109655752 109702176 109727208 109735824 109731272 109713504 
2592.490 109680520 109631736 109571432 109509000 109458152 109431752 
2592.852 109437112 109473848 109533928 109605200 109675112 109735784 
2593.214 109785032 109825936 109864024 109904864 109951640 110004088 
2593.576 110058488 110108232 110145120 110159792 110144288 110094432 
2593.938 110012152 109906496 109792944 109690696 109615616 109576824 
2594.300 109572928 109593376 109621544 109641456 109643720 109626864 
2594.661 109596832 109562352 109530824 109504624 109481480 109457176 
2595.023 109429904 109402744 109384184 109383920 109409008 109458720 
2595.385 109523496 109585784 109625992 109629408 109590376 109515600 
2595.747 109422280 109334920 109276416 109263592 109302208 109385720 
2596.109 109496776 109611848 109708992 109770896 109790096 109769080 
2596.470 109718224 109650976 109579048 109510392 109447640 109390552 
2596.832 109339112 109295776 109266256 109257528 109273928 109314392 
2597.194 109370744 109430216 109478008 109503184 109501800 109477568 
2597.556 109439544 109398528 109363640 109339464 109326624 109323328 
2597.918 109327640 109338504 109355768 109378856 109405176 109429680 
2598.280 109445832 109446720 109427832 109388200 109330912 109262200 
2598.641 109190696 109126384 109078576 109055664 109063320 109102728 
2599.003 109169320 109252504 109338032 109409520 109453976 109464848 
2599.365 109443272 109396960 109337112 109274528 109215800 109162848 
2599.727 109114072 109067280 109022144 108981856 108951896 108938416 
2600.089 108945104 108971568 109012968 109061864 109110128 109150736 
2600.450 109179584 109195032 109197496 109188280 109169008 109141008 
2600.812 109105120 109061984 109012096 108956296 108896576 108836488 
2601.174 108781360 108738000 108712632 108709040 108726576 108759728 
2601.536 108798800 108832968 108854520 108861152 108857704 108854200 
2601.898 108863488 108896144 108957232 109045104 109152200 109267464 
2602.260 109378872 109476936 109554664 109607848 109634368 109633152 
2602.621 109604304 109549552 109473216 109382480 109286616 109196656 
2602.983 109122152 109069680 109041112 109032952 109036968 109041888 
2603.345 109037160 109014912 108972968 108915488 108852520 108796768 
2603.707 108759640 108748656 108764544 108801824 108850440 108900232 
2604.069 108943464 108976936 109001768 109021424 109038712 109053384 
2604.430 109061480 109056448 109032080 108984816 108916200 108833008 
2604.792 108746680 108669832 108613904 108586896 108591136 108623336 
2605.154 108675024 108735424 108792696 108837408 108864880 108875808 
2605.516 108876000 108874080 108879336 108898080 108931984 108977744 
2605.878 109028752 109076832 109114832 109138504 109146560 109140136 
2606.240 109121600 109093672 109058896 109019584 108978424 108938360 
2606.601 108902368 108873176 108852432 108840576 108836776 108839384 
2606.963 108846176 108854848 108863400 108870552 108876296 108882256 
2607.325 108891960 108909856 108939648 108982464 109035152 109089848 
2607.687 109135104 109159928 109156424 109123272 109066288 108997472 
2608.049 108931472 108880704 108853552 108851912 108872096 108906256 
2608.410 108945192 108979952 109002680 109008112 108993776 108960904 
2608.772 108914680 108864472 108822280 108799432 108804872 108841992 
2609.134 108908088 108995168 109092808 109190808 109280608 109356912 
2609.496 109416792 109459168 109484456 109494936 109495248 109491704 
2609.858 109491536 109499800 109516560 109535416 109544560 109530824 
2610.219 109483824 109401680 109292544 109173816 109065472 108985392 
2610.581 108943080 108937064 108956048 108983328 109003200 109004192 
2610.943 108982704 108942400 108892320 108842984 108803608 108780376 
2611.305 108774792 108784216 108802488 108822344 108836576 108840656 
2611.667 108834072 108820736 108807704 108802768 108812216 108838240 
2612.029 108878304 108925760 108972304 109010048 109033096 109038960 
2612.390 109027952 109002760 108967504 108927768 108889840 108859712 
2612.752 108842432 108840024 108850600 108868144 108884704 108892928 
2613.114 108889248 108875808 108860528 108854736 108868328 108906920 
2613.476 108968456 109043856 109118032 109174376 109199112 109183248 
2613.838 109125376 109031544 108914856 108791952 108681440 108600512 
2614.199 108560352 108565080 108609856 108682912 108766936 108844032 
2614.561 108899920 108924992 108916360 108876656 108812864 108734064 
2614.923 108650848 108574592 108515224 108480432 108473160 108490120 
2615.285 108521688 108554304 108575544 108577408 108560352 108532832 
2615.647 108508616 108500264 108514344 108548568 108592912 108633096 
2616.009 108656152 108655528 108631936 108592432 108546440 108503296 
2616.370 108469496 108448800 108443800 108456840 108490112 108544456 
2616.732 108617792 108703936 108793224 108875648 108942864 108990536 
2617.094 109018576 109029048 109023608 109001688 108960464 108897264 
2617.456 108812440 108711864 108606232 108509160 108433160 108384960 
2617.818 108364392 108364824 108377024 108392200 108405648 108417696 
2618.179 108432408 108454984 108488856 108534176 108587392 108642128 
2618.541 108690616 108726088 108743592 108741160 108720024 108684256 
2618.903 108639624 108591792 108545640 108504008 108468216 108439664 
2619.265 108421208 108418032 108437024 108483544 108558128 108653128 
2619.627 108753608 108838488 108887016 108885984 108832920 108738040 
2619.989 108619976 108501952 108403536 108336856 108305928 108307904 
2620.350 108336264 108383400 108442600 108507208 108569968 108623664 
2620.712 108661280 108678408 108674776 108654272 108623216 108587448 
2621.074 108550328 108511632 108468968 108420600 108367880 108316472 
2621.436 108275080 108251888 108252392 108277016 108321712 108379480 
2621.798 108442896 108505640 108561648 108604904 108628848 108627096 
2622.159 108596776 108541280 108472480 108407784 108367128 108365240 
2622.521 108405552 108477992 108561176 108630120 108661808 108643960 
2622.883 108577136 108473408 108350704 108227856 108120544 108037960 
2623.245 107984256 107959360 107960472 107982328 108017584 108057696 
2623.607 108093296 108117112 108125712 108120128 108104936 108085792 
2623.969 108066944 108049048 108029912 108006456 107977976 107948240 
2624.330 107925880 107921448 107944800 108000520 108085912 108190744 
2624.692 108300344 108399256 108474320 108518912 108533288 108524520 
2625.054 108503352 108482000 108470248 108472216 108485400 108501240 
2625.416 108508472 108496168 108458808 108398320 108324320 108250248 
2625.778 108189472 108151096 108136728 108141296 108155280 108169176 
2626.139 108175176 108168832 108148392 108113048 108062504 107997456 
2626.501 107921736 107843368 107774664 107730344 107721864 107754304 
2626.863 107823392 107917464 108020336 108117168 108199280 108264120 
2627.225 108313960 108351592 108377208 108387152 108375968 108339920 
2627.587 108280456 108205312 108126744 108056376 108002168 107965600 
2627.948 107942904 107927800 107915552 107905056 107898056 107896592 
2628.310 107900096 107903632 107899672 107881184 107845344 107795752 
2628.672 107741688 107694448 107662008 107646488 107642984 107642920 
2629.034 107637360 107621928 107598120 107572464 107552856 107545344 
2629.396 107552024 107570880 107597696 107628368 107660624 107693800 
2629.758 107727432 107759896 107787496 107805584 107810880 107803408 
2630.119 107787904 107772728 107767944 107780952 107814192 107863576 
2630.481 107920048 107971328 108005832 108016440 108001464 107965440 
2630.843 107917160 107868128 107828792 107806160 107802616 107815304 
2631.205 107837456 107860200 107876024 107880352 107873088 107858168 
2631.567 107842232 107832096 107832240 107843896 107864616 107889592 
2631.928 107912840 107929472 107936544 107933496 107921992 107905464 
2632.290 107888448 107875472 107870824 107877448 107896224 107925624 
2632.652 107961728 107999512 108033560 108060368 108079408 108093432 
2633.014 108107512 108127352 108156928 108196288 108240592 108280648 
2633.376 108305568 108304624 108271072 108204144 108109464 107997592 
2633.738 107881104 107772440 107680216 107608928 107559384 107530544 
2634.099 107521312 107531472 107561296 107609584 107671760 107739208 
2634.461 107799464 107839848 107851608 107832624 107788952 107732960 
2634.823 107680000 107642000 107624944 107626936 107640312 107654504 
2635.185 107660192 107652360 107630104 107595784 107553088 107505952 
2635.547 107458216 107414648 107382232 107369296 107384432 107433568 
2635.908 107516912 107627560 107751872 107873576 107975600 108045064 
2636.270 108075368 108065912 108021336 107949552 107860968 107766360 
2636.632 107677056 107604200 107556408 107539104 107552464 107591432 
2636.994 107646160 107704712 107756560 107793928 107814016 107818248 
2637.356 107811016 107797352 107781400 107765616 107750416 107734864 
2637.718 107717264 107696112 107670616 107641376 107610648 107582576 
2638.079 107562416 107555072 107564088 107589952 107629896 107678368 
2638.441 107729080 107776592 107817672 107851656 107879456 107902000 
2638.803 107918976 107928360 107927312 107913696 107887176 107849952 
2639.165 107805992 107760000 107715496 107674152 107635920 107599880 
2639.527 107565368 107533072 107505120 107485216 107477792 107487144 
2639.888 107517136 107569936 107645128 107738408 107841416 107942088 
2640.250 108026016 108081224 108100520 108084880 108042976 107989880 
2640.612 107941888 107910664 107900640 107907136 107919016 107921976 
2640.974 107904552 107861392 107794656 107712688 107627672 107552472 
2641.336 107496928 107467224 107464968 107487736 107529704 107583008 
2641.698 107639392 107690600 107730472 107755424 107764408 107758520 
2642.059 107740184 107712296 107677640 107639288 107600728 107565624 
2642.421 107537616 107518984 107509936 107508344 107510928 107515096 
2642.783 107520544 107529832 107547176 107575912 107615424 107659920 
2643.145 107699200 107723248 107725928 107709168 107682736 107661848 
2643.507 107660064 107683096 107725328 107770952 107799576 107792920 
2643.868 107743424 107656752 107551032 107448856 107371672 107331712 
2644.230 107328856 107351656 107382256 107403440 107402288 107374680 
2644.592 107324928 107263968 107205104 107160960 107140688 107147648 
2644.954 107179376 107228096 107283552 107334296 107371112 107389040 
2645.316 107387704 107370864 107344560 107315816 107290560 107273480 
2645.677 107268352 107278096 107304736 107348424 107406072 107470368 
2646.039 107530328 107574536 107593528 107584112 107550784 107505144 
2646.401 107461360 107431328 107420656 107426304 107437984 107442024 
2646.763 107427624 107389752 107331512 107261752 107192600 107134704 
2647.125 107094160 107072736 107068576 107078928 107101704 107136336 
2647.487 107182496 107238160 107298344 107354272 107394696 107409680 
2647.848 107392632 107343568 107269144 107182280 107098368 107031336 
2648.210 106991800 106984016 107006416 107052624 107114256 107182392 
2648.572 107249056 107308360 107355680 107387760 107402880 107400968 
2648.934 107384312 107357448 107326920 107299336 107279312 107268088 
2649.296 107262848 107257560 107244976 107219864 107180584 107130032 
2649.657 107074416 107022024 106980896 106957128 106955408 106978760 
2650.019 107029040 107106448 107208336 107327584 107451208 107562992 
2650.381 107645000 107682568 107669240 107608224 107512072 107397536 
2650.743 107281840 107175808 107081592 106993080 106900136 106793528 
2651.105 106669672 106533168 106396320 106276256 106188688 106145496 
2651.467 106150776 106200800 106284816 106388224 106496336 106595592 
2651.828 106677224 106737776 106779224 106807712 106831856 106860392 
2652.190 106898928 106949040 107007360 107067376 107121000 107161824 
2652.552 107187224 107198824 107201544 107201216 107202288 107205512 
2652.914 107207784 107203008 107185160 107150472 107099680 107038072 
2653.276 106974776 106919888 106881056 106862048 106861192 106872400 
2653.637 106886664 106895264 106891792 106873248 106840376 106796640 
2653.999 106746928 106695712 106646768 106602968 106566560 106540088 
2654.361 106526488 106528656 106548840 106587336 106641560 106705392 
2654.723 106770312 106826256 106863680 106876720 106864480 106832752 
2655.085 106792432 106758872 106747312 106768416 106825736 106913248 
2655.447 107016952 107116784 107193792 107234008 107232312 107193480 
2655.808 107130344 107059896 106997040 106952840 106931840 106933176 
2656.170 106952464 106984384 107024056 107066328 107105296 107133128 
2656.532 107139728 107115624 107054272 106955808 106828272 106687968 
2656.894 106555760 106450512 106385952 106365336 106381520 106418504 
2657.256 106457576 106482696 106484376 106462568 106425288 106385456 
2657.617 106355096 106342264 106348440 106369152 106396248 106421808 
2657.979 106441352 106454600 106464784 106475872 106489976 106505544 
2658.341 106517712 106520416 106509944 106487344 106459440 106436432 
2658.703 106429864 106448000 106493152 106561216 106643136 106727952 
2659.065 106804632 106865008 106904032 106919304 106910808 106880576 
2659.427 106833032 106774464 106713272 106658136 106615592 106588888 
2659.788 106576768 106574736 106576568 106577064 106573536 106565360 
2660.150 106552952 106536064 106512992 106481656 106441616 106396592 
2660.512 106354808 106328360 106329040 106363576 106431112 106522304 
2660.874 106622464 106714688 106786080 106829504 106843752 106831744 
2661.236 106798184 106748104 106686760 106621600 106562784 106521560 
2661.597 106508064 106526120 106570120 106624248 106667392 106679760 
2661.959 106649640 106579000 106483240 106387072 106314424 106283400 
2662.321 106300272 106359784 106448240 106549512 106649824 106738752 
2662.683 106809928 106859328 106883800 106881800 106854776 106809016 
2663.045 106754920 106705888 106673920 106665032 106677320 106701032 
2663.406 106722672 106728480 106710120 106666496 106603696 106531832 
2663.768 106462272 106405240 106367656 106353968 106366456 106405480 
2664.130 106469272 106553192 106650000 106749464 106840880 106915144 
2664.492 106965960 106991144 106992048 106972104 106935272 106885296 
2664.854 106825688 106759672 106691128 106624200 106562328 106507848 
2665.216 106461152 106421344 106387504 106360168 106342432 106339872 
2665.577 106358584 106402992 106473272 106564264 106665080 106760776 
2665.939 106836456 106878440 106878112 106833592 106750248 106640064 
2666.301 106519520 106408304 106323712 106277920 106274888 106308824 
2666.663 106364920 106422656 106462568 106469528 106438096 106373128 
2667.025 106288664 106202992 106133024 106091440 106083024 106105344 
2667.386 106150808 106210384 106275624 106340392 106401176 106455784 
2667.748 106502040 106537320 106558216 106561784 106546792 106514760 
2668.110 106470096 106419400 106370456 106329688 106301200 106285888 
2668.472 106281808 106285144 106291816 106299192 106306512 106315048 
2668.834 106326840 106343504 106364816 106388200 106408984 106422312 
2669.196 106424640 106415680 106398832 106380784 106369712 106371952 
2669.557 106390216 106421696 106458808 106490288 106504880 106494760 
2669.919 106457328 106396376 106320840 106242752 106173048 106119632 
2670.281 106085776 106070248 106068928 106077128 106091928 106112936 
2670.643 106142272 106183120 106238232 106308176 106390648 106480344 
2671.005 106570336 106652720 106719392 106763464 106779032 106761768 
2671.366 106709936 106625120 106513208 106384008 106251784 106131976 
2671.728 106038376 105981080 105963160 105980416 106021856 106073720 
2672.090 106121680 106154488 106166680 106158360 106134608 106102736 
2672.452 106071160 106047080 106035816 106041320 106066080 106111288 
2672.814 106176408 106258456 106351280 106445368 106530296 106595752 
2673.176 106634808 106645784 106632520 106602792 106565208 106526792 
2673.537 106490376 106454504 106414976 106367632 106310704 106245872 
2673.899 106177608 106111432 106051752 106000640 105958312 105924816 
2674.261 105901840 105893888 105907008 105946184 106012480 106100728 
2674.623 106199648 106293448 106367656 106411648 106421936 106402104 
2674.985 106361064 106309856 106258128 106214088 106183704 106171608 
2675.346 106182216 106218592 106281144 106365384 106461696 106555624 
2675.708 106630472 106672592 106673488 106632632 106556456 106456888 
2676.070 106347424 106239616 106142296 106060056 105994008 105942776 
2676.432 105903552 105872984 105847864 105826416 105808640 105796856 
2676.794 105794448 105804736 105828384 105862080 105897904 105925400 
2677.156 105934832 105919840 105880216 105821664 105754080 105687200 
2677.517 105628328 105580624 105543496 105515032 105494384 105483008 
2677.879 105484360 105501608 105535288 105581800 105634032 105683712 
2678.241 105723880 105752152 105771024 105786936 105807072 105837120 
2678.603 105878800 105929464 105982400 106028632 106059128 106065344 
2678.965 106041416 105985328 105900072 105793840 105679776 105574152 
2679.326 105491264 105440632 105423096 105430576 105447512 105456240 
2679.688 105443512 105403776 105341904 105270824 105208384 105170496 
2680.050 105167576 105202624 105271760 105366280 105475432 105589304 
2680.412 105698360 105793896 105868232 105914288 105927552 105907800 
2680.774 105860736 105797432 105732632 105682200 105657856 105664976 
2681.135 105700760 105755656 105815064 105863544 105889208 105885096 
2681.497 105851120 105792888 105720488 105645240 105577288 105524560 
2681.859 105491136 105478048 105484112 105507344 105545664 105597232 
2682.221 105660096 105731056 105805032 105875272 105933360 105971536 
2682.583 105984392 105970008 105930608 105871600 105800264 105722912 
2682.945 105643960 105565216 105486368 105406592 105326096 105247056 
2683.306 105173896 105112168 105066776 105040840 105034456 105044992 
2683.668 105067728 105097688 105130656 105163744 105195544 105224912 
2684.030 105250232 105268824 105277072 105271672 105251312 105218144 
2684.392 105178128 105140368 105115696 105113056 105137656 105189240 
2684.754 105262520 105348088 105435144 105514456 105579240 105626184 
2685.115 105654696 105665864 105661384 105643312 105614672 105579832 
2685.477 105545032 105518128 105506184 105513896 105541112 105582216 
2685.839 105626240 105659584 105670288 105650232 105598208 105519960 
2686.201 105427112 105333384 105251512 105191248 105157064 105148680 
2686.563 105162096 105191448 105229832 105270592 105308256 105338480 
2686.925 105359008 105370168 105375232 105379760 105390152 105411584 
2687.286 105445424 105487760 105529448 105559248 105566568 105546152 
2687.648 105500488 105440368 105381832 105340272 105326616 105342168 
2688.010 105378496 105419056 105445792 105444456 105408880 105343192 
2688.372 105260208 105177824 105112296 105075808 105072800 105100328 
2688.734 105149088 105206608 105260304 105298752 105314456 105304632 
2689.095 105271824 105223376 105170456 105126048 105100632 105100376 
2689.457 105124400 105165576 105211960 105251264 105275328 105282104 
2689.819 105276424 105267328 105264816 105275072 105298584 105330136 
2690.181 105361832 105386096 105399096 105401880 105399408 105397856 
2690.543 105401208 105410224 105422056 105432672 105438928 105440832 
2690.905 105441504 105445672 105456648 105474120 105492904 105504760 
2691.266 105500176 105472200 105419128 105345056 105258952 105171792 
2691.628 105095040 105037392 105004024 104996816 105014544 105053608 
2691.990 105108360 105172456 105238832 105301000 105354432 105396528 
2692.352 105426720 105445480 105453032 105448536 105430432 105397808 
2692.714 105352480 105300304 105251472 105217048 105206200 105221712 
2693.075 105258256 105302648 105338112 105350672 105332792 105286824 
2693.437 105223344 105157664 105103152 105067280 105049912 105044984 
2693.799 105044040 105040640 105033312 105025568 105023944 105034336 
2694.161 105060088 105100280 105150768 105205296 105257776 105303000 
2694.523 105336608 105355240 105356368 105338888 105303984 105255896 
2694.885 105201432 105147832 105101408 105065056 105037976 105016648 
2695.246 104997624 104979640 104965304 104960080 104970296 105000368 
2695.608 105050344 105115360 105186856 105255680 105313600 105355584 
2695.970 105380208 105388800 105384616 105371816 105355400 105340320 
2696.332 105330808 105329360 105335224 105343912 105347816 105338992 
2696.694 105311520 105264472 105202512 105135104 105072928 105024208 
2697.055 104992952 104978200 104976072 104982512 104995872 105017464 
2697.417 105050136 105095656 105152352 105214168 105272592 105318520 
2697.779 105345872 105353288 105343896 105323288 105297048 105269376 
2698.141 105242288 105216968 105195256 105180176 105175592 105184032 
2698.503 105204392 105230568 105251856 105256512 105234464 105182072 
2698.865 105103648 105011616 104922504 104852568 104813872 104810016 
2699.226 104835864 104879024 104924872 104959696 104975480 104971960 
2699.588 104955976 104938472 104929656 104935840 104956160 104983280 
2699.950 105005616 105012864 104999608 104968184 104927760 104892232 
2700.312 104875456 104886568 104928728 104998600 105089032 105190632 
2700.674 105294488 105392760 105477392 105540600 105574664 105573272 
2701.035 105534208 105460856 105362584 105251960 105142736 105045512 
2701.397 104965432 104902592 104853560 104814032 104780472 104750856 
2701.759 104723808 104697320 104668752 104635704 104598520 104561576 
2702.121 104534208 104527896 104551432 104607248 104688072 104778712 
2702.483 104858688 104910256 104923664 104899928 104849872 104790200 
2702.844 104738120 104704832 104694320 104703024 104723216 104745408 
2703.206 104761984 104768800 104764992 104752680 104735776 104719312 
2703.568 104707912 104704608 104709728 104720232 104730128 104732376 
2703.930 104722184 104698960 104668056 104638928 104623032 104628832 
2704.292 104658680 104707848 104766296 104822384 104866400 104894192 
2704.654 104906952 104909960 104908952 104908296 104909328 104910992 
2705.015 104911080 104907648 104899568 104885960 104865512 104836376 
2705.377 104796792 104746816 104689944 104633816 104588144 104562696 
2705.739 104563320 104589440 104633200 104681384 104719736 104735416 
2706.101 104721336 104677104 104608504 104525096 104438008 104358312 
2706.463 104294456 104252480 104235488 104243552 104274072 104322168 
2706.824 104381816 104446056 104508248 104562880 104605128 104631752 
2707.186 104640896 104632752 104609880 104577664 104543768 104515936 
2707.548 104500520 104499872 104511528 104528464 104541752 104544048 
2707.910 104531888 104507296 104476736 104448864 104430616 104425176 
2708.272 104431104 104443816 104457624 104468088 104473568 104474400 
2708.634 104471608 104465112 104452896 104431600 104398224 104351968 
2708.995 104295504 104234896 104178432 104133728 104106456 104099016 
2709.357 104110680 104138552 104178912 104228304 104283368 104340808 
2709.719 104397144 104447920 104488560 104514864 104523504 104513016 
2710.081 104483856 104438488 104380872 104316432 104251392 104191648 
2710.443 104142440 104106728 104084696 104073336 104067608 104061872 
2710.804 104051504 104034784 104013072 103990256 103970736 103958088 
2711.166 103953664 103956736 103965504 103978760 103996904 104022304 
2711.528 104058008 104106064 104165928 104233848 104303192 104365600 
2711.890 104413472 104440728 104443528 104420664 104373016 104304096 
2712.252 104219936 104130584 104048976 103989000 103963480 103979280 
2712.614 104034936 104119512 104216112 104305608 104372504 104410416 
2712.975 104422528 104419960 104415616 104419832 104435288 104456768 
2713.337 104473352 104474096 104452616 104409648 104352344 104291200 
2713.699 104235824 104190896 104155776 104126152 104097672 104069120 
2714.061 104044176 104029952 104034608 104062872 104113568 104178688 
2714.423 104246008 104302304 104336864 104345248 104329520 104297616 
2714.784 104259856 104227240 104208368 104207824 104226592 104262264 
2715.146 104310600 104366048 104423208 104477120 104522952 104556720 
2715.508 104574792 104574328 104554088 104515088 104461200 104398624 
2715.870 104335712 104280704 104239472 104214304 104203008 104199664 
2716.232 104196552 104187272 104168720 104142464 104113872 104090784 
2716.594 104080656 104087792 104112352 104150096 104194024 104235928 
2716.955 104269240 104290912 104302160 104308272 104317200 104337464 
2717.317 104374552 104428976 104494216 104558128 104604016 104615440 
2717.679 104581584 104499792 104377968 104232472 104086008 103960448 
2718.041 103872632 103831616 103836912 103880352 103948432 104027064 
2718.403 104102872 104165584 104209216 104231064 104231632 104213480 
2718.764 104180496 104136744 104085704 104030312 103972864 103916072 
2719.126 103863896 103821360 103794520 103788704 103806688 103847648 
2719.488 103906936 103977832 104052632 104125224 104191576 104248680 
2719.850 104293184 104320008 104321920 104292144 104227016 104129608 
2720.212 104010408 103887288 103780984 103708832 103682144 103702584 
2720.573 103763440 103851968 103954048 104056904 104149496 104223616 
2720.935 104272280 104289808 104273304 104224264 104150296 104063872 
2721.297 103981216 103916976 103879568 103869416 103878792 103895424 
2721.659 103906568 103904656 103889128 103866280 103845704 103836944 
2722.021 103845752 103872312 103911784 103956368 103998400 104031640 
2722.383 104053024 104062368 104061512 104053024 104039400 104022576 
2722.744 104003912 103984816 103967504 103955232 103952528 103963896 
2723.106 103991880 104035200 104087392 104137592 104171736 104177600 
2723.468 104148624 104086624 104001600 103909368 103826704 103764984 
2723.830 103728040 103711336 103705728 103701192 103691832 103677856 
2724.192 103664752 103659952 103669144 103693912 103731240 103775064 
2724.553 103818664 103857248 103887976 103909552 103920896 103920192 
2724.915 103905408 103875712 103832992 103782576 103732240 103690752 
2725.277 103664600 103656624 103665568 103687336 103716544 103748208 
2725.639 103778864 103806008 103827632 103841856 103847000 103842240 
2726.001 103828288 103807408 103782520 103756168 103729864 103704088 
2726.363 103679432 103658008 103643856 103642384 103657808 103690208 
2726.724 103733408 103775368 103801832 103799664 103762840 103694592 
2727.086 103607320 103517584 103441352 103389072 103362408 103355456 
2727.448 103358232 103362304 103363880 103365824 103375528 103401728 
2727.810 103449272 103515864 103590752 103657776 103699312 103701416 
2728.172 103659808 103581608 103485344 103394536 103333896 103320624 
2728.533 103359184 103439824 103541048 103636616 103700552 103716384 
2728.895 103679992 103600008 103493688 103382856 103289112 103228296 
2729.257 103210784 103240096 103313560 103422416 103552600 103686800 
2729.619 103804920 103889568 103929664 103922920 103876800 103806120 
2729.981 103728848 103659304 103605936 103569640 103546392 103530656 
2730.343 103519424 103513592 103517112 103533784 103564488 103605520 
2730.704 103649808 103689544 103719168 103737568 103747720 103754616 
2731.066 103762208 103771752 103781672 103789184 103792256 103791048 
2731.428 103787512 103783496 103778280 103767464 103743304 103698352 
2731.790 103628552 103536856 103433208 103333680 103256104 103214208 
2732.152 103215464 103258480 103334528 103429224 103527048 103614544 
2732.513 103681552 103723592 103741144 103739064 103724600 103706008 
2732.875 103690440 103682064 103681816 103687480 103695096 103700384 
2733.237 103700200 103693208 103679320 103658912 103631776 103596824 
2733.599 103552792 103499080 103437032 103370096 103303768 103244352 
2733.961 103197232 103166552 103154392 103161248 103186296 103227736 
2734.323 103282808 103347216 103415736 103482296 103540888 103587120 
2734.684 103618440 103634216 103634832 103620856 103592224 103548688 
2735.046 103491000 103422224 103348400 103278800 103223064 103189232 
2735.408 103181048 103196720 103229072 103267416 103301056 103320520 
2735.770 103319776 103296544 103251440 103187168 103107688 103018224 
2736.132 102924672 102833544 102751728 102684840 102637136 102610816 
2736.493 102606224 102622744 102659664 102716640 102793520 102889472 
2736.855 103001920 103125456 103252080 103372032 103474600 103551008 
2737.217 103595368 103605920 103585144 103539704 103479248 103414032 
2737.579 103354496 103308640 103280824 103271576 103277584 103293008 
2737.941 103310608 103324040 103328632 103322056 103304424 103277576 
2738.302 103244608 103208816 103173688 103141992 103115448 103094168 
2738.664 103076584 103059504 103038608 103010072 102971432 102922536 
2739.026 102865640 102804872 102745336 102691344 102646496 102613056 
2739.388 102592256 102584592 102589608 102605688 102629048 102654168 
2739.750 102674224 102682320 102674128 102649152 102611768 102570000 
2740.112 102534192 102514216 102516336 102542408 102589000 102648704 
2740.473 102710992 102765064 102801896 102815312 102804088 102772000 
2740.835 102727832 102682696 102648400 102634136 102643680 102674904 
2741.197 102720560 102771672 102819920 102861040 102895496 102927208 
2741.559 102960320 102996608 103033464 103064992 103084200 103086776 
2741.921 103073704 103051912 103032240 103024856 103036248 103066080 
2742.282 103107688 103149960 103181784 103195200 103186944 103158496 
2742.644 103114184 103059376 102998568 102935704 102874712 102819880 
2743.006 102776536 102749592 102741960 102753192 102779024 102812480 
2743.368 102845208 102870232 102882944 102881120 102864376 102833192 
2743.730 102788584 102732648 102670096 102608904 102559328 102532752 
2744.092 102537168 102574272 102637472 102713360 102785056 102836496 
2744.453 102858256 102849064 102815656 102768976 102721008 102680680 
2744.815 102651976 102634936 102627304 102626856 102632424 102643928 
2745.177 102661360 102683576 102707960 102730856 102748616 102758912 
2745.539 102760760 102754232 102739456 102716016 102683256 102641312 
2745.901 102592560 102542120 102497152 102465592 102453192 102461904 
2746.262 102489424 102530648 102579520 102631208 102683448 102735680 
2746.624 102787616 102837600 102881752 102915008 102933104 102934512 
2746.986 102921864 102901400 102881464 102869424 102870224 102885376 
2747.348 102913504 102951304 102994632 103038944 103078392 103105696 
2747.710 103112872 103091752 103037328 102949704 102835640 102707192 
2748.072 102580016 102470112 102389408 102345232 102339248 102368928 
2748.433 102428528 102510592 102606936 102707816 102803152 102883464 
2748.795 102940560 102970024 102971840 102950528 102913552 102870152 
2749.157 102829448 102798560 102782736 102784672 102804320 102838440 
2749.519 102880624 102922200 102953120 102965536 102956040 102927376 
2749.881 102887520 102847472 102817248 102801592 102798928 102802136 
2750.242 102802488 102793056 102772344 102744496 102717632 102699608 
2750.604 102694848 102702952 102719472 102738464 102755264 102768568 
2750.966 102779960 102792072 102806128 102820264 102829368 102826888 
2751.328 102806560 102764976 102702808 102625168 102540744 102460920 
2751.690 102398952 102366792 102373800 102423384 102511016 102623032 
2752.052 102738664 102835992 102895464 102907192 102873136 102806360 
2752.413 102725376 102648096 102586592 102543272 102512576 102484392 
2752.775 102449808 102403736 102346464 102281712 102214304 102147608 
2753.137 102083048 102021488 101964992 101917952 101887104 101878864 
2753.499 101897240 101942064 102009232 102092136 102184280 102281240 
2753.861 102380504 102480096 102576768 102664176 102733752 102777136 
2754.222 102788576 102767840 102720600 102657336 102589136 102525912 
2754.584 102474120 102436464 102413632 102405768 102413272 102436432 
2754.946 102474000 102521952 102572712 102617064 102646248 102654640 
2755.308 102642048 102613760 102579392 102549232 102532384 102534056 
2755.670 102554392 102589048 102630392 102669840 102698704 102710704 
2756.031 102702624 102674568 102629544 102572504 102508984 102443352 
2756.393 102378672 102316744 102258808 102206952 102164520 102135440 
2756.755 102123192 102128464 102147968 102173720 102195320 102202232 
2757.117 102186728 102146728 102086232 102014504 101942672 101882088 
2757.479 101841224 101824152 101831032 101858680 101901952 101954336 
2757.841 102009384 102060960 102103328 102132088 102144224 102138480 
2758.202 102115832 102079552 102035240 101989568 101950312 101924096 
2758.564 101914664 101921680 101940096 101961296 101975200 101974792 
2758.926 101959160 101935816 101918720 101925536 101970912 102059840 
2759.288 102184456 102323704 102449888 102533376 102553856 102505568 
2759.650 102399272 102258240 102112056 101989288 101908184 101875456 
2760.011 101885872 101927192 101984240 102044424 102100800 102151152 
2760.373 102196720 102239096 102278048 102310408 102330792 102332848 
2760.735 102312224 102268088 102204584 102130184 102057336 101999760 
2761.097 101968752 101971608 102008352 102071632 102146896 102216576 
2761.459 102264448 102279312 102259384 102212608 102154728 102102992 
2761.821 102071904 102067520 102085888 102114512 102137576 102142608 
2762.182 102124304 102086888 102041648 102002832 101980784 101978512 
2762.544 101990408 102005280 102010232 101995560 101958240 101901824 
2762.906 101834776 101766720 101706800 101661456 101634296 101627056 
2763.268 101639560 101669744 101713048 101763016 101812296 101855048 
2763.630 101889736 101920136 101954376 102000656 102063360 102138712 
2763.991 102214848 102273880 102299184 102281656 102223824 102139400 
2764.353 102049216 101974880 101930104 101918904 101935040 101967128 
2764.715 102002600 102032728 102053864 102065488 102067648 102058784 
2765.077 102035248 101993568 101933192 101858624 101778848 101705608 
2765.439 101649768 101617416 101609432 101621848 101648696 101683968 
2765.801 101723448 101764488 101804464 101839848 101865880 101877320 
2766.162 101870792 101845960 101806224 101757296 101705848 101657560 
2766.524 101615928 101583128 101560752 101550568 101554664 101574080 
2766.886 101607688 101650928 101697024 101738464 101769416 101787976 
2767.248 101796208 101798648 101799536 101800864 101801392 101798016 
2767.610 101788104 101772168 101754856 101744112 101747400 101768160 
2767.971 101802832 101841088 101867632 101867104 101830304 101756808 
2768.333 101656800 101547272 101449200 101380136 101349336 101356424 
2768.695 101391832 101440952 101488536 101524960 101548184 101564176 
2769.057 101583120 101615568 101667192 101735952 101811960 101880648 
2769.419 101928128 101944664 101928624 101886136 101829344 101771248 
2769.781 101722584 101689352 101671792 101666032 101665936 101665936 
2770.142 101661608 101650832 101633672 101612224 101590032 101571464 
2770.504 101561032 101561552 101573112 101592392 101613648 101630360 
2770.866 101637936 101635960 101628672 101623392 101626920 101642712 
2771.228 101668264 101695840 101714528 101715192 101693792 101653112 
2771.590 101601288 101548864 101504776 101472776 101451352 101435280 
2771.951 101419328 101400920 101382128 101368672 101367864 101384832 
2772.313 101420080 101468248 101519712 101562576 101585624 101582032 
2772.675 101550144 101494128 101422064 101344488 101271208 101208584 
2773.037 101158952 101120328 101087984 101056672 101023424 100988880 
2773.399 100957592 100935848 100929792 100942544 100973032 101016136 
2773.760 101064704 101112544 101155912 101194832 101232120 101271912 
2774.122 101317464 101369848 101427976 101489144 101549952 101606712 
2774.484 101655944 101693496 101714760 101715584 101693296 101648744 
2774.846 101586960 101517400 101451168 101397992 101363560 101347296 
2775.208 101342688 101339464 101327904 101301528 101259432 101205944 
2775.570 101149056 101097088 101055680 101026920 101009112 100998736 
2775.931 100992184 100987928 100986856 100991592 101004784 101027496 
2776.293 101058256 101093496 101128704 101160600 101188680 101215512 
2776.655 101245664 101283296 101330040 101383408 101437048 101482376 
2777.017 101512368 101524008 101520040 101507912 101497792 101498616 
2777.379 101514568 101544016 101579960 101613248 101635008 101640336 
2777.740 101629440 101607048 101580136 101555712 101538648 101530000 
2778.102 101527136 101524248 101514304 101489936 101445952 101380952 
2778.464 101298536 101207408 101119624 101049024 101006256 100996288 
2778.826 101016232 101056624 101103432 101142576 101164920 101167672 
2779.188 101155016 101135168 101117784 101110040 101115048 101132072 
2779.550 101157952 101188744 101220760 101250984 101276448 101293736 
2779.911 101299632 101291936 101271200 101241448 101210336 101187144 
2780.273 101179808 101192904 101225672 101272384 101323440 101368864 
2780.635 101400072 101411416 101401064 101370232 101322344 101261776 
2780.997 101193760 101123736 101056824 100998224 100952272 100922088 
2781.359 100909464 100914288 100934616 100966400 101004192 101041384 
2781.720 101071504 101090088 101096064 101093016 101088552 101093448 
2782.082 101118128 101169088 101246792 101344344 101449080 101544552 
2782.444 101616008 101652800 101650760 101612488 101546056 101462544 
2782.806 101372480 101285008 101205832 101137088 101078320 101027832 
2783.168 100984224 100947896 100921456 100909416 100916432 100944760 
2783.530 100992144 101050664 101108616 101152208 101170584 101159632 
2783.891 101123368 101073056 101023000 100986960 100972464 100979488 
2784.253 101000968 101026840 101047472 101057224 101056000 101047944 
2784.615 101038824 101032816 101031016 101030952 101027960 101016912 
2784.977 100994400 100959672 100914752 100863648 100811432 100763320 
2785.339 100723192 100693224 100673200 100660536 100650552 100638016 
2785.700 100619008 100592184 100559928 100527856 100503920 100495368 
2786.062 100507128 100540288 100591992 100656176 100725096 100791704 
2786.424 100849960 100896056 100928656 100948648 100958928 100963640 
2786.786 100967856 100975872 100990448 101011928 101038272 101065584 
2787.148 101089136 101104880 101109608 101101328 101079136 101043056 
2787.510 100994560 100937160 100877448 100824072 100786008 100770256 
2787.871 100778240 100804688 100838080 100865120 100874232 100860304 
2788.233 100826248 100781536 100737808 100703192 100679544 100661544 
2788.595 100639984 100606024 100556296 100494632 100431096 100377216 
2788.957 100342360 100330248 100338496 100360696 100389936 100421792 
2789.319 100454760 100489416 100526048 100562664 100594800 100616792 
2789.680 100623848 100614376 100590416 100556936 100519544 100483488 
2790.042 100452632 100429880 100418352 100421536 100442392 100481704 
2790.404 100535944 100596720 100651256 100686720 100693376 100667984 
2790.766 100614872 100544816 100471640 100407368 100360888 100335872 
2791.128 100331576 100344288 100368712 100398616 100426560 100445016 
2791.490 100447152 100429144 100392512 100345456 100301904 100276728 
2791.851 100282208 100322112 100389784 100468456 100536776 100575664 
2792.213 100572904 100527728 100449864 100356528 100265160 100189712 
2792.575 100137056 100106456 100091856 100085024 100079224 100070248 
2792.937 100057312 100042032 100027240 100015736 100009432 100009392 
2793.299 100015672 100027704 100044672 100065984 100091712 100122784 
2793.660 100160720 100206744 100260456 100318688 100374624 100418936 
2794.022 100442192 100437272 100403072 100345904 100279520 100220720 
2794.384 100186312 100187792 100227512 100298272 100385072 100470480 
2794.746 100537512 100575352 100580728 100557328 100513104 100456944 
2795.108 100396072 100333888 100270704 100205192 100136808 100067600 
2795.469 100002992 99950504 99918616 99913520 99936952 99985064 100048912 
2795.892 100116536 100175104 100215288 100232992 100230656 100215960 
2796.253 100200088 100194312 100206000 100237520 100285120 100340688 
2796.615 100393256 100432672 100451928 100448144 100423280 100383216 
2796.977 100336608 100292408 100258816 100241616 100242776 100260328 
2797.339 100288560 100319960 100346120 100360688 100360848 100347656 
2797.701 100325344 100299560 100275504 100256016 100241584 100231192 
2798.062 100224008 100220864 100224648 100239056 100266864 100307480 
2798.424 100355920 100402712 100436696 100447992 100430592 100384800 
2798.786 100317184 100239552 100165144 100106968 100074472 100071280 
2799.148 100094576 100134976 100178792 100209144 100211104 100175440 
2799.510 100101344 99997600 99881096 99773280 99692640 99651376 99651648 
2799.932 99686568 99742928 99806512 99867160 99919536 99963208 99999512 
2800.354 100028584 100047648 100051976 100037240 100003088 99954784 99902928 
2800.776 99859272 99833592 99829544 99843600 99866344 99886560 99895544 
2801.198 99889072 99868520 99838792 99806024 99774536 99746368 99721632 
2801.620 99700048 99682304 99670584 99667632 99675720 99695216 99724232 
2802.042 99759072 99795536 99830160 99860600 99885632 99904584 99916592 
2802.465 99920648 99915912 99902648 99882648 99859680 99838856 99825376 
2802.887 99824048 99838000 99868224 99913560 99970776 100034944 100099480 
2803.309 100157648 100203040 100230792 100238656 100227096 100198848 
2803.671 100157672 100107664 100052328 99994480 99937112 99883664 99837912 
2804.093 99803288 99780920 99768312 99758600 99742584 99710760 99657304 
2804.515 99583008 99496176 99411000 99342512 99303424 99298872 99325336 
2804.937 99371384 99422472 99464904 99489800 99495896 99488608 99478104 
2805.359 99474632 99486472 99517136 99565008 99624288 99687120 99745848 
2805.781 99793784 99826936 99843616 99844264 99830896 99806976 99777280 
2806.203 99747320 99723400 99711504 99715712 99737216 99773120 99816920 
2806.625 99859168 99890480 99904200 99898112 99875328 99843152 99810752 
2807.048 99785128 99769336 99761040 99754064 99740048 99712040 99666728 
2807.470 99605112 99531768 99452864 99374648 99301520 99236072 99179936 
2807.892 99134608 99102312 99086120 99088880 99112480 99156552 99218280 
2808.314 99292200 99371288 99448264 99515912 99569000 99604600 99622840 
2808.736 99626776 99621976 99615320 99612552 99617088 99628376 99642168 
2809.158 99651672 99650192 99633952 99603584 99564400 99524864 99494560 
2809.580 99480840 99487616 99515024 99560448 99620088 99690152 99767608 
2810.002 99848984 99929568 100002872 100060192 100092824 100094320 100062488 
2810.425 100000944 99918720 99828904 99744416 99675824 99628584 99601920 
2810.847 99589632 99582288 99570944 99549096 99515352 99473792 99432824 
2811.269 99402064 99389104 99396912 99422432 99457352 99490744 99514000 
2811.691 99523160 99521248 99516560 99520032 99540008 99578352 99628984 
2812.113 99679680 99716312 99727272 99708608 99665040 99608888 99554672 
2812.535 99515616 99499128 99505352 99528368 99559288 99590128 99615448 
2812.957 99633672 99645936 99654296 99659880 99662008 99658184 99645336 
2813.379 99620768 99583416 99534272 99476592 99415472 99356744 99306576 
2813.802 99269744 99248440 99241456 99244224 99249752 99250272 99240264 
2814.224 99218048 99186672 99152576 99124008 99107888 99107424 99121760 
2814.646 99146592 99176520 99206616 99234312 99259272 99282504 99304896 
2815.068 99326264 99345208 99359824 99368864 99372552 99372712 99372584 
2815.490 99375744 99385240 99403360 99431192 99468368 99512480 99558896 
2815.912 99600360 99627352 99630776 99603856 99544904 99458512 99355296 
2816.334 99249184 99152800 99075728 99021616 98989304 98974608 98973472 
2816.756 98983128 99001944 99027936 99056784 99081112 99092816 99085616 
2817.178 99059336 99021208 98985608 98968832 98982696 99030208 99102984 
2817.601 99183904 99251528 99288776 99286880 99247328 99179144 99094600 
2818.023 99004104 98912888 98822224 98732112 98644880 98567656 98511288 
2818.445 98486520 98500112 98550488 98627304 98713200 98790672 98846136 
2818.867 98874656 98880528 98875240 98872312 98881520 98905960 98940424 
2819.289 98973704 98991672 98983104 98943072 98874776 98788424 98698880 
2819.711 98621768 98568256 98543704 98546344 98569168 98601944 98634856 
2820.133 98661048 98676968 98682680 98680496 98674272 98668320 98667624 
2820.555 98678016 98705000 98753048 98823208 98911368 99007216 99095400 
2820.978 99159928 99186440 99167864 99105920 99011304 98899832 98788688 
2821.400 98692792 98620808 98575472 98554424 98552744 98564536 98584392 
2821.822 98607912 98630784 98648920 98658704 98657424 98644568 98622512 
2822.244 98596936 98575544 98567104 98579664 98617976 98682400 98767640 
2822.666 98863424 98954712 99025256 99061448 99054792 99005480 98922464 
2823.088 98822504 98724696 98646688 98600520 98589624 98609816 98651592 
2823.510 98704688 98760144 98812664 98860424 98903256 98941024 98972616 
2823.932 98995848 99008456 99009016 98997384 98974256 98940456 98896248 
2824.354 98841552 98776968 98705352 98632376 98566920 98518696 98495248 
2824.777 98499672 98528480 98572208 98616560 98647344 98652776 98626544 
2825.199 98569224 98487728 98393952 98301184 98222960 98169624 98146304 
2825.621 98152472 98181976 98224888 98269536 98306792 98332080 98347208 
2826.043 98359264 98378752 98415784 98475904 98558344 98655288 98754568 
2826.465 98841552 98904040 98935088 98933960 98906128 98861168 98810704 
2826.887 98764608 98729752 98708744 98700152 98699712 98702400 98704576 
2827.309 98705040 98705680 98710392 98723704 98748456 98784224 98826624 
2827.731 98868464 98901120 98916776 98911248 98884536 98841512 98790152 
2828.154 98740584 98702328 98681800 98681504 98698824 98726616 98754184 
2828.576 98770560 98766792 98738464 98687248 98620776 98550800 98488960 
2828.998 98444688 98421856 98418112 98425752 98434616 98435488 98421928 
2829.420 98392560 98350752 98303880 98260720 98230264 98219880 98233416 
2829.842 98270952 98328144 98397328 98467920 98529152 98572464 98592784 
2830.264 98589976 98568264 98535128 98498408 98465296 98441008 98428448 
2830.686 98428936 98442552 98468272 98503440 98543392 98581904 98611648 
2831.108 98626728 98624552 98607328 98581448 98555968 98539752 98537856 
2831.531 98550376 98572152 98595336 98611368 98614312 98602432 98578304 
2831.953 98547656 98517424 98494528 98483648 98486824 98502752 98527240 
2832.375 98553680 98574448 98583648 98578656 98562056 98541056 98526256 
2832.797 98527424 98549520 98590472 98640816 98686920 98714848 98716648 
2833.219 98692904 98653336 98612568 98586168 98584640 98609584 98653376 
2833.641 98701512 98737792 98747256 98721216 98658544 98565648 98454264 
2834.063 98339464 98237160 98159736 98114792 98102792 98117200 98145560 
2834.485 98173224 98188512 98185376 98166400 98141248 98123896 98126256 
2834.907 98154000 98203800 98264664 98321120 98358400 98368232 98349912 
2835.330 98310312 98259760 98208920 98164264 98126928 98093424 98058376 
2835.752 98017336 97968952 97915784 97863712 97820368 97792488 97784912 
2836.174 97799240 97833776 97883784 97942560 98003088 98058616 98104456 
2836.596 98138496 98161136 98174704 98182448 98187416 98191416 98194992 
2837.018 98197424 98197192 98192216 98180096 98158272 98124104 98075768 
2837.440 98013360 97940104 97862528 97789944 97732888 97699416 97693072 
2837.862 97710792 97743872 97779048 97802384 97803504 97776976 97723976 
2838.284 97651136 97569240 97490056 97424592 97382192 97368544 97385784 
2838.707 97431688 97500304 97581856 97664472 97737200 97791112 97821968 
2839.129 97830552 97821864 97802904 97780152 97758232 97738752 97721272 
2839.551 97704632 97688592 97674528 97665360 97664128 97672920 97691376 
2839.973 97716544 97742880 97763656 97772592 97764728 97738256 97694912 
2840.395 97640400 97582992 97532688 97498992 97487904 97500880 97533656 
2840.817 97577800 97621832 97654880 97669456 97662248 97634888 97592512 
2841.239 97542688 97492864 97450048 97420056 97406752 97412120 97435560 
2841.661 97473856 97521464 97572000 97620544 97664856 97706320 97748264 
2842.083 97793480 97840728 97882944 97907384 97900448 97851904 97760640 
2842.506 97636312 97498776 97372240 97276776 97224352 97214344 97236088 
2842.928 97272720 97308800 97334640 97347600 97350776 97349304 97346552 
2843.350 97342280 97333280 97315712 97287952 97251576 97210904 97170592 
2843.772 97133752 97100376 97068136 97034272 96997976 96961600 96930456 
2844.194 96910264 96905336 96916360 96940336 96971632 97004296 97034176 
2844.616 97059520 97080872 97100080 97119056 97139016 97160328 97182896 
2845.038 97206136 97228984 97249440 97264832 97272072 97269152 97256520 
2845.460 97238096 97220728 97212056 97218352 97241144 97276088 97312888 
2845.883 97338816 97341272 97311424 97247120 97153112 97040144 96921632 
2846.305 96812280 96724224 96664704 96635448 96631896 96644560 96660480 
2846.727 96667448 96656720 96625784 96579224 96527808 96484992 96461872 
2847.149 96464472 96491064 96533328 96578328 96613456 96629640 96622880 
2847.571 96594480 96548984 96492136 96428512 96361288 96292792 96225264 
2847.993 96162080 96107568 96065856 96040080 96030768 96035904 96051216 
2848.415 96071832 96093416 96112768 96128200 96138656 96142896 96139072 
2848.837 96124800 96098040 96058344 96007768 95951192 95895064 95846456 
2849.260 95810416 95788496 95778208 95774080 95769504 95759256 95742024 
2849.682 95720960 95702912 95695168 95703112 95726936 95761120 95795208 
2850.104 95817592 95819520 95797672 95755888 95703680 95653480 95615416 
2850.526 95594896 95590400 95594760 95597064 95586664 95556952 95506808 
2850.948 95441360 95370256 95306072 95260232 95240736 95250472 95286224 
2851.370 95339280 95396984 95446480 95476160 95478792 95452976 95403048 
2851.792 95338112 95269600 95210160 95170536 95158120 95176304 95223568 
2852.214 95293752 95376680 95460976 95535256 95591144 95625456 95640248 
2852.636 95641848 95637800 95634592 95634840 95637048 95636800 95629912 
2853.059 95614792 95594072 95573472 95560008 95558608 95569904 95589856 
2853.481 95611248 95626784 95630952 95621704 95599944 95567952 95527656 
2853.903 95479992 95425520 95365728 95304376 95247736 95202752 95175440 
2854.325 95168384 95179912 95204544 95235208 95265544 95290760 95308288 
2854.747 95316592 95314312 95300208 95274384 95240320 95205576 95182256 
2855.169 95184120 95221360 95297376 95405528 95530800 95651864 95748552 
2855.591 95807240 95823456 95802672 95757160 95701968 95649136 95605800 
2856.013 95573160 95548048 95525216 95500000 95470144 95436008 95400144 
2856.436 95365832 95335976 95311728 95292032 95274016 95254304 95230488 
2856.858 95202776 95174648 95152504 95143688 95153320 95182448 95226680 
2857.280 95277984 95326920 95367248 95398456 95426280 95459832 95507400 
2857.702 95571584 95646680 95718736 95769688 95784720 95756680 95690624 
2858.124 95602280 95515544 95454096 95434712 95463768 95535032 95632192 
2858.546 95732848 95816400 95867088 95878088 95851952 95799112 95734256 
2858.968 95671312 95621408 95589520 95574816 95572208 95575704 95581200 
2859.390 95588216 95599712 95620176 95652296 95694464 95739624 95776760 
2859.812 95795424 95789064 95759016 95714776 95672320 95648088 95653416 
2860.235 95690696 95751640 95819456 95873200 95895768 95877088 95817696 
2860.657 95727320 95622472 95520904 95436456 95377728 95346280 95338480 
2861.079 95347720 95367336 95392016 95418024 95443048 95465000 95481480 
2861.501 95489992 95488568 95476744 95456160 95430472 95404352 95381912 
2861.923 95366104 95357904 95356960 95362632 95374944 95394968 95424248 
2862.345 95463496 95511504 95564352 95616448 95661312 95693976 95712296 
2862.767 95717112 95711536 95699192 95683072 95664464 95643472 95620144 
2863.189 95595496 95572264 95554560 95546408 95550832 95568648 95598576 
2863.612 95637792 95683136 95731880 95781640 95830192 95874936 95912360 
2864.034 95938896 95951424 95948336 95930088 95898968 95858232 95810968 
2864.456 95759656 95706024 95651504 95598288 95549480 95508872 95480416 
2864.878 95466832 95469224 95486832 95517600 95558592 95606432 95657400 
2865.300 95706608 95748072 95775424 95782528 95765944 95726224 95669136 
2865.722 95604288 95543664 95499248 95479320 95487672 95522616 95578136 
2866.144 95644544 95710552 95765488 95799656 95806816 95785256 95738800 
2866.566 95676480 95611192 95557696 95527696 95527600 95556096 95604848 
2866.989 95660016 95706736 95734024 95736672 95717504 95685624 95654928 
2867.411 95639288 95649928 95693264 95769208 95871360 95987584 96102984 
2867.833 96200592 96264536 96283608 96252048 96171808 96051960 95908528 
2868.255 95760544 95626936 95524208 95462112 95442952 95461216 95505616 
2868.677 95560936 95611328 95644672 95653496 95637152 95600864 95554760 
2869.099 95510664 95478936 95467192 95478056 95509464 95555312 95607728 
2869.521 95658016 95698360 95723488 95730912 95721624 95699856 95672992 
2869.943 95649784 95638168 95643512 95665976 95700008 95734512 95756624 
2870.365 95754544 95721616 95659000 95575944 95487544 95409288 95354064 
2870.788 95327256 95326008 95340440 95357800 95366896 95360848 95339128 
2871.210 95306008 95268128 95230760 95196512 95164960 95134752 95106064 
2871.632 95082664 95071448 95081208 95118320 95183840 95271656 95370080 
2872.054 95465072 95544016 95600512 95635008 95653840 95665256 95676416 
2872.476 95690440 95706120 95719592 95727024 95726824 95719984 95708912 
2872.898 95695288 95678432 95655128 95620824 95572008 95508320 95433048 
2873.320 95351976 95270736 95193312 95120896 95053040 94990080 94935048 
2873.742 94894184 94875744 94885968 94925848 94988712 95061776 95128432 
2874.165 95173544 95188736 95173712 95136280 95088256 95042328 95007416 
2874.587 94987080 94980224 94983024 94991456 95002728 95015936 95031096 
2875.009 95047880 95064768 95078792 95086352 95084680 95072600 95051424 
2875.431 95024208 94995176 94967920 94944360 94924224 94905176 94884120 
2875.853 94858736 94829232 94799272 94775704 94766216 94777392 94811304 
2876.275 94864080 94925600 94982520 95021984 95035080 95020472 94984576 
2876.697 94940216 94901640 94881744 94888304 94922216 94978152 95046256 
2877.119 95115408 95174272 95214320 95230896 95223648 95196688 95157728 
2877.542 95116872 95083168 95063040 95058120 95065384 95078400 95090392 
2877.964 95097424 95099688 95101448 95108592 95126112 95155184 95192696 
2878.386 95232248 95267088 95292280 95305904 95308584 95301880 95286464 
2878.808 95261496 95225584 95178768 95124120 95068432 95020264 94986912 
2879.230 94972000 94973488 94984744 94996792 95002592 94998664 94986048 
2879.652 94968424 94949856 94932376 94915408 94896952 94875840 94853376 
2880.074 94833984 94823488 94826824 94845896 94878672 94920120 94964472 
2880.496 95007928 95049504 95090864 95134032 95179288 95223344 95259760 
2880.918 95279944 95276600 95246200 95190512 95116472 95035288 94960248 
2881.341 94903080 94872944 94874144 94905664 94961288 95031032 95103760 
2881.763 95168288 95216464 95244176 95251232 95240680 95217488 95187704 
2882.185 95157040 95131384 95116328 95116120 95132968 95165368 95207672 
2882.607 95250272 95282544 95296296 95288360 95262032 95225704 95189848 
2883.029 95161880 95144064 95133112 95123272 95109936 95093664 95080296 
2883.451 95079120 95097176 95134592 95182016 95222920 95238984 95216016 
2883.873 95150672 95051432 94936648 94826776 94739864 94685832 94665080 
2884.295 94670808 94692936 94722408 94752720 94781024 94807288 94833088 
2884.718 94860880 94893808 94935176 94987080 95048600 95113840 95172424 
2885.140 95210248 95214264 95177992 95104512 95007544 94907272 94826096 
2885.562 94779656 94773056 94799616 94844864 94891488 94925544 94941120 
2885.984 94940032 94929680 94918368 94912672 94915136 94924968 94939832 
2886.406 94957768 94978024 95000504 95024656 95048392 95068072 95079864 
2886.828 95081040 95071608 95054248 95033496 95013688 94997088 94983264 
2887.250 94969560 94952720 94930624 94903672 94874808 94848584 94829032 
2887.672 94818384 94815896 94818376 94820696 94817536 94804824 94780096 
2888.094 94743136 94695600 94640952 94583976 94530504 94487432 94461096 
2888.517 94456768 94476928 94520136 94580480 94648200 94712448 94762600 
2888.939 94791832 94798552 94786416 94762736 94735736 94712264 94695472 
2889.361 94684992 94678320 94673416 94670688 94674152 94690040 94725048 
2889.783 94782904 94862232 94955616 95051288 95136128 95197960 95229568 
2890.205 95229376 95201808 95155184 95100416 95048544 95007952 94983728 
2890.627 94976120 94980800 94989328 94991792 94979936 94949480 94902448 
2891.049 94846992 94795520 94759672 94746848 94756848 94781920 94808464 
2891.471 94821880 94812096 94775784 94717696 94648104 94580104 94524568 
2891.894 94487912 94471520 94472600 94485856 94505280 94525680 94542752 
2892.316 94553376 94556168 94551680 94542752 94533888 94530504 94536416 
2892.738 94552176 94573952 94594784 94606464 94602632 94581688 94547560 
2893.160 94508928 94475664 94456632 94456552 94475240 94508336 94549320 
2893.582 94591792 94630064 94660232 94679624 94686168 94678696 94657152 
2894.004 94623320 94580592 94533888 94488064 94446224 94409160 94375136 
2894.426 94341072 94303840 94262136 94217144 94172600 94133512 94105176 
2894.848 94092104 94096600 94118584 94154968 94200088 94245736 94282896 
2895.271 94304440 94306824 94292680 94270592 94253976 94255800 94284360 
2895.693 94339208 94410312 94479856 94527608 94539048 94509096 94445216 
2896.115 94364032 94287624 94235064 94217008 94233904 94277064 94332960 
2896.537 94387608 94431728 94461328 94477056 94481360 94476040 94460528 
2896.959 94432472 94389232 94330464 94259616 94184640 94115984 94064008 
2897.381 94036560 94035864 94057888 94092672 94127848 94150696 94152232 
2897.803 94129816 94087480 94034560 93981800 93938624 93909136 93891192 
2898.225 93877688 93860272 93833312 93796928 93757528 93726168 93714152 
2898.647 93727760 93765800 93818568 93871616 93908640 93917688 93894312 
2899.070 93841976 93770512 93692760 93622048 93568432 93538840 93536752 
2899.492 93562584 93614008 93685672 93769768 93855544 93931528 93988264 
2899.914 94019816 94026224 94013096 93990504 93969048 93957536 93960664 
2900.336 93978224 94005976 94037312 94065816 94085664 94092840 94085032 
2900.758 94061200 94021536 93967312 93901112 93826160 93746024 93663856 
2901.180 93581680 93500456 93420728 93343200 93269848 93203896 93149144 
2901.602 93109320 93086720 93081776 93093336 93119592 93158888 93210296 
2902.024 93273352 93347080 93428776 93513816 93595512 93666712 93721864 
2902.447 93757880 93774976 93775760 93763952 93742368 93712016 93672312 
2902.869 93622272 93561984 93494120 93423632 93357328 93301744 93261000 
2903.291 93235920 93223864 93220288 93219936 93219160 93216400 93212016 
2903.713 93206984 93201448 93193696 93180416 93157576 93122488 93075536 
2904.135 93021136 92967160 92922384 92894784 92887928 92899824 92922888 
2904.557 92946272 92959064 92953120 92926352 92883232 92834056 92791272 
2904.979 92767352 92770920 92804536 92864560 92942016 93025472 93102608 
2905.401 93163744 93203304 93220224 93217760 93202232 93181648 93163288 
2905.823 93152912 93153584 93165232 93184872 93207224 93225880 93233536 
2906.246 93223800 93192208 93137032 93060328 92968048 92869976 92777224 
2906.668 92701048 92650128 92628304 92634280 92662088 92703656 92750584 
2907.090 92797152 92841224 92883704 92926744 92971464 93016040 93055384 
2907.512 93081824 93087328 93066568 93018496 92947416 92861744 92773120 
2907.934 92693480 92632464 92597048 92589864 92609584 92650960 92706128 
2908.356 92765256 92817672 92854536 92869760 92861808 92834256 92795464 
2908.778 92756736 92728768 92720120 92733824 92766952 92810920 92854392 
2909.200 92886232 92898224 92887984 92859056 92820112 92781392 92752608 
2909.623 92739512 92742568 92757200 92775776 92790648 92795984 92789832 
2910.045 92773840 92751872 92727536 92702528 92675464 92642648 92599504 
2910.467 92542880 92473040 92394560 92315776 92246456 92196576 92172816 
2910.889 92177136 92206152 92251952 92303536 92349136 92379848 92391072 
2911.311 92384128 92365368 92344936 92333152 92337064 92358736 92394264 
2911.733 92435592 92472392 92496384 92502920 92491872 92466488 92431600 
2912.155 92391568 92348936 92305032 92260800 92217840 92178920 92147048 
2912.577 92123888 92108720 92098200 92087752 92073688 92055616 92037152 
2913.000 92025096 92026056 92043760 92076472 92117024 92154320 92177328 
2913.422 92178744 92156416 92113688 92057120 91994584 91932376 91874904 
2913.844 91825144 91785272 91757480 91743400 91743104 91753856 91770160 
2914.266 91785408 91793432 91791408 91780576 91765632 91751808 91742104 
2914.688 91735424 91726608 91708616 91675984 91628128 91570552 91513592 
2915.110 91468488 91444648 91445752 91469248 91507264 91549928 91588000 
2915.532 91614592 91626416 91622984 91605688 91576832 91539472 91497336 
2915.954 91454480 91415480 91384376 91363928 91355496 91359024 91373608 
2916.376 91397976 91430824 91470272 91513168 91555040 91590016 91612032 
2916.799 91616840 91602848 91571824 91527736 91475584 91419328 91361048 
2917.221 91301440 91240824 91180560 91123792 91074480 91036224 91010368 
2917.643 90995224 90986560 90979496 90971032 90961000 90952224 90948456 
2918.065 90952280 90963088 90977200 90989344 90995976 90997504 90999280 
2918.487 91009456 91036440 91084784 91152856 91232768 91312840 91381728 
2918.909 91430576 91455576 91456928 91437024 91397792 91339560 91261288 
2919.331 91162560 91045552 90917072 90787480 90670216 90578232 90520592 
2919.753 90501528 90518944 90565656 90630184 90699808 90761824 90804808 
2920.176 90820848 90805528 90758560 90683472 90587224 90479240 90369608 
2920.598 90269560 90189752 90139328 90125664 90152000 90216208 90309432 
2921.020 90417488 90522320 90605744 90655472 90667152 90646408 90605888 
2921.442 90562152 90529144 90513688 90514408 90523064 90528848 90522672 
2921.864 90501520 90469128 90434792 90408752 90399376 90409776 90437048 
2922.286 90473120 90507296 90529664 90532344 90512000 90470288 90413912 
2922.708 90353000 90299568 90265304 90257768 90278832 90323368 90380992 
2923.130 90437696 90480272 90500200 90494784 90467656 90426280 90380040 
2923.552 90336584 90300888 90275440 90260872 90257152 90263936 90280352 
2923.975 90303920 90330088 90352952 90366000 90364424 90346944 90316392 
2924.397 90278928 90242304 90213920 90198296 90196160 90204216 90216456 
2924.819 90225104 90222560 90203520 90165680 90110880 90044432 89974432 
2925.241 89909136 89854528 89813144 89783352 89760920 89741432 89723120 
2925.663 89708144 89702024 89710424 89736296 89776672 89822960 89862432 
2926.085 89883448 89880112 89854440 89816072 89778592 89755184 89752960 
2926.507 89771488 89803248 89837808 89864960 89878464 89877264 89864328 
2926.929 89844656 89822944 89802984 89787400 89778160 89777128 89785544 
2927.352 89803200 89827576 89854296 89877960 89894152 89901408 89901560 
2927.774 89898880 89897968 89901840 89910640 89922112 89933208 89942216 
2928.196 89949872 89959288 89974040 89996456 90026144 90060216 90094488 
2928.618 90125512 90152160 90175448 90197304 90218576 90237752 90251072 
2929.040 90254256 90244728 90223840 90197176 90173328 90160096 90162232 
2929.462 90178864 90204080 90228176 90241352 90237032 90213088 90172360 
2929.884 90121272 90067920 90019264 89979864 89951168 89931656 89917424 
2930.306 89903528 89885576 89860432 89827224 89787264 89743760 89700424 
2930.729 89660480 89626120 89598272 89577408 89564512 89561520 89571208 
2931.151 89596088 89636784 89690848 89752480 89814224 89868192 89908880 
2931.573 89934576 89947272 89951536 89952624 89955304 89962712 89976872 
2931.995 89999640 90032768 90077904 90135280 90202520 90273640 90339760 
2932.417 90391672 90421656 90426696 90409216 90376688 90338672 90304296 
2932.839 90279848 90266968 90263264 90263288 90260832 90249872 90226336 
2933.261 90189160 90140992 90088760 90043096 90017920 90026152 90076440 
2933.683 90169064 90294176 90431888 90556200 90643936 90679120 90659456 
2934.105 90596112 90511216 90429552 90370168 90342608 90344192 90363848 
2934.528 90387440 90405184 90414680 90421296 90433896 90460080 90501312 
2934.950 90551480 90598408 90628872 90634096 90612256 90569280 90515488 
2935.372 90461920 90415256 90376488 90341536 90304672 90261704 90212816 
2935.794 90162752 90119832 90092832 90087976 90108040 90151464 90213360 
2936.216 90285976 90360504 90427608 90478296 90506280 90509528 90492088 
2936.638 90463592 90438200 90430168 90448328 90493192 90555208 90618240 
2937.060 90663480 90677576 90656936 90609424 90550760 90499680 90471512 
2937.482 90472648 90500192 90543912 90591576 90632312 90660040 90673520 
2937.905 90674360 90664648 90645384 90616648 90578928 90534800 90489896 
2938.327 90451488 90427096 90421632 90435640 90465104 90502960 90541664 
2938.749 90574760 90598656 90612768 90618488 90618200 90614360 90609256 
2939.171 90604760 90602792 90605232 90613872 90630328 90655944 90691512 
2939.593 90737192 90791976 90853192 90915624 90972064 91014312 91034584 
2940.015 91028360 90995624 90941416 90873776 90802032 90733712 90672560 
2940.437 90619184 90572408 90531992 90500488 90483440 90487680 90519024 
2940.859 90578944 90663536 90763616 90868176 90966480 91051080 91119424 
2941.281 91172744 91214560 91248208 91275504 91295840 91306864 91305256 
2941.704 91288288 91254856 91206272 91146400 91081656 91020288 90970128 
2942.126 90937424 90924680 90929712 90945800 90963800 90975376 90975024 
2942.548 90962480 90942400 90923016 90912696 90917952 90941832 90983688 
2942.970 91040280 91106672 91177512 91246184 91305072 91346112 91361208 
2943.392 91345280 91298344 91227056 91143368 91062104 90997280 90957144 
2943.814 90943328 90950976 90972472 91000424 91031048 91064856 91104968 
2944.236 91153984 91211392 91272136 91328104 91370680 91393328 91394264 
2944.658 91375960 91343968 91303736 91259392 91212552 91163152 91111024 
2945.081 91057416 91005352 90959464 90924080 90902008 90893504 90896376 
2945.503 90906496 90918840 90928984 90933352 90929920 90918520 90900992 
2945.925 90881264 90864416 90856592 90862976 90886528 90927192 90981944 
2946.347 91045376 91111184 91173880 91229352 91274952 91309240 91331128 
2946.769 91339704 91334568 91316464 91287672 91251768 91212920 91174256 
2947.191 91136808 91099328 91059352 91014824 90966104 90916712 90873240 
2947.613 90843264 90832416 90842712 90871208 90910968 90952328 90986088 
2948.035 91005256 91005896 90987384 90951712 90902736 90845232 90785152 
2948.458 90728968 90682672 90651200 90636832 90638408 90651416 90669376 
2948.880 90686160 90697632 90703496 90706856 90713064 90726912 90750968 
2949.302 90784296 90823136 90862064 90896448 90924120 90945736 90964376 
2949.724 90983704 91006584 91033528 91062440 91088888 91107920 91115168 
2950.146 91108568 91089304 91062056 91034216 91013416 91005896 91013416 
2950.568 91031752 91050424 91055520 91033704 90976328 90883856 90766960 
2950.990 90645304 90540552 90472392 90451920 90478752 90541976 90623960 
2951.412 90707032 90776336 90824048 90848808 90853288 90841240 90815680 
2951.834 90778672 90732200 90680176 90629288 90587576 90563224 90561264 
2952.257 90581824 90619776 90666176 90711176 90745208 90761320 90754960 
2952.679 90723216 90664880 90580664 90474704 90355152 90235120 90130624 
2953.101 90055800 90020224 90024272 90058840 90106656 90148448 90168808 
2953.523 90160416 90126856 90081168 90041912 90025824 90044168 90098464 
2953.945 90180768 90275080 90362008 90424472 90449896 90434176 90381576 
2954.367 90303816 90216072 90133704 90069072 90028032 90010032 90008904 
2954.789 90016272 90023728 90025928 90021632 90012944 90003832 89997928 
2955.211 89997728 90004160 90017384 90037792 90066224 90103232 90147416 
2955.634 90194184 90234696 90257272 90251072 90208744 90130376 90024112 
2956.056 89905488 89792592 89701008 89640504 89611856 89608088 89617224 
2956.478 89627880 89632152 89628104 89619104 89611400 89610368 89617720 
2956.900 89630760 89643688 89650832 89649280 89641112 89632984 89634040 
2957.322 89651376 89687472 89737984 89793288 89840320 89867088 89866312 
2957.744 89836208 89780272 89705064 89618008 89525216 89431288 89340456 
2958.166 89257136 89186752 89135040 89105832 89099744 89112904 89138288 
2958.588 89167048 89191896 89209016 89218352 89222448 89224256 89225184 
2959.010 89224288 89219208 89207896 89190672 89170792 89153840 89145232 
2959.433 89148560 89163952 89188472 89217280 89245936 89271632 89293272 
2959.855 89310728 89323624 89330424 89328968 89317392 89295448 89264904 
2960.277 89229040 89190944 89151936 89111128 89066448 89016768 88964392 
2960.699 88915832 88880832 88869760 88888704 88936928 89005224 89078904 
2961.121 89140464 89175128 89175520 89142616 89085560 89018184 88956760 
2961.543 88915056 88902168 88921400 88969616 89037712 89111512 89175336 
2961.965 89213320 89213432 89170872 89089376 88981416 88864840 88760928 
2962.387 88688080 88658112 88674872 88733360 88821880 88924040 89023672 
2962.810 89105928 89159440 89177936 89159352 89106072 89023760 88921536 
2963.232 88810672 88703352 88612784 88550216 88523632 88536088 88584232 
2963.654 88658016 88741808 88818872 88873528 88895896 88884456 88845928 
2964.076 88792888 88739016 88696064 88669576 88659016 88659264 88664464 
2964.498 88670952 88679240 88693312 88718544 88758584 88812968 88876640 
2964.920 88941224 88998144 89040352 89064512 89071144 89063664 89046792 
2965.342 89025440 89004272 88986992 88976584 88974888 88981968 88996000 
2965.764 89013592 89031264 89046792 89060840 89077016 89100944 89137336 
2966.187 89187240 89246072 89304064 89347856 89364136 89344424 89286968 
2966.609 89198168 89090216 88979496 88882120 88810456 88772456 88770048 
2967.031 88800040 88854808 88924648 88998840 89066912 89121088 89156264 
2967.453 89170968 89167064 89149320 89124464 89099728 89083024 89081200 
2967.875 89099424 89140408 89203184 89282712 89369848 89453808 89523760 
2968.297 89571784 89595416 89597856 89587024 89572104 89561416 89558928 
2968.719 89563552 89569864 89570608 89559440 89532856 89491736 89440944 
2969.141 89388616 89343560 89314784 89309504 89331712 89381600 89454688 
2969.563 89542312 89631840 89709752 89764216 89787304 89777432 89739048 
2969.986 89681488 89615272 89550120 89492792 89446296 89411608 89389360 
2970.408 89381224 89390640 89421328 89475272 89550456 89639920 89732240 
2970.830 89813232 89870616 89896104 89888144 89852016 89799096 89743968 
2971.252 89700400 89680256 89690240 89731432 89799192 89884312 89974464 
2971.674 90055352 90114456 90142240 90134424 90093072 90026416 89947168 
2972.096 89868720 89803568 89759960 89740912 89745400 89770072 89811752 
2972.518 89868688 89940816 90028104 90128280 90235384 90338992 90425936 
2972.940 90484560 90507024 90492792 90448392 90386312 90320712 90263440 
2973.363 90222480 90200208 90194976 90202952 90220112 90242688 90266632 
2973.785 90287072 90297192 90289176 90256592 90196544 90112008 90011944 
2974.207 89910616 89823256 89762928 89738352 89752152 89802112 89882984 
2974.629 89988840 90113488 90250408 90392344 90529336 90649624 90741672 
2975.051 90795696 90807512 90779928 90723008 90651032 90579424 90521032 
2975.473 90482064 90461648 90452224 90443248 90423672 90386336 90330144 
2975.895 90260736 90188992 90127808 90089760 90082560 90107872 90160696 
2976.317 90231648 90309088 90382384 90445216 90495592 90536080 90571168 
2976.740 90605608 90642064 90680408 90718216 90752408 90780952 90804024 
2977.162 90823976 90844536 90868928 90898160 90930080 90959552 90980400 
2977.584 90987120 90977544 90954040 90923936 90897576 90885576 90896416 
2978.006 90933072 90992240 91064120 91135616 91191944 91220128 91212224 
2978.428 91165408 91082544 90970600 90839904 90701936 90568240 90450584 
2978.850 90359224 90302632 90286656 90312824 90377656 90471984 90582880 
2979.272 90694176 90789912 90858040 90891440 90890120 90860416 90813776 
2979.694 90763384 90721096 90695736 90690864 90705264 90734064 90771240 
2980.116 90811032 90849456 90884696 90916048 90942768 90963096 90973816 
2980.539 90971272 90952680 90917568 90868336 90809936 90748408 90688448 
2980.961 90632536 90580368 90530168 90480680 90433216 90392360 90365648 
2981.383 90360832 90382992 90432288 90503128 90585352 90666440 90735944 
2981.805 90787160 90818616 90833072 90835680 90831080 90821456 90805912 
2982.227 90781192 90743416 90689896 90620760 90539472 90452760 90368712 
2982.649 90295824 90241496 90210184 90203248 90218400 90250464 90291592 
2983.071 90333064 90367224 90388248 90394152 90386992 90372808 90359792 
2983.493 90356768 90371200 90406896 90463656 90537336 90621456 90708520 
2983.916 90792248 90868920 90937512 90999176 91055952 91109560 91160056 
2984.338 91205712 91243056 91268256 91277808 91269640 91243640 91201656 
2984.760 91147144 91084144 91016968 90949328 90883896 90822800 90767664 
2985.182 90720272 90683224 90659536 90652168 90662824 90690424 90730184 
2985.604 90773672 90811224 90833552 90835504 90817864 90787752 90756320 
2986.026 90734912 90732008 90749880 90784512 90827544 90870488 90907480 
2986.448 90937384 90962936 90988448 91015960 91043320 91063480 91067240 
2986.870 91046960 90999616 90928920 90844656 90760480 90688960 90639344 
2987.292 90615576 90616264 90636264 90668784 90707632 90747440 90784368 
2987.715 90815752 90839264 90852720 90853656 90838880 90804872 90748264 
2988.137 90667096 90562680 90441416 90315712 90201624 90117760 90079680 
2988.559 90095560 90164288 90275288 90411848 90554168 90685864 90795296 
2988.981 90875944 90925104 90940848 90920632 90861624 90762856 90628368 
2989.403 90468648 90301992 90150520 90035256 89972728 89969416 90021168 
2989.825 90113584 90226872 90338640 90428216 90481512 90491456 90459608 
2990.247 90394760 90312232 90230000 90164808 90130576 90134400 90176432 
2990.669 90250184 90345280 90449272 90549720 90636704 90702400 90741816 
2991.092 90753272 90738696 90704296 90659720 90617992 90591920 90591056 
2991.514 90619400 90673504 90743096 90812824 90867320 90893248 90882528 
2991.936 90833880 90752488 90649160 90537584 90434152 90353896 90308216 
2992.358 90303232 90337608 90403000 90485328 90569544 90642440 90695792 
2992.780 90727584 90740088 90736952 90719888 90687416 90635728 90561816 
2993.202 90466856 90358464 90250032 90158488 90098008 90076624 90093624 
2993.624 90140688 90204544 90271560 90332128 90380944 90417120 90441736 
2994.046 90455824 90459168 90450688 90429832 90397912 90358760 90318536 
2994.469 90283616 90259584 90249752 90254424 90270936 90293720 90315096 
2994.891 90324880 90312368 90268632 90188664 90074832 89938032 89797896 
2995.313 89677240 89598488 89577408 89618216 89713080 89844160 89989968 
2995.735 90128816 90244872 90330192 90383272 90407296 90407312 90388968 
2996.157 90357624 90319384 90281912 90253280 90241424 90251472 90283848 
2996.579 90333816 90392640 90450984 90501064 90539864 90569256 90594896 
2997.001 90622928 90657448 90698384 90741488 90779744 90805928 90815888 
2997.423 90809816 90792912 90773536 90761632 90765152 90787592 90826656 
2997.845 90874392 90918744 90945632 90943800 90906984 90836160 90739248 
2998.268 90629648 90522288 90428912 90356368 90304976 90270432 90246712 
2998.690 90229976 90220432 90222176 90240232 90276912 90328376 90384504 
2999.112 90430192 90450608 90437304 90391168 90323704 90252752 90198768 
2999.534 90176984 90193704 90245704 90322656 90411576 90500616 90582896 
2999.956 90655680 90718640 90771352 90811360 90834488 90836792 90817224 
3000.378 90779704 90733080 90690040 90662512 90658312 90678464 90716512 
3000.800 90759888 90792960 90802584 90780392 90726032 90646944 90557568 
3001.222 90475312 90415760 90390368 90402496 90447544 90514040 90588128 
3001.645 90656712 90710592 90746632 90766480 90774624 90775176 90770184 
3002.067 90758856 90738760 90707552 90664896 90613272 90557496 90502872 
3002.489 90453912 90413376 90382208 90360480 90348360 90346432 90355280 
3002.911 90374416 90401424 90431568 90458968 90478328 90486480 90483624 
3003.333 90473064 90460112 90449656 90444744 90445480 90449304 90451672 
3003.755 90447624 90433496 90407368 90369936 90324048 90274632 90227064 
3004.177 90186040 90154488 90132408 90117000 90103616 90087920 90067424 
3004.599 90042928 90018208 89999008 89990696 89996192 90015544 90046064 
3005.021 90083664 90123624 90161264 90190944 90204728 90193304 90146552 
3005.444 90057592 89926840 89764960 89592792 89435560 89318864 89259192 
3005.866 89259416 89308408 89385688 89468680 89538776 89587872 89617816 
3006.288 89637912 89658920 89690024 89735992 89797536 89873192 89960888 
3006.710 90057976 90159872 90258960 90344512 90404024 90428264 90414544 
3007.132 90369560 90307368 90246536 90203696 90187552 90197288 90223056 
3007.554 90250896 90266448 90260512 90230816 90181704 90121976 90062712 
3007.976 90015624 89990240 89993312 90026768 90086424 90161064 90233896 
3008.398 90287448 90306808 90286144 90230648 90156192 90083144 90029808 
3008.821 90006584 90012000 90034536 90057360 90066784 90056336 90029736 
3009.243 89997920 89975128 89972168 89992616 90032264 90081328 90128744 
3009.665 90165112 90185960 90191320 90184696 90170680 90153592 90136472 
3010.087 90120560 90105760 90090704 90073336 90051432 90023552 89989888 
3010.509 89952456 89914208 89877208 89840184 89797408 89738520 89651352 
3010.931 89527416 89365952 89178064 88985080 88817024 88703720 88666824 
3011.353 88715608 88843368 89030200 89246864 89464552 89658816 89813824 
3011.775 89924200 89992368 90025936 90033744 90024528 90005184 89980576 
3012.198 89954656 89930312 89909632 89893552 89881336 89870320 89856208 
3012.620 89834568 89801816 89756752 89700728 89636768 89567224 89491104 
3013.042 89402168 89289488 89140976 88948128 88712800 88451072 88194664 
3013.464 87982424 87854264 87839072 87944800 88156232 88437528 88744792 
3013.886 89032880 89269552 89440256 89546072 89598664 89612448 89599656 
3014.308 89567376 89520376 89465360 89412944 89378784 89379024 89423672 
3014.730 89512384 89632232 89762144 89877376 89959440 90000696 90005112 
3015.152 89984328 89951840 89916976 89881424 89840448 89786680 89715480 
3015.574 89627744 89530688 89434624 89350272 89284584 89239560 89212896 
3015.997 89199832 89194376 89189536 89177552 89148944 89093624 89004640 
3016.419 88881352 88733648 88581016 88451664 88373736 88366864 88437144 
3016.841 88573768 88752672 88941992 89113824 89248928 89340360 89392184 
3017.263 89414768 89419080 89412384 89397976 89376408 89348280 89316416 
3017.685 89285672 89260904 89244488 89234208 89223472 89203624 89168600 
3018.107 89117720 89058072 89002112 88965352 88960600 88993672 89061816 
3018.529 89154368 89256480 89352152 89429640 89482920 89511792 89520136 
3018.951 89513376 89495976 89469944 89435216 89390928 89337320 89277328 
3019.374 89216888 89163800 89126480 89110936 89119328 89149200 89194432 
3019.796 89246560 89296864 89339000 89369152 89386696 89393288 89392240 
3020.218 89387408 89382600 89381632 89387680 89402888 89427664 89459936 
3020.640 89494864 89524968 89542176 89539096 89511488 89459816 89389960 
3021.062 89312256 89238688 89181392 89148672 89143336 89162032 89196560 
3021.484 89236088 89269896 89291104 89297800 89293288 89283904 89276664 
3021.906 89276136 89282560 89292160 89299096 89298648 89289352 89274320 
3022.328 89259976 89253648 89259856 89278568 89304856 89331416 89351176 
3022.750 89360400 89359768 89353104 89344512 89335400 89322824 89300440 
3023.173 89261608 89202776 89126552 89042200 88963912 88905488 88877352 
3023.595 88883240 88919896 88978976 89050312 89125632 89199184 89268504 
3024.017 89332960 89391984 89444144 89486864 89517056 89532296 89531600 
3024.439 89515944 89488104 89452992 89417256 89388384 89374760 89383504 
3024.861 89418584 89479168 89558544 89644768 89721944 89775248 89793304 
3025.283 89771488 89713072 89628592 89533464 89443344 89372416 89329424 
3025.705 89316088 89326952 89350656 89372680 89377544 89353816 89296000 
3026.127 89205896 89091216 88963136 88832320 88704984 88582608 88463024 
3026.550 88344368 88229288 88127592 88055312 88032104 88073120 88183680 
3026.972 88354920 88565544 88784936 88980824 89129432 89218088 89248504 
3027.394 89233224 89191912 89144288 89105016 89082864 89079520 89091936 
3027.816 89114464 89141568 89168864 89193696 89215104 89233200 89248440 
3028.238 89261048 89270552 89275608 89274400 89265088 89246960 89220992 
3028.660 89190496 89160488 89137104 89126424 89132736 89157952 89200952 
3029.082 89257952 89322536 89386976 89443880 89486856 89512608 89521576 
3029.504 89518328 89509984 89504344 89507488 89521128 89542064 89562792 
3029.927 89574760 89570624 89547304 89506776 89455176 89400072 89347392 
3030.349 89300096 89257336 89216096 89172944 89126136 89076280 89025904 
3030.771 88978192 88936312 88902728 88879264 88867056 88865568 88870832 
3031.193 88872776 88854904 88796464 88676032 88481008 88214120 87899272 
3031.615 87576984 87300440 87121960 87076232 87174232 87397384 87705248 
3032.037 88041752 88352264 88594696 88741376 88782064 88717672 88555296 
3032.459 88304160 87976944 87593488 87182096 86783664 86446616 86215280 
3032.881 86124600 86187592 86393032 86706688 87082328 87472864 87837928 
3033.303 88154224 88413648 88619872 88781408 88906232 88998248 89057504 
3033.726 89082936 89076008 89042680 88994280 88944496 88905752 88886760 
3034.148 88889288 88908472 88934032 88954408 88959200 88942368 88903920 
3034.570 88849408 88787496 88725720 88667200 88607232 88533704 88429104 
3034.992 88278024 88073816 87825088 87556392 87306776 87121664 87037984 
3035.414 87077616 87238360 87495720 87806312 88120944 88397440 88605536 
3035.836 88734464 88790200 88791200 88759976 88718344 88683192 88663160 
3036.258 88659408 88665792 88671328 88661600 88623288 88548664 88438776 
3036.680 88305704 88170368 88059600 87996464 87994856 88054784 88163016 
3037.103 88296712 88430736 88546488 88633784 88692440 88728152 88748096 
3037.525 88756336 88752768 88734512 88699344 88648232 88586600 88521928 
3037.947 88461544 88409472 88365256 88325384 88285816 88244800 88203800 
3038.369 88166544 88136408 88114376 88098136 88083600 88067776 88051720 
3038.791 88041464 88046624 88075616 88131960 88210992 88301056 88385856 
3039.213 88450760 88487976 88498256 88490136 88475520 88465528 88465408 
3039.635 88473824 88484040 88488056 88479704 88457520 88424832 88388528 
3040.057 88356112 88332960 88321456 88320568 88327208 88337536 88348840 
3040.479 88360344 88373384 88390776 88415736 88450320 88493936 88542416 
3040.902 88588048 88621712 88634144 88619592 88577880 88515224 88442832 
3041.324 88374024 88321616 88293712 88292896 88316184 88357304 88408544 
3041.746 88463072 88516416 88566016 88610848 88650688 88685424 88715016 
3042.168 88739376 88758096 88770104 88773376 88764800 88741296 88700768 
3042.590 88643848 88574208 88498752 88425792 88362344 88313096 88278792 
3043.012 88257016 88243544 88234528 88227752 88222912 88221032 88223256 
3043.434 88229936 88240368 88253256 88267584 88283160 88300656 88321088 
3043.856 88344936 88371688 88399736 88426736 88450088 88467520 88477008 
3044.279 88476904 88466184 88444976 88415464 88381920 88351136 88330592 
3044.701 88326184 88340832 88373024 88417704 88467856 88517768 88564600 
3045.123 88608720 88652384 88697224 88741808 88781224 88807648 88813464 
3045.545 88794536 88751920 88692224 88625552 88563512 88515360 88486440 
3045.967 88477400 88484288 88499040 88510368 88506280 88474928 88408392 
3046.389 88305624 88174496 88031632 87898176 87796776 87743232 87743016 
3046.811 87789840 87868976 87961648 88050488 88124656 88179304 88214360 
3047.233 88231440 88231880 88216544 88187288 88148936 88109272 88076904 
3047.656 88058160 88053200 88055256 88052648 88034760 87996632 87942656 
3048.078 87884496 87837400 87812664 87812472 87829200 87849024 87858936 
3048.500 87851752 87829768 87802480 87781856 87775656 87784560 87802208 
3048.922 87819920 87830752 87833232 87830656 87827768 87825728 87819376 
3049.344 87797192 87746088 87656912 87528600 87369520 87195176 87024152 
3049.766 86871976 86750328 86666768 86626064 86632472 86689136 86795912 
3050.188 86946488 87127248 87319224 87500752 87655064 87773384 87856304 
3050.610 87911088 87947568 87973360 87991408 88001280 88001984 87994816 
3051.032 87984504 87977216 87977056 87983016 87988384 87983072 87957936 
3051.455 87909952 87844064 87772344 87708472 87664120 87644208 87646800 
3051.877 87665088 87691584 87721280 87751960 87782952 87812120 87833592 
3052.299 87838560 87817568 87764680 87681416 87578112 87472632 87384768 
3052.721 87333496 87331360 87382176 87481144 87616184 87770688 87924192 
3053.143 88057016 88151456 88194048 88178984 88108984 87995936 87858000 
3053.565 87718304 87600024 87521152 87493784 87520792 87596432 87706712 
3053.987 87832784 87953728 88049136 88104840 88114328 88080552 88014128 
3054.409 87931064 87847864 87776376 87722648 87685968 87661464 87642800 
3054.832 87625504 87608128 87591760 87578560 87570184 87567128 87569024 
3055.254 87575544 87586816 87603048 87623280 87643992 87659208 87661072 
3055.676 87643184 87603272 87544976 87477192 87411632 87359408 87326616 
3056.098 87313272 87313392 87318136 87318112 87306832 87282568 87248656 
3056.520 87212760 87185096 87176840 87195944 87243680 87310544 87375928 
3056.942 87408616 87372696 87240232 86999128 86663208 86270792 85882928 
3057.364 85566696 85376936 85347472 85479304 85744232 86091080 86464120 
3057.786 86812688 87100104 87309800 87441032 87505400 87519800 87504032 
3058.208 87476600 87451904 87439984 87443768 87459032 87475032 87478952 
3058.631 87460296 87415768 87351712 87283552 87231424 87211992 87234280 
3059.053 87295192 87381480 87472584 87548360 87595008 87607088 87588512 
3059.475 87549200 87501856 87456960 87421360 87397528 87384392 87379000 
3059.897 87378232 87380200 87384688 87393168 87408008 87431200 87462696 
3060.319 87498808 87531264 87548448 87537072 87485400 87387992 87248008 
3060.741 87078880 86900960 86739952 86619928 86557328 86558896 86619528 
3061.163 86724784 86853512 86984704 87100896 87190688 87250416 87282336 
3061.585 87292632 87288240 87275928 87261192 87248344 87241688 87245600 
3062.008 87263968 87299576 87352560 87419664 87494152 87567800 87632224 
3062.430 87681032 87711536 87724704 87724720 87717296 87708920 87705392 
3062.852 87710912 87727920 87756216 87792816 87831488 87864400 87883208 
3063.274 87881280 87856144 87810080 87749864 87683960 87620840 87566128 
3063.696 87521832 87487232 87460632 87441152 87429360 87426680 87433720 
3064.118 87448584 87466576 87480768 87484192 87472648 87445752 87407352 
3064.540 87363776 87322224 87287952 87262488 87242056 87216856 87170600 
3064.962 87080040 86920344 86668968 86314432 85864464 85352344 84836480 
3065.385 84386536 84076176 83959272 84055344 84344408 84771712 85263728 
3065.807 85742368 86150672 86458848 86666192 86792576 86867224 86916800 
3066.229 86957176 86995128 87030904 87063776 87095136 87128512 87167024 
3066.651 87210432 87253952 87289344 87307664 87303192 87274544 87224624 
3067.073 87158248 87080520 86995432 86906176 86816216 86729224 86647464 
3067.495 86568992 86485168 86380512 86235104 86033192 85769776 85457744 
3067.917 85126520 84819944 84585096 84457720 84457048 84579032 84800688 
3068.339 85085232 85394384 85696672 85970152 86205504 86401920 86563200 
3068.761 86693552 86795760 86870784 86919032 86942192 86944888 86934464 
3069.184 86921432 86916584 86928360 86960680 87010456 87067736 87116736 
3069.606 87141360 87128808 87074544 86984192 86873168 86762344 86670888 
3070.028 86612856 86592184 86603488 86634624 86672640 86708144 86737872 
3070.450 86764848 86795728 86837088 86891632 86956784 87024888 87086216 
3070.872 87130936 87152656 87150040 87127000 87091368 87052784 87020928 
3071.294 87002280 86999072 87008360 87023200 87033832 87030552 87007064 
3071.716 86961728 86898760 86826512 86756016 86697048 86655544 86632784 
3072.138 86625280 86626624 86629600 86629008 86622592 86611336 86598512 
3072.561 86588384 86584832 86590176 86605256 86629632 86662080 86701096 
3072.983 86745088 86792160 86839520 86883432 86918824 86939800 86941280 
3073.405 86919832 86875584 86812776 86740208 86669680 86613096 86580960 
3073.827 86578904 86606680 86658096 86723000 86789344 86845344 86882408 
3074.249 86895056 86881064 86840888 86776832 86693056 86595384 86492624 
3074.671 86395712 86316616 86267312 86255944 86285008 86349848 86439856 
3075.093 86540000 86634304 86710600 86761512 86786296 86789256 86778152 
3075.515 86761176 86744776 86733320 86728560 86730592 86738552 86751240 
3075.938 86767176 86784536 86801440 86816288 86828496 86838944 86850048 
3076.360 86864824 86885184 86910664 86937456 86959056 86967560 86956896 
3076.782 86924880 86874704 86813968 86753080 86701832 86665832 86645352 
3077.204 86634928 86625872 86608312 86575136 86524192 86459112 86388448 
3077.626 86323824 86277936 86260480 86276848 86326040 86400976 86488992 
3078.048 86574584 86643984 86687152 86701384 86691392 86667840 86642472 
3078.470 86623448 86611512 86598664 86570120 86509240 86405456 86258872 
3078.892 86083632 85904056 85751320 85653160 85625776 85670680 85774024 
3079.314 85911928 86055864 86182568 86277520 86336480 86363656 86367752 
3079.737 86357768 86339664 86316320 86287896 86252992 86208928 86151336 
3080.159 86073464 85965312 85816504 85619880 85376728 85100288 84817728 
3080.581 84567216 84386856 84309184 84350088 84504816 84748536 85043744 
3081.003 85351504 85636928 85878736 86069000 86209584 86306784 86366704 
3081.425 86393000 86387680 86354440 86301464 86240784 86186944 86150760 
3081.847 86134416 86128776 86115504 86073392 85985288 85847120 85670840 
3082.269 85483984 85319776 85210592 85177224 85222712 85332512 85479168 
3082.691 85632792 85766776 85866768 85932152 85973680 86006896 86045608 
3083.114 86096424 86155840 86211616 86246736 86246928 86204528 86122992 
3083.536 86015920 85905632 85816656 85769120 85775416 85835952 85940104 
3083.958 86067896 86196816 86305672 86379336 86412488 86409104 86380936 
3084.380 86342560 86308584 86288624 86285296 86294176 86305968 86309976 
3084.802 86296968 86262848 86209224 86143104 86073952 86011736 85964488 
3085.224 85936616 85929584 85942688 85974304 86022352 86084280 86156288 
3085.646 86231944 86302736 86358824 86390840 86393416 86366872 86318504 
3086.068 86260440 86207944 86174880 86169408 86192520 86237288 86291392 
3086.490 86339296 86367664 86368216 86339312 86286296 86219864 86153736 
3086.913 86100232 86068936 86064184 86084760 86124440 86173944 86223688 
3087.335 86265056 86292816 86305600 86305312 86295608 86280016 86260232 
3087.757 86235152 86200952 86152512 86085928 86000064 85898248 85787728 
3088.179 85679168 85583544 85509512 85462192 85441824 85444600 85464088 
3088.601 85493952 85529376 85568400 85612152 85663984 85727984 85806760 
3089.023 85899960 86002864 86106640 86198560 86265424 86296576 86286800 
3089.445 86238920 86164096 86080296 86006376 85959024 85947384 85971048 
3089.867 86020816 86082280 86141424 86187552 86216768 86231104 86236208 
3090.290 86237352 86236976 86233576 86223232 86201848 86168064 86124512 
3090.712 86077840 86036632 86008320 85997792 86005640 86028776 86061296 
3091.134 86096600 86128608 86152392 86165192 86166160 86156576 86139192 
3091.556 86117952 86096928 86079024 86065752 86056832 86051160 86047800 
3091.978 86046896 86049792 86057952 86071288 86086824 86097984 86096792 
3092.400 86075896 86032216 85969144 85897112 85831200 85786408 85774680 
3092.822 85800216 85858624 85937216 86018960 86085416 86119896 86111904 
3093.244 86057872 85962648 85838024 85702440 85576960 85480064 85425536 
3093.667 85417824 85451816 85514120 85588312 85659360 85717080 85758512 
3094.089 85785888 85803360 85813072 85813240 85798568 85763680 85706656 
3094.511 85632368 85552176 85482352 85437848 85427600 85451376 85499656 
3094.933 85556304 85603048 85626152 85618504 85581600 85523472 85456480 
3095.355 85393088 85342480 85309824 85295168 85294792 85302248 85310824 
3095.777 85314640 85309904 85295680 85273936 85249304 85227872 85216704 
3096.199 85221824 85246040 85286752 85333864 85369608 85367928 85301008 
3096.621 85144912 84887016 84533632 84113144 83675248 83277832 82980672 
3097.043 82829120 82842792 83013696 83308144 83678520 84070168 84437240 
3097.466 84748208 84985800 85146536 85235280 85261776 85237440 85176592 
3097.888 85096944 85017736 84960120 84941696 84971952 85050056 85164232 
3098.310 85295488 85421112 85522832 85589520 85619256 85617760 85595504 
3098.732 85563704 85530456 85500008 85472416 85445064 85414456 85378376 
3099.154 85337392 85295664 85260608 85241672 85248568 85287544 85359176 
3099.576 85456168 85564768 85665816 85739888 85773296 85760144 85704448 
3099.998 85617200 85512552 85401280 85287000 85165416 85027368 84864008 
3100.420 84672968 84462000 84249832 84062440 83924408 83854896 83861008 
3100.843 83937208 84067088 84229192 84402448 84568368 84714744 84834472 
3101.265 84924408 84984752 85018368 85030712 85028120 85016096 84995304 
3101.687 84958960 84890864 84769112 84573400 84292504 83933752 83526248 
3102.109 83120936 82776072 82548104 82476768 82573144 82818680 83168896 
3102.531 83569072 83961480 84301984 84567360 84753888 84874424 84949616 
3102.953 85000952 85042248 85077944 85103384 85109312 85086472 85031160 
3103.375 84947560 84847936 84748584 84663456 84600032 84555168 84516688 
3103.797 84467104 84392576 84289000 84166472 84046632 83958264 83927952 
3104.219 83970088 84083968 84253232 84453296 84656464 84841488 84997352 
3104.642 85122064 85219816 85296056 85354264 85394552 85415376 85415928 
3105.064 85398016 85366600 85328312 85288688 85251064 85215496 85180048 
3105.486 85142456 85102088 85060536 85021408 84988920 84966816 84957632 
3105.908 84962432 84981136 85012720 85055296 85105608 85159232 85211160 
3106.330 85256192 85290544 85312576 85322560 85322072 85312632 85294864 
3106.752 85268280 85232040 85186304 85133208 85077536 85025800 84984376 
3107.174 84958344 84949704 84956936 84975336 84998232 85018280 85028368 
3107.596 85023576 85001776 84964416 84916160 84864216 84816128 84776928 
3108.019 84747592 84724168 84699720 84666832 84622184 84569064 84518408 
3108.441 84485160 84484408 84525856 84609376 84724320 84851440 84969848 
3108.863 85060216 85111176 85121200 85097744 85054072 85005000 84964152 
3109.285 84940040 84935664 84948584 84972728 84999912 85022112 85033944 
3109.707 85033064 85020840 85001008 84978424 84956744 84937064 84917584 
3110.129 84894240 84862272 84817440 84757656 84683208 84596816 84502920 
3110.551 84407872 84319416 84245736 84195312 84174784 84187088 84230248 
3110.973 84297160 84377024 84456968 84526288 84577752 84608480 84619344 
3111.396 84613256 84593536 84562880 84524120 84481144 84439424 84406760 
3111.818 84391416 84400152 84436648 84499928 84584448 84680656 84777536 
3112.240 84863288 84926872 84960464 84959744 84925976 84865912 84791800 
3112.662 84717904 84656088 84612592 84584800 84562352 84530512 84477760 
3113.084 84400600 84307344 84215384 84147080 84121448 84146920 84219568 
3113.506 84324664 84443256 84557064 84655112 84734240 84796840 84846608 
3113.928 84885024 84909776 84916392 84900912 84862920 84806432 84739272 
3114.350 84670240 84606208 84551784 84509176 84479992 84466744 84472864 
3114.772 84501320 84552384 84621792 84700096 84773864 84829664 84855472 
3115.195 84843744 84792192 84703376 84584224 84445192 84301456 84170896 
3115.617 84072672 84024872 84038064 84112192 84233528 84378144 84514736 
3116.039 84613416 84654744 84632032 84552944 84433568 84292368 84140936 
3116.461 83979800 83798312 83580664 83313848 82997000 82646544 82298152 
3116.883 82001160 81803776 81745912 81844584 82089632 82443600 82852080 
3117.305 83257784 83609184 83875960 84050464 84145792 84186648 84201320 
3117.727 84212672 84232088 84260576 84290792 84312536 84315752 84294320 
3118.149 84247096 84178312 84097240 84017360 83955736 83927984 83945152 
3118.572 84008248 84105968 84214040 84300400 84335976 84300584 84192264 
3118.994 84027464 83838768 83663528 83533608 83468984 83471912 83529520 
3119.416 83618040 83711768 83785936 83820552 83802624 83724696 83586512 
3119.838 83395816 83170920 82939432 82734176 82589856 82531936 82571400 
3120.260 82701000 82898112 83129632 83360656 83565368 83728968 83849904 
3120.682 83935696 83998080 84047024 84087480 84119440 84139584 84144184 
3121.104 84131648 84103680 84065144 84022760 83982840 83950336 83927776 
3121.526 83915120 83910392 83910656 83913344 83916976 83921880 83929808 
3121.948 83943256 83963792 83991128 84022192 84052048 84075024 84086808 
3122.371 84086320 84076096 84061768 84049600 84045008 84050200 84063584 
3122.793 84079896 84091424 84088672 84060152 83993960 83877096 83697680 
3123.215 83448952 83132704 82763712 82368864 81987952 81664560 81436064 
3123.637 81328192 81346304 81476040 81686600 81942192 82209056 82462712 
3124.059 82692648 82898696 83086712 83262352 83427392 83578464 83709304 
3124.481 83813728 83889064 83937256 83964008 83975928 83978256 83973464 
3124.903 83961440 83941272 83913544 83881400 83850912 83829448 83823024 
3125.325 83834856 83863840 83905064 83950576 83991960 84021816 84034840 
3125.748 84028784 84004072 83963384 83910424 83849408 83784176 83717600 
3126.170 83652144 83590224 83534648 83489400 83458784 83446568 83454448 
3126.592 83480800 83520056 83563368 83601312 83625424 83630856 83617512 
3127.014 83589648 83554376 83519088 83490008 83469984 83457776 83447816 
3127.436 83431416 83398048 83337824 83245608 83123776 82985008 82850088 
3127.858 82746632 82700888 82729376 82834088 82999432 83196688 83389104 
3128.280 83545072 83644880 83684536 83674240 83632592 83578960 83526112 
3128.702 83479928 83440720 83408024 83384656 83377896 83396520 83446896 
3129.125 83527752 83629128 83733696 83823856 83886696 83918600 83925304 
3129.547 83918800 83911432 83910152 83914920 83919424 83915504 83897008 
3129.969 83863512 83820296 83776504 83740720 83718208 83709088 83709088 
3130.391 83711280 83708792 83697128 83674496 83641752 83601312 83556344 
3130.813 83509944 83464792 83423360 83387680 83359344 83339520 83328832 
3131.235 83327448 83335312 83352176 83377432 83409920 83447848 83488528 
3131.657 83528736 83565368 83595752 83618352 83633088 83641208 83644848 
3132.079 83646616 83648984 83653520 83660768 83670064 83680144 83689624 
3132.501 83697880 83705448 83713896 83724968 83739408 83755856 83770760 
3132.924 83778880 83774824 83755344 83720280 83672944 83618584 83562880 
3133.346 83509408 83458136 83404728 83340704 83254496 83131152 82955456 
3133.768 82714056 82399552 82016064 81584032 81143240 80745008 80449160 
3134.190 80308008 80350832 80577608 80955096 81427192 81922960 82379400 
3134.612 82752648 83022376 83192128 83280600 83312808 83310232 83290080 
3135.034 83265216 83245928 83242752 83264376 83314272 83387368 83469448 
3135.456 83540792 83581072 83578320 83532280 83455136 83365488 83283024 
3135.878 83221720 83186480 83175128 83181856 83201904 83232936 83274600 
3136.301 83325800 83381968 83435256 83476800 83500616 83507488 83505528 
3136.723 83507760 83525784 83565576 83623632 83688720 83745016 83778848 
3137.145 83783640 83761080 83719816 83671008 83624696 83585752 83553880 
3137.567 83524968 83494240 83458328 83417176 83373992 83334800 83306776 
3137.989 83296464 83308560 83343976 83398888 83463952 83526352 83571728 
3138.411 83587656 83568112 83515272 83439968 83357976 83287408 83242848 
3138.833 83231304 83251568 83294840 83348424 83398552 83435248 83453888 
3139.255 83455536 83445560 83431288 83419352 83413048 83411896 83411992 
3139.677 83408392 83397008 83377048 83351456 83326168 83307256 83298408 
3140.100 83299312 83305856 83312032 83312920 83307400 83298648 83292768 
3140.522 83295128 83307760 83327352 83346480 83355608 83347352 83318624 
3140.944 83270816 83208120 83134960 83054352 82967784 82877344 82788448 
3141.366 82710344 82656152 82638560 82664728 82733296 82833376 82947968 
3141.788 83057744 83148384 83213272 83253864 83276816 83289984 83298704 
3142.210 83303792 83302704 83291672 83268392 83233312 83189360 83140672 
3142.632 83091384 83044616 83002656 82967736 82942240 82928688 82929040 
3143.054 82943728 82971256 83008488 83051536 83096168 83138096 83172928 
3143.477 83195120 83198792 83178832 83132880 83063304 82977952 82889360 
3143.899 82810232 82750992 82715952 82702608 82703096 82707784 82709552 
3144.321 82705480 82697824 82691944 82694264 82709224 82738560 82781248 
3144.743 82834536 82894680 82957400 83018440 83073256 83117936 83150536 
3145.165 83171880 83185832 83197912 83213456 83234704 83259544 83281672 
3145.587 83293392 83288368 83264416 83224288 83174600 83123144 83075568 
3146.009 83034704 83000320 82971040 82945976 82925640 82911056 82902096 
3146.431 82896120 82887936 82871360 82842800 82803376 82760152 82723360 
3146.854 82703592 82706696 82731360 82769088 82807808 82836800 82850096 
3147.276 82848912 82839824 82831440 82829464 82834464 82841456 82843344 
3147.698 82834376 82814400 82789736 82772424 82775656 82808544 82872944 
3148.120 82961496 83059584 83148184 83210760 83236648 83224032 83179568 
3148.542 83116304 83049344 82990544 82946624 82917440 82897752 82879760 
3148.964 82857288 82828264 82795776 82766592 82748528 82747432 82764112 
3149.386 82793888 82827384 82854264 82865312 82856048 82827648 82786696 
3149.808 82742776 82705472 82682432 82676896 82687800 82710472 82738968 
3150.230 82767488 82791952 82810832 82824528 82834600 82842744 82850192 
3150.653 82857488 82864648 82871312 82876552 82878376 82873064 82855512 
3151.075 82820056 82762712 82683888 82590640 82497088 82421024 82381360 
3151.497 82391568 82455008 82563120 82696880 82831776 82941800 83007656 
3151.919 83019136 82976112 82886792 82765160 82627880 82490360 82367232 
3152.341 82270496 82208464 82185904 82202632 82253648 82329048 82416648 
3152.763 82503840 82579176 82634984 82667008 82674328 82658488 82622840 
3153.185 82572040 82511336 82446632 82383400 82325536 82275304 82233000 
3153.607 82197872 82169440 82148312 82136352 82135640 82146632 82166880 
3154.030 82190600 82210704 82220504 82217096 82202560 82183904 82170352 
3154.452 82169848 82186616 82219216 82261248 82303048 82335352 82350952 
3154.874 82346560 82323248 82285944 82242568 82201840 82172528 82160568 
3155.296 82167240 82188168 82214128 82233600 82236128 82217104 82179640 
3155.718 82134472 82095336 82075256 82080840 82110064 82153016 82196064 
3156.140 82227360 82239784 82233352 82213472 82188504 82165888 82150936 
3156.562 82146736 82154792 82175888 82209672 82253648 82301368 82342728 
3156.984 82366560 82363072 82328640 82267408 82190936 82113408 82047264 
3157.406 81999032 81967576 81946032 81925968 81902392 81875880 81852816 
3157.829 81841936 81851312 81884328 81938648 82006520 82077520 82140664 
3158.251 82185792 82205744 82196616 82158864 82097904 82024696 81954392 
3158.673 81901952 81879560 81891184 81931328 81985512 82035912 82067648 
3159.095 82073704 82058160 82034616 82021472 82033920 82079544 82154936 
3159.517 82247792 82339888 82413624 82457520 82467840 82449808 82414672 
3159.939 82377464 82351544 82345848 82362424 82395744 82433488 82459384 
3160.361 82458840 82421672 82346384 82240312 82118696 81999624 81898696 
3160.783 81826448 81785328 81771104 81775408 81789904 81808480 81828528 
3161.206 81850536 81876544 81908448 81946760 81990392 82036632 82081696 
3161.628 82120848 82149200 82162688 82159032 82139176 82108072 82074312 
3162.050 82047664 82037040 82047288 82077400 82120448 82165432 82201016 
3162.472 82217472 82209976 82178904 82129576 82069976 82009264 81956072 
3162.894 81916440 81893304 81885880 81890048 81898760 81903896 81898688 
3163.316 81878640 81843040 81794480 81737880 81678688 81621688 81570904 
3163.738 81529608 81501000 81488248 81493232 81515152 81549088 81586752 
3164.160 81617616 81633056 81630024 81612800 81592160 81581272 81591360 
3164.583 81626040 81679792 81738936 81787760 81812712 81808128 81777744 
3165.005 81733560 81691552 81665904 81666584 81696168 81750432 81819536 
3165.427 81890984 81951624 81989080 81994936 81965696 81904576 81820856 
3165.849 81729440 81647120 81587456 81558648 81560472 81585592 81621856 
3166.271 81657648 81685216 81702528 81712792 81721984 81735592 81755792 
3166.693 81780736 81805416 81824080 81831896 81826648 81809000 81781672 
3167.115 81748344 81712648 81678208 81648448 81627016 81618168 81625856 
3167.537 81653536 81703104 81774128 81863544 81965624 82072960 82176288 
3167.959 82266160 82334248 82373632 82380616 82355336 82302064 82228440 
3168.382 82144840 82062648 81991272 81937408 81903136 81885928 81879456 
3168.804 81875728 81867864 81851664 81827256 81798728 81772696 81755464 
3169.226 81750952 81759272 81776936 81798112 81817024 81830336 81837664 
3169.648 81841488 81845344 81852160 81862408 81873712 81881152 81879072 
3170.070 81862408 81828168 81776320 81710168 81636152 81562216 81497224 
3170.492 81448432 81419128 81407576 81406616 81405920 81394376 81365224 
3170.914 81318560 81262496 81210096 81175840 81170112 81195224 81244984 
3171.336 81307176 81369280 81421936 81462640 81495024 81525976 81561184 
3171.759 81602256 81645976 81686496 81718368 81739448 81751856 81760632 
3172.181 81770896 81784680 81799976 81811320 81812648 81799368 81770408 
3172.603 81727808 81675184 81615416 81549456 81476600 81396072 81309112 
3173.025 81220408 81137392 81069256 81023824 81004960 81011640 81038056 
3173.447 81075608 81114568 81147320 81169592 81181192 81185480 81188328 
3173.869 81196152 81213520 81241872 81278488 81317352 81350216 81369560 
3174.291 81370880 81353664 81321544 81280664 81238128 81199640 81169168 
3174.713 81149184 81141376 81147176 81167632 81202272 81247896 81298208 
3175.135 81345192 81380680 81399680 81402024 81392480 81378472 81367168 
3175.558 81362744 81364752 81368960 81369712 81363088 81348336 81328240 
3175.980 81307288 81289856 81278192 81272136 81269912 81269664 81270320 
3176.402 81271504 81272488 81270888 81261920 81239824 81199360 81138744 
3176.824 81061160 80975360 80893584 80828088 80789136 80781552 80804240 
3177.246 80850648 80911104 80974568 81030624 81072152 81095400 81100856 
3177.668 81092376 81076304 81059408 81046696 81040608 81040192 81042032 
3178.090 81041544 81035072 81020896 80999752 80974152 80947440 80922336 
3178.512 80899496 80876168 80844984 80794040 80705936 80561608 80345200 
3178.935 80049408 79682592 79271816 78863752 78512512 78272312 78183048 
3179.357 78258080 78482272 78814800 79203984 79594944 79945912 80234696 
3179.779 80456208 80618592 80734968 80817944 80875376 80911712 80930144 
3180.201 80934584 80930616 80924352 80920152 80919984 80923288 80928696 
3180.623 80935672 80945400 80959776 80979640 81002840 81023920 81035528 
3181.045 81032040 81012088 80980456 80946120 80920056 80910584 80920440 
3181.467 80946416 80981248 81017096 81048008 81072120 81090848 81107376 
3181.889 81124424 81143208 81163656 81185264 81208216 81233696 81262848 
3182.312 81295520 81328704 81356640 81370704 81362264 81324672 81254880 
3182.734 81154816 81031408 80896160 80762488 80645136 80557296 80507552 
3183.156 80498848 80526840 80581168 80646528 80707136 80750488 80769144 
3183.578 80762536 80735512 80696128 80652024 80609064 80570456 80537168 
3184.000 80509736 80489400 80478408 80479752 80495672 80526496 80569976 
3184.422 80621544 80675176 80724288 80763336 80788096 80795936 80786040 
3184.844 80759016 80716888 80662680 80600488 80534824 80469848 80409192 
3185.266 80354920 80307272 80264624 80224120 80182288 80136192 80084728 
3185.688 80028832 79971432 79915872 79864632 79817608 79771992 79723152 
3186.111 79667432 79605064 79542432 79491248 79466344 79481416 79543120 
3186.533 79648840 79785960 79936664 80081232 80204560 80299768 80367400 
3186.955 80413536 80445440 80469296 80488184 80503480 80516728 80530720 
3187.377 80549656 80576960 80612624 80651416 80683192 80696520 80681608 
3187.799 80635384 80562608 80475744 80390432 80321168 80278064 80263912 
3188.221 80275032 80302992 80338224 80371704 80396976 80411216 80414816 
3188.643 80411304 80406128 80406104 80417224 80443136 80484192 80537224 
3189.065 80596632 80656224 80711936 80762672 80810440 80858448 80909272 
3189.488 80962360 81013664 81055720 81080176 81080216 81052192 80997056 
3189.910 80920192 80830896 80739952 80658672 80596864 80560280 80549864 
3190.332 80560512 80582616 80603096 80609416 80593184 80551776 80489136 
3190.754 80413800 80336272 80264824 80204008 80154392 80114128 80081536 
3191.176 80057240 80044664 80049464 80077208 80130816 80209168 80306528 
3191.598 80413648 80518280 80608288 80672592 80702608 80694312 80648760 
3192.020 80572920 80478104 80379392 80291960 80227176 80191200 80182984 
3192.442 80195424 80217096 80236384 80244352 80236504 80214096 80183288 
3192.865 80153408 80133680 80131312 80148704 80182504 80223648 80259992 
3193.287 80280472 80278184 80254040 80216872 80181824 80164224 80175312 
3193.709 80218192 80287104 80369784 80452408 80525208 80584240 80631536 
3194.131 80671424 80706784 80735744 80751840 80746320 80713016 80651544 
3194.553 80568816 80476424 80387632 80313024 80257400 80220336 80197928 
3194.975 80185632 80179808 80178248 80179088 80179120 80173568 80156984 
3195.397 80124960 80076584 80015152 79947784 79882544 79826832 79785248 
3195.819 79758952 79746896 79746992 79757352 79776304 79802336 79833624 
3196.241 79868112 79904344 79942232 79983392 80030032 80083304 80140992 
3196.664 80196848 80240440 80260112 80246976 80197240 80114584 80009216 
3197.086 79896432 79791936 79709360 79658320 79642608 79660968 79707696 
3197.508 79774776 79852784 79933136 80009896 80079792 80141904 80195912 
3197.930 80239576 80267576 80272024 80244744 80181848 80086736 79971064 
3198.352 79850208 79738000 79638576 79542672 79427920 79267352 79041832 
3198.774 78749960 78414848 78080768 77806280 77643280 77626096 77761272 
3199.196 78027568 78381984 78772080 79152352 79487440 79758624 79961512 
3199.618 80100728 80185368 80225352 80231152 80212568 80179376 80141176 
3200.041 80105384 80077104 80058288 80048160 80044032 80042096 80038192 
3200.463 80027640 80006160 79971088 79922968 79866912 79812632 79773088 
3200.885 79759568 79778176 79826320 79893232 79961984 80015488 80042912 
3201.307 80041848 80019048 79985968 79954608 79931576 79916608 79903616 
3201.729 79884880 79855120 79814632 79769112 79727776 79699464 79688808 
3202.151 79695344 79713760 79736704 79756872 79769880 79774816 79774072 
3202.573 79771912 79773256 79782688 79803160 79835552 79878080 79926408 
3202.995 79973568 80011408 80032712 80032400 80009472 79967144 79912272 
3203.417 79853152 79797720 79752368 79720704 79704168 79702512 79714512 
3203.840 79737896 79768992 79802784 79832232 79849576 79848168 79823720 
3204.262 79776560 79711888 79639800 79572576 79522656 79500160 79509856 
3204.684 79550464 79614144 79688680 79758360 79807936 79826392 79808504 
3205.106 79757160 79682448 79600408 79527744 79478456 79460520 79473776 
3205.528 79511088 79561056 79612928 79658864 79696248 79726784 79753920 
3205.950 79779528 79801696 79814312 79809464 79780704 79726184 79650320 
3206.372 79563176 79478032 79406440 79356496 79330856 79327648 79342160 
3206.794 79369184 79404160 79442432 79478736 79506568 79518272 79507848 
3207.217 79473184 79418400 79353128 79290904 79244864 79222760 79225632 
3207.639 79247672 79280000 79314016 79345624 79375912 79409536 79450848 
3208.061 79500592 79553968 79602312 79635600 79646808 79634880 79605248 
3208.483 79567856 79532960 79508584 79497472 79497080 79500904 79501464 
3208.905 79492776 79472128 79441104 79405320 79373336 79353608 79352800 
3209.327 79372560 79408384 79449256 79480464 79488424 79464008 79406856 
3209.749 79325424 79235240 79152640 79090824 79056312 79048264 79060704 
3210.171 79085472 79114920 79140664 79151904 79133952 79066560 78929488 
3210.594 78709760 78409560 78051408 77677696 77345424 77107936 77005848 
3211.016 77054800 77242848 77534216 77880040 78233856 78555688 78820912 
3211.438 79019336 79150720 79221088 79239440 79217168 79166776 79102800 
3211.860 79040808 78993792 78971160 78976144 79005760 79051816 79103440 
3212.282 79149864 79181312 79191240 79176856 79139640 79085320 79023360 
3212.704 78965552 78922304 78900840 78902800 78924560 78958856 78998328 
3213.126 79038504 79078480 79119960 79164288 79209696 79250456 79278472 
3213.548 79286640 79273216 79243592 79209744 79185208 79181448 79203056 
3213.970 79246752 79303024 79360272 79409072 79443352 79461032 79462104 
3214.393 79446576 79413792 79362672 79292576 79203312 79093672 78958888 
3214.815 78789736 78572504 78294504 77951472 77555064 77136024 76740808 
3215.237 76426240 76240608 76213936 76348544 76619336 76978968 77370104 
3215.659 77742928 78059064 78299648 78463480 78562016 78612968 78634704 
3216.081 78644648 78655840 78677432 78714560 78767960 78834584 78908368 
3216.503 78982576 79050872 79109112 79155792 79191248 79216656 79232920 
3216.925 79240280 79238384 79226512 79203616 79168192 79117824 79049552 
3217.347 78961336 78853896 78733008 78609272 78498184 78415728 78373656 
3217.770 78376848 78421112 78495024 78582704 78669832 78746056 78806408 
3218.192 78850624 78880592 78898088 78903736 78897592 78880608 78855848 
3218.614 78829056 78807232 78796544 78800832 78820232 78851664 78889816 
3219.036 78929272 78965200 78993952 79013280 79021704 79018592 79004200 
3219.458 78979912 78948080 78911592 78873512 78836200 78800944 78767624 
3219.880 78734144 78695456 78642360 78562400 78440088 78261368 78019688 
3220.302 77721296 77389280 77060424 76783160 76602800 76550744 76636904 
3220.724 76845760 77140576 77471496 77792304 78065824 78271144 78403736 
3221.146 78470000 78481600 78450216 78387200 78303568 78211520 78126496 
3221.569 78063920 78036720 78051872 78107864 78195424 78300288 78408688 
3221.991 78509384 78596072 78666760 78721416 78760008 78781720 78785448 
3222.413 78771344 78742048 78702864 78659960 78618512 78580696 78544976 
3222.835 78507200 78462984 78410560 78352544 78296296 78252016 78231216 
3223.257 78242616 78289888 78370096 78473752 78585880 78687968 78763320 
3223.679 78799184 78790656 78741832 78665472 78579528 78501552 78446056 
3224.101 78420080 78423232 78449592 78491568 78542904 78600008 78661688 
3224.523 78726528 78790256 78845352 78881416 78889120 78864544 78811696 
3224.946 78742920 78675128 78626168 78607760 78622424 78662704 78714688 
3225.368 78762216 78792288 78799640 78787320 78765280 78745712 78739888 
3225.790 78753584 78785584 78827872 78868496 78895264 78898608 78875152 
3226.212 78828224 78767280 78704232 78651128 78616504 78603176 78608520 
3226.634 78625792 78647248 78665632 78676536 78678296 78671048 78655552 
3227.056 78632248 78601336 78563536 78521088 78478432 78441160 78415328 
3227.478 78405312 78412536 78435456 78470544 78514008 78562832 78615368 
3227.900 78670136 78723824 78769904 78797632 78792888 78742496 78636712 
3228.323 78473736 78261304 78017576 77768176 77540616 77362544 77254480 
3228.745 77227184 77280576 77403904 77577680 77776040 77973544 78146656 
3229.167 78278192 78360304 78393968 78388352 78357240 78317040 78282152 
3229.589 78262176 78261312 78277632 78304728 78333424 78355240 78363912 
3230.011 78357208 78337208 78309744 78282464 78262040 78252672 78253896 
3230.433 78260560 78263064 78250136 78211568 78140584 78036984 77908136 
3230.855 77769376 77640272 77543248 77498296 77517600 77603696 77747288 
3231.277 77929872 78125432 78307760 78455664 78555448 78604072 78607272 
3231.699 78577192 78527392 78470944 78418144 78375520 78347136 78334584 
3232.122 78337248 78351648 78371240 78387136 78388888 78368336 78322064 
3232.544 78253600 78172968 78094960 78035432 78005728 78010944 78047976 
3232.966 78107568 78176200 78240472 78290280 78319680 78327888 78318168 
3233.388 78296584 78269552 78242504 78217968 78194464 78166240 78124296 
3233.810 78059720 77966272 77844440 77702808 77558600 77433104 77346296 
3234.232 77312552 77335200 77406272 77508296 77621040 77725616 77809488 
3234.654 77868792 77906456 77929032 77942416 77949592 77949664 77939488 
3235.076 77916248 77880168 77835600 77790768 77754624 77734792 77734848 
3235.499 77753424 77784904 77821552 77856568 77885224 77906144 77920416 
3235.921 77930064 77936264 77938464 77934416 77921672 77899200 77868992 
3236.343 77836032 77807824 77792112 77794016 77814568 77849640 77891192 
3236.765 77928472 77951544 77953720 77932880 77891984 77837920 77779448 
3237.187 77723544 77673416 77626328 77574416 77505936 77409656 77279808 
3237.609 77119416 76942080 76769320 76627840 76540432 76520704 76569416 
3238.031 76674728 76815680 76968248 77113592 77239776 77343616 77427664 
3238.453 77496408 77552528 77595672 77623456 77633984 77627880 77609112 
3238.875 77583152 77554800 77526096 77496008 77462176 77424104 77385448 
3239.298 77354912 77343696 77360784 77409384 77483952 77571424 77653808 
3239.720 77715152 77745400 77742968 77714112 77670352 77624544 77586656 
3240.142 77563208 77556600 77566264 77589888 77624184 77665432 77708920 
3240.564 77749544 77781904 77800400 77800088 77776600 77726256 77647136 
3240.986 77539984 77410064 77267448 77128072 77010672 76932272 76905344 
3241.408 76932752 77007264 77112424 77228400 77336104 77421520 77479112 
3241.830 77510744 77523800 77527264 77529760 77537016 77550976 77569992 
3242.252 77589320 77602336 77601568 77581440 77540136 77481544 77414776 
3242.675 77353136 77310408 77295744 77311488 77351552 77404176 77454656 
3243.097 77491120 77507920 77506392 77493656 77479520 77473744 77482784 
3243.519 77509560 77553504 77611536 77678496 77747472 77810696 77859128 
3243.941 77884456 77880944 77846464 77783736 77699624 77604368 77508432 
3244.363 77421576 77351576 77303184 77278688 77277848 77298304 77335728 
3244.785 77384632 77439672 77495984 77550224 77600192 77643776 77678120 
3245.207 77699232 77702352 77683904 77642200 77577480 77489832 77375792 
3245.629 77225800 77025392 76758320 76416080 76006112 75558976 75124496 
3246.052 74763232 74534288 74473960 74588416 74849776 75208448 75603616 
3246.474 75982272 76313216 76586312 76809432 76996928 77160624 77302992 
3246.896 77418104 77496384 77531736 77525552 77487448 77430888 77369568 
3247.318 77313104 77265656 77228272 77201512 77187504 77190472 77214640 
3247.740 77261560 77328056 77406216 77484728 77550912 77594624 77608944 
3248.162 77591624 77545040 77476192 77395840 77316176 77249712 77205072 
3248.584 77184352 77182056 77186688 77184824 77165736 77126744 77074296 
3249.006 77022424 76986216 76977536 76999784 77047536 77108728 77169944 
3249.428 77221248 77257520 77278496 77286016 77281168 77263240 77230728 
3249.851 77184192 77128456 77073896 77034688 77023824 77050312 77115176 
3250.273 77211528 77325808 77442176 77546400 77627224 77678568 77698544 
3250.695 77688664 77652680 77596320 77526976 77452600 77381792 77322304 
3251.117 77279584 77256624 77253096 77265728 77288376 77313360 77332432 
3251.539 77337808 77324656 77291848 77242944 77184864 77126720 77076736 
3251.961 77039592 77015904 77002472 76994560 76987712 76979736 76970656 
3252.383 76961624 76953408 76945408 76935984 76923976 76909944 76896952 
3252.805 76889240 76890648 76902152 76921232 76942624 76961072 76973928 
3253.228 76982376 76990568 77003000 77021640 77044168 77064528 77075664 
3253.650 77073312 77057768 77034128 77009160 76988752 76974792 76965272 
3254.072 76956208 76944912 76932048 76921824 76919568 76929072 76950480 
3254.494 76980584 77014352 77047184 77075632 77094592 77093968 77056688 
3254.916 76957856 76773192 76488792 76111608 75674080 75232560 74857632 
3255.338 74610200 74530928 74626048 74869016 75207136 75578944 75932752 
3255.760 76231520 76460160 76620456 76724040 76784864 76815520 76826800 
3256.182 76827328 76825128 76826776 76835496 76850360 76866680 76878960 
3256.604 76883944 76883296 76883048 76890944 76911288 76941496 76971256 
3257.027 76986736 76975408 76932024 76861336 76777032 76696832 76635120 
3257.449 76600088 76591352 76602848 76626208 76654904 76685192 76714112 
3257.871 76737264 76746272 76729128 76674584 76576368 76438304 76274704 
3258.293 76109584 75969784 75876712 75842872 75867768 75940264 76041864 
3258.715 76153904 76261376 76354920 76431760 76493240 76542776 76583592 
3259.137 76618272 76648624 76676208 76703064 76731536 76763800 76801288 
3259.559 76844056 76890864 76939608 76988408 77036216 77083088 77129672 
3259.981 77175920 77219800 77256816 77279880 77281400 77256104 77203168 
3260.404 77128008 77041456 76958192 76891392 76849656 76834056 76838000 
3260.826 76848792 76851432 76833736 76787880 76712392 76611048 76491128 
3261.248 76360824 76227480 76097744 75977048 75870592 75783864 75721984 
3261.670 75689504 75689600 75723336 75789640 75885216 76004960 76141264 
3262.092 76284560 76424080 76547792 76645480 76710512 76741656 76743784 
3262.514 76727016 76704192 76685984 76678640 76681216 76686616 76683592 
3262.936 76661576 76615112 76546136 76464288 76383984 76321280 76287592 
3263.358 76287256 76315992 76363136 76414232 76455504 76478240 76479504 
3263.781 76462592 76434584 76404328 76379208 76363496 76358128 76361048 
3264.203 76368400 76375816 76379984 76379168 76373728 76365728 76358432 
3264.625 76354968 76357056 76364064 76372672 76377808 76373584 76355816 
3265.047 76323336 76278856 76228072 76178512 76137600 76110408 76099360 
3265.469 76103856 76121152 76146696 76174840 76199408 76213344 76210208 
3265.891 76185600 76138648 76073488 75999440 75930096 75879104 75858160 
3266.313 75873600 75925024 76005784 76104840 76210096 76309168 76392128 
3266.735 76451952 76484336 76488336 76466280 76423848 76368696 76309592 
3267.157 76254448 76208224 76173136 76149200 76136056 76134784 76148592 
3267.580 76181552 76236584 76312600 76403248 76497008 76581000 76643760 
3268.002 76678568 76684944 76667520 76633536 76589736 76541416 76492112 
3268.424 76444784 76403360 76372608 76356776 76357488 76372040 76393016 
3268.846 76410040 76413992 76399512 76367408 76323856 76278624 76241472 
3269.268 76219056 76214544 76227392 76254720 76292048 76334096 76374456 
3269.690 76405280 76419000 76409352 76373856 76314976 76240232 76160056 
3270.112 76084248 76020552 75972744 75941664 75926992 75928776 75947488 
3270.534 75982544 76030224 76082160 76125688 76148000 76139208 76096672 
3270.957 76025680 75938224 75848304 75766856 75700096 75648728 75610672 
3271.379 75584328 75570776 75573632 75596992 75642240 75706184 75781032 
3271.801 75857416 75926288 75981696 76021192 76044008 76049424 76035792 
3272.223 76001400 75946856 75877216 75803024 75736936 75690520 75669120 
3272.645 75669416 75679888 75685336 75673592 75639432 75587544 75530016 
3273.067 75482816 75458936 75464680 75498392 75551960 75613800 75672192 
3273.489 75718808 75748920 75761760 75759520 75746304 75726536 75703200 
3273.911 75676824 75644376 75600056 75536720 75449480 75337880 75207336 
3274.333 75066648 74925000 74786880 74649440 74502928 74335712 74141880 
3274.756 73927544 73714016 73533832 73425928 73421328 73535336 73762200 
3275.178 74077296 74442240 74814104 75158080 75449168 75676168 75839464 
3275.600 75946936 76009840 76039200 76045488 76036912 76019856 75999248 
3276.022 75978080 75957984 75939456 75922384 75906448 75891360 75876808 
3276.444 75862400 75847752 75832896 75818640 75806528 75798320 75794656 
3276.866 75793656 75789792 75773424 75732952 75655880 75531632 75354632 
3277.288 75125440 74852648 74552192 74249088 73973840 73758232 73632776 
3277.710 73617224 73716480 73917000 74190128 74496168 74793528 75051328 
3278.133 75252248 75395960 75494392 75565696 75625720 75682880 75738128 
3278.555 75787224 75825304 75850416 75864712 75872960 75879544 75885680 
3278.977 75888720 75883416 75864848 75830336 75780928 75720344 75653880 
3279.399 75586480 75522096 75464624 75418120 75387328 75376792 75388672 
3279.821 75421144 75467496 75518168 75562464 75592656 75606288 75606352 
3280.243 75599800 75594296 75596144 75607840 75628136 75652584 75675008 
3280.665 75687984 75683352 75653824 75593512 75500696 75379536 75241768 
3281.087 75105104 74989072 74912048 74884856 74908856 74976016 75072728 
3281.510 75183656 75295424 75399792 75492112 75569760 75630304 75670144 
3281.932 75685776 75675840 75643280 75596016 75545408 75504504 75483328 
3282.354 75487024 75514656 75560296 75614608 75667384 75710304 75737232 
3282.776 75745376 75735136 75709808 75674632 75635472 75597776 75564744 
3283.198 75536952 75512768 75490128 75468384 75449976 75439864 75443920 
3283.620 75465128 75500568 75539328 75564440 75557984 75505616 75403680 
3284.042 75261480 75101440 74951824 74841184 74790752 74807848 74885552 
3284.464 75004496 75140344 75267664 75367384 75430072 75455088 75448768 
3284.886 75420264 75378672 75329816 75276344 75219112 75159208 75100176 
3285.309 75049000 75014200 75004328 75024008 75071520 75137704 75207944 
3285.731 75266336 75299008 75299528 75270344 75222560 75171592 75133544 
3286.153 75120592 75137280 75180696 75241808 75309440 75372440 75423048 
3286.575 75457760 75476568 75481792 75476488 75463800 75446312 75426480 
3286.997 75407064 75390808 75380272 75376968 75380728 75389488 75399984 
3287.419 75409072 75415000 75418680 75423720 75436016 75461376 75503640 
3287.841 75562512 75632720 75703808 75761608 75792200 75783456 75728840 
3288.263 75628960 75492032 75332200 75166296 75012256 74884344 74791936 
3288.686 74739152 74725184 74745624 74793784 74861960 74940632 75018376 
3289.108 75082792 75120064 75118312 75070752 74977912 74849048 74700688 
3289.530 74554504 74430504 74344080 74303120 74307352 74350592 74423488 
3289.952 74516872 74621768 74729768 74832400 74919712 74982344 75013880 
3290.374 75013584 74988216 74951504 74921520 74914104 74939472 74998608 
3290.796 75083944 75181544 75276072 75355624 75412752 75445680 75456344 
3291.218 75448752 75427128 75395656 75358808 75321224 75287808 75262888 
3291.640 75248968 75246456 75253432 75266384 75279928 75286704 75277120 
3292.062 75237912 75154728 75015496 74815352 74562064 74278720 74002848 
3292.485 73775384 73634264 73601832 73678128 73840872 74052056 74271256 
3292.907 74462456 74605168 74695008 74739576 74751224 74740592 74712936 
3293.329 74667800 74602224 74514568 74406952 74285792 74160184 74038936 
3293.751 73930128 73840072 73774064 73737632 73735744 73771736 73845256 
3294.173 73951160 74079392 74216672 74350792 74472352 74577144 74665888 
3294.595 74742416 74810736 74872720 74926856 74968416 74990872 74987416 
3295.017 74953704 74889248 74799000 74692808 74585520 74494392 74434360 
3295.439 74415960 74441136 74502872 74585960 74672016 74744768 74793376 
3295.862 74815816 74817584 74808832 74799096 74794592 74796232 74800704 
3296.284 74802976 74799592 74790800 74781016 74777304 74786560 74813576 
3296.706 74858688 74917536 74981400 75039944 75082752 75101888 75094192 
3297.128 75061840 75012224 74955528 74903096 74863680 74841192 74834192 
3297.550 74836752 74841008 74839448 74827960 74806344 74777816 74746832 
3297.972 74717216 74690008 74662768 74629392 74581544 74510928 74410776 
3298.394 74279016 74119928 73945864 73775208 73630144 73532488 73496184 
3298.816 73524248 73606136 73721584 73844120 73949832 74024704 74066432 
3299.239 74084200 74093200 74109256 74142064 74193144 74256824 74324184 
3299.661 74386768 74439552 74481720 74514912 74540968 74560272 74571712 
3300.083 74574056 74567640 74555544 74542888 74534944 74535128 74543048 
3300.505 74554688 74563632 74564008 74552000 74527136 74491736 74449736 
3300.927 74404880 74359496 74314624 74270264 74226240 74182760 74140584 
3301.349 74100872 74064952 74034040 74009416 73992464 73984328 73985728 
3301.771 73996232 74014064 74035952 74057976 74076872 74090928 74101104 
3302.193 74111032 74126552 74153680 74197264 74258936 74336064 74421160 
3302.615 74502808 74568576 74606344 74608176 74572408 74504336 74415232 
3303.038 74319808 74234184 74171256 74139504 74141912 74176072 74235024 
3303.460 74308408 74384712 74451456 74497904 74517448 74509000 74478544 
3303.882 74437864 74402944 74388008 74401744 74443896 74505336 74570264 
3304.304 74621456 74647024 74642904 74614504 74573248 74533208 74505216 
3304.726 74493744 74496656 74507056 74516672 74518648 74510232 74492680 
3305.148 74470600 74449760 74436208 74434744 74448048 74476624 74518120 
3305.570 74567688 74617536 74658592 74681960 74680240 74649984 74592512 
3305.992 74514512 74426352 74341376 74273336 74232856 74226416 74254032 
3306.415 74309576 74381320 74455552 74520160 74566872 74593784 74604432 
3306.837 74605488 74602768 74598936 74592200 74578152 74552600 74515176 
3307.259 74470704 74428856 74400304 74392360 74406216 74435936 74470792 
3307.681 74498648 74511096 74504960 74482512 74448736 74408776 74365608 
3308.103 74319720 74270824 74219936 74170672 74129344 74102584 74094760 
3308.525 74106024 74131768 74163920 74193072 74212024 74216680 74206864 
3308.947 74185256 74156232 74124184 74092288 74062112 74032984 74002112 
3309.369 73964576 73914600 73846664 73757040 73645272 73514592 73371648 
3309.792 73224632 73083008 72956328 72853576 72784512 72758416 72782568 
3310.214 72860200 72987360 73151616 73331816 73503912 73644808 73738368 
3310.636 73780176 73777416 73746608 73707192 73678472 73674248 73700896 
3311.058 73757960 73838592 73930832 74017464 74079432 74097568 74057032 
3311.480 73953216 73795016 73606168 73418728 73268984 73185712 73182000 
3311.902 73253064 73377848 73527056 73669792 73784624 73862512 73907016 
3312.324 73929992 73946632 73969968 74006592 74056424 74112984 74166168 
3312.746 74203488 74213440 74187856 74123256 74022632 73895424 73757328 
3313.168 73626024 73519224 73451104 73428736 73451928 73513168 73600352 
3313.591 73697888 73790248 73864592 73911024 73924440 73903936 73852016 
3314.013 73773080 73672328 73555400 73427944 73297384 73173744 73068680 
3314.435 72995128 72963296 72976912 73031064 73112520 73203664 73286680 
3314.857 73350872 73395064 73427368 73459984 73503704 73562080 73629648 
3315.279 73693744 73740416 73761232 73756648 73736792 73716816 73712432 
3315.701 73732992 73779160 73843168 73912928 73975616 74021216 74044912 
3316.123 74046160 74027632 73993600 73949344 73900504 73852568 73810800 
3316.545 73779000 73758912 73750352 73751856 73761952 73779832 73805480 
3316.968 73838536 73876584 73914720 73945328 73960424 73954576 73926648 
3317.390 73880528 73823456 73763656 73706912 73655400 73608192 73563120 
3317.812 73518976 73476600 73438384 73406568 73381264 73359848 73337632 
3318.234 73310336 73276384 73238104 73200840 73170840 73153000 73148784 
3318.656 73156480 73172400 73193248 73216976 73243048 73271512 73301720 
3319.078 73331944 73360200 73385496 73409328 73435536 73469240 73514040 
3319.500 73570000 73632432 73693368 73743120 73773168 73778640 73758256 
3319.922 73714216 73650648 73573400 73489104 73405104 73329608 73269704 
3320.344 73229992 73211200 73209832 73219544 73233648 73248368 73263656 
3320.767 73282824 73309576 73345336 73387248 73428904 73462536 73483144 
3321.189 73490720 73490384 73489464 73494224 73506600 73523672 73539408 
3321.611 73548464 73549416 73545736 73544112 73550680 73568376 73595096 
3322.033 73625256 73652584 73673672 73689144 73702664 73717696 73734624 
3322.455 73749072 73753544 73739816 73703184 73644616 73570880 73492112 
3322.877 73418360 73357976 73315624 73293216 73290856 73307496 73340576 
3323.299 73385264 73434688 73480216 73513888 73531056 73531000 73516304 
3323.721 73490056 73452952 73401872 73331504 73238312 73125608 73006664 
3324.144 72904416 72843784 72845912 72919120 73055456 73231288 73414472 
3324.566 73574576 73687488 73742216 73739728 73689848 73606104 73502920 
3324.988 73394408 73292632 73208752 73151312 73123712 73122760 73137976 
3325.410 73154992 73158432 73138560 73094296 73034096 72972272 72924448 
3325.832 72903272 72914464 72957448 73027160 73117264 73221248 73333008 
3326.254 73446248 73552664 73642784 73707968 73742168 73744704 73720328 
3326.676 73677880 73626384 73572496 73518600 73463152 73402648 73334352 
3327.098 73258160 73176744 73094456 73015216 72941592 72874176 72812448 
3327.521 72755840 72704560 72659648 72622360 72593568 72573640 72562840 
3327.943 72561904 72572248 72595008 72629520 72671544 72712928 72743184 
3328.365 72751640 72732040 72684992 72618976 72547408 72485640 72446320 
3328.787 72435568 72452992 72492960 72548328 72612472 72681408 72753256 
3329.209 72826264 72897208 72960712 73009728 73038400 73044024 73028752 
3329.631 72998832 72963216 72930528 72906216 72892120 72886760 72887344 
3330.053 72891456 72898344 72908576 72922456 72938248 72951120 72953160 
3330.475 72936312 72894656 72827760 72741688 72649008 72565640 72505952 
3330.897 72480440 72492016 72536296 72602960 72679960 72756536 72825408 
3331.320 72884248 72934128 72977776 73017152 73052288 73081048 73100520 
3331.742 73108416 73104856 73092832 73078128 73067336 73066104 73077728 
3332.164 73102096 73135984 73174152 73211384 73243224 73266920 73281168 
3332.586 73285040 73277200 73255496 73217528 73162272 73091840 73013008 
3333.008 72936360 72874720 72840000 72838568 72869264 72922448 72983328 
3333.430 73034632 73062384 73059960 73028632 72976576 72914912 72854632 
3333.852 72802616 72761112 72728664 72702600 72681032 72664176 72653848 
3334.274 72652232 72659952 72675232 72693904 72710864 72722008 72725304 
3334.697 72721704 72714576 72708848 72709328 72720040 72743480 72780000 
3335.119 72827632 72881184 72932728 72970616 72981264 72952120 72873584 
3335.541 72743624 72569800 72371040 72173888 72008984 71905480 71881816 
3335.963 71942520 72074968 72253792 72444088 72611624 72732464 72795944 
3336.385 72807512 72783992 72748280 72719768 72709616 72719152 72741936 
3336.807 72768128 72789360 72801952 72806376 72805072 72799424 72787944 
3337.229 72766576 72730696 72676448 72601600 72503688 72377064 72211944 
3337.651 71995416 71716760 71375672 70989304 70595728 70245424 69996112 
3338.073 69894168 69961088 70188424 70539144 70959480 71388856 71779600 
3338.496 72101992 72345864 72516576 72627448 72693072 72724800 72732160 
3338.918 72724216 72710808 72703584 72712528 72742776 72792352 72852112 
3339.340 72908560 72947520 72959712 72942384 72899856 72840640 72774976 
3339.762 72711464 72654840 72606256 72563648 72523304 72480808 72432704 
3340.184 72377232 72315176 72249928 72187376 72135088 72100080 72088088 
3340.606 72102184 72142384 72206096 72288520 72383272 72481496 72572392 
3341.028 72643816 72683200 72681776 72637456 72557728 72458544 72362376 
3341.450 72292312 72264048 72283000 72341800 72424472 72510368 72582272 
3341.873 72631072 72656224 72663976 72662680 72658632 72653192 72643584 
3342.295 72625568 72597320 72561880 72527560 72504776 72503512 72528656 
3342.717 72578312 72643800 72712648 72772200 72812136 72827360 72817720 
3343.139 72786928 72740160 72682928 72619984 72554928 72491416 72433168 
3343.561 72383744 72346016 72320664 72305456 72294984 72282544 72262200 
3343.983 72231304 72192248 72152344 72121912 72109792 72120608 72151720 
3344.405 72194136 72234128 72258664 72259904 72237480 72198784 72155952 
3344.827 72122208 72106328 72110936 72132080 72162152 72192672 72217720 
3345.250 72235568 72247832 72257520 72266632 72274656 72278648 72274952 
3345.672 72261312 72239096 72214040 72195680 72194072 72217704 72270224 
3346.094 72348976 72444768 72543664 72630784 72691712 72716688 72701744 
3346.516 72648688 72563856 72456296 72336096 72212016 72091784 71982144 
3346.938 71888824 71817800 71774528 71762952 71784576 71837168 71914728 
3347.360 72007552 72104688 72195680 72271992 72329104 72366336 72386736 
3347.782 72395456 72398872 72402824 72410824 72423392 72437296 72446328 
3348.204 72441984 72416408 72364672 72286712 72188072 72079256 71973704 
3348.626 71883408 71817256 71778592 71765320 71771376 71789184 71812592 
3349.049 71837512 71862656 71888296 71914760 71941160 71964992 71982648 
3349.471 71991168 71989648 71980584 71969568 71964784 71974600 72004880 
3349.893 72057576 72129552 72213648 72299904 72379080 72444672 72493904 
3350.315 72527696 72548832 72559816 72560936 72549960 72523136 72477752 
3350.737 72414016 72336600 72253480 72174760 72108904 72060536 72029600 
3351.159 72012168 72002352 71994688 71986160 71976272 71966472 71958648 
3351.581 71954280 71953896 71957520 71965296 71977712 71995304 72017752 
3352.003 72043280 72068208 72087384 72095816 72089416 72065896 72024896 
3352.426 71967504 71895736 71812328 71721456 71628960 71542256 71470072 
3352.848 71419936 71396496 71400176 71427176 71470696 71522952 71577824 
3353.270 71630880 71679080 71719600 71748232 71759840 71750224 71718560 
3353.692 71669672 71614056 71566536 71540592 71544736 71579144 71635824 
3354.114 71700928 71759688 71801960 71823680 71827568 71819952 71807888 
3354.536 71795672 71783960 71770832 71753880 71732256 71707600 71683280 
3354.958 71663144 71649792 71643768 71643976 71648856 71657768 71671584 
3355.380 71692512 71722696 71762960 71811464 71863320 71910584 71944336 
3355.802 71955792 71938368 71889824 71813184 71717256 71614368 71519072 
3356.225 71443336 71392640 71363704 71344392 71316776 71261264 71164688 
3356.647 71024432 70851616 70667896 70502232 70382928 70328784 70346424 
3357.069 70427624 70553448 70697616 70835032 70947408 71025112 71068648 
3357.491 71085728 71087624 71083896 71080192 71076616 71069200 71052168 
3357.913 71021640 70978240 70928352 70882952 70854392 70853936 70887384 
3358.335 70953744 71045072 71149384 71253088 71344416 71416760 71468712 
3358.757 71504024 71529112 71551536 71577320 71609624 71648712 71692344 
3359.179 71737032 71778944 71815168 71843728 71863216 71872264 71868792 
3359.602 71849824 71812576 71755496 71680320 71592816 71503600 71425648 
3360.024 71371216 71348856 71359472 71395336 71440288 71475024 71480392 
3360.446 71443120 71360328 71240320 71101600 70966960 70860656 70800624 
3360.868 70794640 70839160 70920456 71018728 71112000 71183432 71223488 
3361.290 71231568 71214312 71182824 71148592 71119816 71101296 71094392 
3361.712 71098968 71115048 71143376 71184744 71238368 71300752 71365312 
3362.134 71423384 71467048 71489872 71487632 71457256 71394496 71293232 
3362.556 71147176 70953352 70717896 70459256 70210384 70010184 69895192 
3362.979 69888840 69991392 70178696 70406872 70628888 70803336 70908600 
3363.401 70946248 70936936 70909896 70890552 70894328 70922216 70965136 
3363.823 71010216 71048600 71078392 71104448 71134096 71172992 71221624 
3364.245 71275336 71326152 71366560 71392280 71402648 71400096 71388184 
3364.667 71370608 71350280 71329840 71311872 71298048 71287832 71276728 
3365.089 71256424 71215248 71142344 71032192 70887696 70721472 70552976 
3365.511 70405736 70299576 70247328 70252752 70311096 70411536 70540328 
3365.933 70684832 70833744 70978608 71114048 71236680 71344640 71436008 
3366.355 71506320 71547072 71544872 71482304 71344136 71122792 70825888 
3366.778 70477944 70121296 69807992 69584416 69484408 69516808 69665000 
3367.200 69890024 70143896 70382384 70572336 70700496 70770840 70800048 
3367.622 70808432 70814976 70832608 70866472 70915888 70976088 71040704 
3368.044 71102536 71154936 71192224 71209216 71201640 71165432 71095992 
3368.466 70988944 70840992 70652864 70432080 70196328 69973400 69795312 
3368.888 69695160 69695824 69803176 70003096 70264424 70546624 70807096 
3369.310 71014560 71151512 71215488 71214840 71163480 71075520 70962016 
3369.732 70832728 70697256 70566264 70452496 70367400 70318464 70307200 
3370.155 70329104 70375864 70438744 70512392 70595024 70687216 70788536 
3370.577 70894400 70994896 71077416 71129296 71143496 71121424 71073448 
3370.999 71015288 70963576 70931384 70923952 70938608 70966088 70994784 
3371.421 71013040 71012392 70989144 70944032 70881704 70809320 70736024 
3371.843 70670856 70621752 70594824 70592944 70615776 70659736 70719040 
3372.265 70785848 70851104 70906184 70942720 70954816 70940528 70903200 
3372.687 70851640 70798600 70758888 70744040 70759472 70802152 70861744 
3373.109 70922912 70970184 70993408 70989336 70962528 70922208 70879472 
3373.531 70842624 70815016 70794760 70776104 70751752 70715104 70662648 
3373.954 70594664 70515656 70433312 70358096 70301208 70271896 70276400 
3374.376 70315744 70385840 70478064 70582160 70688608 70789816 70881488 
3374.798 70960992 71025792 71072520 71096664 71094560 71065944 71016152 
3375.220 70956448 70901128 70864984 70857264 70878952 70921848 70971752 
3375.642 71012520 71030880 71021160 70985760 70934072 70877936 70828832 
3376.064 70793688 70773288 70762760 70753560 70736600 70704568 70655096 
3376.486 70591496 70522968 70461520 70419736 70406800 70425064 70469104 
3376.908 70526544 70582448 70622112 70636568 70624704 70592976 70552560 
3377.331 70515376 70490912 70483168 70491024 70509672 70533520 70557848 
3377.753 70580112 70599848 70617632 70634128 70649536 70663576 70675952 
3378.175 70686680 70696072 70704448 70711656 70716736 70718048 70713368 
3378.597 70700336 70676920 70641544 70593488 70533456 70464232 70390968 
3379.019 70320656 70261624 70220712 70201512 70202832 70218912 70240840 
3379.441 70259192 70267696 70264112 70250552 70231344 70210936 70191408 
3379.863 70172136 70150848 70125840 70097856 70070936 70050928 70043632 
3380.285 70052320 70076224 70110680 70148584 70183104 70208504 70221376 
3380.708 70220296 70205168 70177096 70138776 70095552 70055040 70026328 
3381.130 70017680 70032856 70069296 70117624 70165248 70199584 70213608 
3381.552 70208480 70193176 70180520 70181592 70201856 70238768 70283840 
3381.974 70326504 70360032 70383856 70403760 70427720 70461856 70505992 
3382.396 70553200 70591728 70610560 70604592 70576976 70538336 70502552 
3382.818 70482040 70482112 70499824 70525016 70545360 70549848 70532872 
3383.240 70495240 70443080 70385104 70329648 70283760 70251904 70236320 
3383.662 70237152 70252208 70276312 70300720 70314912 70307728 70270960 
3384.084 70202704 70108960 70003296 69902800 69825456 69783848 69782232 
3384.507 69815888 69873272 69939792 70001600 70050392 70083864 70105008 
3384.929 70118648 70127680 70129128 70113408 70064536 69965416 69804496 
3385.351 69581400 69311656 69026264 68769696 68586400 68513048 68567936 
3385.773 68744976 69014312 69329120 69641184 69907552 70103272 70223952 
3386.195 70281536 70295776 70283936 70254408 70203440 70118800 69986832 
3386.617 69801584 69570264 69315408 69068408 68865592 68737416 68700768 
3387.039 68757344 68893384 69085184 69302768 69518680 69711408 69867096 
3387.461 69981168 70056064 70099488 70120824 70129736 70134056 70138568 
3387.884 70145648 70155688 70168232 70182888 70199720 70219024 70240608 
3388.306 70263112 70283744 70298616 70304264 70298840 70283480 70262336 
3388.728 70242440 70231712 70236648 70261072 70304336 70361464 70423152 
3389.150 70478160 70514744 70522544 70495552 70433056 70340904 70230104 
3389.572 70116288 70016040 69942704 69904720 69902928 69931320 69978536 
3389.994 70032256 70082280 70122752 70153392 70178168 70203112 70233088 
3390.416 70270384 70313536 70358336 70398768 70429240 70446128 70448240 
3390.838 70436960 70415584 70388488 70359576 70331576 70305360 70279968 
3391.260 70253280 70223376 70190144 70156304 70127576 70110976 70113384 
3391.683 70138304 70184392 70245024 70310632 70371080 70418600 70450152 
3392.105 70466880 70472416 70469944 70460392 70441736 70410664 70364720 
3392.527 70304968 70236408 70167336 70105928 70057824 70024488 70003432 
3392.949 69990064 69979632 69969112 69956048 69936512 69903408 69844616 
3393.371 69745320 69592312 69377552 69102352 68777368 68420880 68052528 
3393.793 67690352 67349192 67040492 66777176 66576576 66459188 66447512 
3394.215 66557540 66791416 67132416 67546136 67988064 68410328 68777288 
3394.637 69070528 69290760 69452984 69578968 69688216 69790856 69887488 
3395.060 69971216 70033544 70068544 70076352 70062744 70037264 70009208 
3395.482 69985248 69968400 69958208 69952304 69947888 69943136 69937160 
3395.904 69929800 69920896 69909704 69894832 69874560 69847344 69812600 
3396.326 69771096 69725096 69677512 69631288 69588368 69548968 69511736 
3396.748 69474432 69435328 69394144 69352728 69314392 69283224 69262408 
3397.170 69253288 69255408 69267128 69286624 69312464 69343768 69379424 
3397.592 69417112 69453112 69481832 69496544 69490048 69453360 69375608 
3398.014 69244040 69044104 68765080 68405808 67982496 67530368 67104312 
3398.437 66770848 66587780 66594492 66795928 67161624 67629192 68122776 
3398.859 68574928 68935808 69186880 69336640 69411976 69443232 69455224 
3399.281 69462120 69467384 69469352 69466168 69458496 69449056 69439872 
3399.703 69430080 69415840 69393064 69361232 69326384 69300296 69297112 
3400.125 69327952 69394976 69489504 69593128 69684752 69744752 69761744 
3400.547 69734848 69672672 69589808 69501864 69423368 69363944 69328176 
3400.969 69316056 69323824 69345144 69372384 69398936 69419776 69432800 
3401.391 69438464 69438848 69435832 69429792 69419192 69401296 69373704 
3401.813 69335584 69288208 69234480 69177760 69120432 69063952 69009536 
3402.236 68959152 68916744 68887640 68876760 68886832 68916520 68960576 
3402.658 69010872 69059688 69101512 69133896 69156936 69171472 69177624 
3403.080 69174728 69162496 69143040 69121624 69106640 69106424 69125800 
3403.502 69163864 69213736 69265344 69309248 69341256 69363648 69383824 
3403.924 69409712 69445864 69490016 69533888 69565120 69572256 69548384 
3404.346 69491888 69405808 69295552 69167360 69027328 68882968 68744992 
3404.768 68626520 68542616 68506304 68523696 68592008 68699008 68827184 
3405.190 68956552 69071232 69162152 69226912 69268456 69292208 69303840 
3405.613 69307576 69306344 69302240 69296632 69290392 69283648 69275936 
3406.035 69266760 69256536 69247064 69241448 69242640 69251792 69266952 
3406.457 69283456 69295136 69296808 69286536 69265992 69239304 69210352 
3406.879 69180872 69149584 69113688 69071744 69026520 68985904 68961912 
3407.301 68965688 69003512 69073040 69163368 69256808 69333952 69380184 
3407.723 69387776 69358072 69299368 69224800 69148032 69080504 69030792 
3408.145 69003128 68998008 69012560 69041584 69078144 69114920 69145968 
3408.567 69167040 69176304 69173936 69161336 69140432 69113072 69081448 
3408.990 69047936 69015304 68986336 68962880 68945272 68932208 68921608 
3409.412 68911504 68901376 68892248 68886184 68884832 68888352 68895072 
3409.834 68902576 68909464 68916592 68927208 68945568 68974360 69012424 
3410.256 69053720 69088688 69108064 69105424 69080088 69036944 68984768 
3410.678 68932456 68886296 68849376 68821784 68802776 68792280 68791296 
3411.100 68800808 68820008 68845328 68870432 68888272 68894104 68887120 
3411.522 68871344 68853944 68843520 68846984 68868408 68909040 68967776 
3411.944 69041736 69126008 69213688 69294760 69357264 69390544 69387472 
3412.366 69348328 69281224 69201296 69125320 69066744 69032480 69021088 
3412.789 69024888 69033696 69039704 69039192 69032952 69024032 69015296 
3413.211 69007480 68999040 68987568 68971888 68953320 68935904 68924712 
3413.633 68924056 68935760 68958272 68986688 69013464 69030160 69027720 
3414.055 68998112 68936400 68842040 68720944 68585512 68454984 68350704 
3414.477 68292032 68292448 68354832 68470896 68621920 68784624 68933608 
3414.899 69047144 69111824 69122736 69084496 69008632 68911984 68811728 
3415.321 68722144 68653096 68608152 68586112 68583144 68595488 68620584 
3415.743 68656920 68702384 68751880 68796584 68825968 68830344 68806064 
3416.166 68757880 68699224 68647144 68616576 68614976 68639272 68677688 
3416.588 68715136 68740888 68752072 68754936 68760264 68778344 68812808 
3417.010 68858984 68905472 68939856 68953688 68945216 68919232 68883952 
3417.432 68847128 68812880 68781912 68753040 68725680 68701064 68681816 
3417.854 68670080 68665808 68666376 68667952 68667528 68665000 68663072 
3418.276 68665640 68674824 68689248 68703848 68712504 68710544 68697568 
3418.698 68677408 68656672 68641312 68634544 68636568 68646056 68662176 
3419.120 68685696 68717712 68756896 68796400 68824216 68824728 68784872 
3419.542 68700288 68578336 68437304 68300104 68189456 68119696 68095248 
3419.965 68112008 68161400 68233456 68317800 68403656 68476896 68520600 
3420.387 68519792 68465744 68362784 68228584 68091512 67978960 67907000 
3420.809 67874232 67862624 67845680 67799856 67715688 67598056 67459200 
3421.231 67304920 67123240 66881048 66536408 66054244 65432120 64712328 
3421.653 63986920 63371920 62981376 62898820 63147728 63689372 64431232 
3422.075 65262216 66069760 66770048 67321720 67718224 67978344 68128064 
3422.497 68189584 68172968 68079160 67907896 67666360 67376040 67074216 
3422.919 66803976 66607892 66514152 66527576 66628164 66776396 66927448 
3423.342 67040524 67094512 67091796 67056440 67022904 67025224 67086452 
3423.764 67211424 67388136 67592584 67798472 67980584 68119800 68204136 
3424.186 68226408 68185008 68084608 67938872 67770032 67607304 67482960 
3424.608 67421648 67435768 67520496 67656656 67814640 67963744 68081392 
3425.030 68154920 68183776 68175944 68144672 68103912 68066448 68043640 
3425.452 68043568 68070880 68125256 68201072 68287648 68372104 68443816 
3425.874 68496760 68531592 68554024 68571824 68590280 68609736 68625424 
3426.296 68630176 68617776 68586016 68537664 68479432 68419512 68364432 
3426.719 68318960 68285928 68267528 68266448 68285304 68325088 68383160 
3427.141 68452432 68522104 68579640 68615320 68624048 68606752 68568808 
3427.563 68518008 68461416 68403416 68346136 68290368 68237256 68189576 
3427.985 68151456 68127304 68120480 68131688 68158648 68196184 68237760 
3428.407 68275848 68303040 68313032 68300080 68259640 68188664 68085744 
3428.829 67952064 67792176 67615560 67436072 67272160 67145488 67075224 
3429.251 67075400 67149480 67288544 67470936 67666936 67847416 67987768 
3429.673 68075768 68112336 68109408 68083784 68051560 68024336 68006752 
3430.095 67998536 67997176 68000680 68008592 68021480 68039432 68060920 
3430.518 68082760 68101456 68114504 68121520 68123872 68123328 68120376 
3430.940 68113576 68100240 68078264 68047904 68012504 67977352 67947816 
3431.362 67926728 67913368 67904032 67894336 67881424 67864800 67845448 
3431.784 67823224 67794072 67749752 67679080 67572624 67428248 67254760 
3432.206 67072520 66907940 66789732 66739048 66764296 66859580 67007000 
3432.628 67181800 67357408 67513440 67636936 67723584 67776040 67801160 
3433.050 67806832 67799352 67783072 67760248 67732136 67700760 67669464 
3433.472 67642856 67625616 67620072 67624312 67631136 67630056 67609536 
3433.895 67561624 67485776 67390496 67292072 67209440 67160856 67157200 
3434.317 67199744 67280152 67383920 67494024 67594512 67674720 67729168 
3434.739 67757560 67763368 67752736 67733128 67711872 67696160 67691528 
3435.161 67701024 67724944 67760656 67803192 67845792 67881848 67905472 
3435.583 67912768 67902912 67878520 67845616 67812056 67786224 67773856 
3436.005 67775848 67787312 67798912 67800064 67782288 67743200 67687216 
3436.427 67624136 67564400 67515880 67480776 67456216 67437136 67420744 
3436.849 67409312 67410568 67433856 67484888 67561088 67650064 67731800 
3437.271 67783592 67788984 67741512 67647408 67522088 67386704 67261352 
3437.694 67159888 67089716 67051176 67039936 67048668 67069300 67093884 
3438.116 67115368 67129360 67134864 67134976 67135728 67144392 67166160 
3438.538 67201520 67245448 67288680 67321400 67336032 67330600 67308840 
3438.960 67278712 67248608 67224736 67209072 67199400 67190760 67177680 
3439.382 67156680 67127152 67092152 67057648 67032308 67025348 67044592 
3439.804 67094604 67174280 67276104 67386416 67489552 67570416 67618784 
3440.226 67632080 67614800 67576472 67527400 67476728 67430056 67389904 
3440.648 67357472 67333800 67320088 67316848 67322360 67331840 67337816 
3441.071 67333008 67312144 67274408 67223176 67164728 67105304 67049136 
3441.493 66998472 66954740 66920656 66901788 66905104 66936636 66997728 
3441.915 67082792 67178928 67269000 67337688 67374304 67376440 67348872 
3442.337 67301192 67243368 67182776 67123688 67067252 67013076 66960320 
3442.759 66908008 66854812 66799148 66739932 66677308 66612868 66547616 
3443.181 66478076 66391888 66266504 66069312 65769032 65347220 64811592 
3443.603 64201700 63589112 63065836 62715208 62598936 62735376 63097312 
3444.025 63617352 64209324 64793876 65309076 65726776 66048660 66297172 
3444.448 66500464 66682052 66854080 67016136 67159768 67274264 67352168 
3444.870 67390960 67393608 67366672 67319544 67262720 67207216 67164832 
3445.292 67145408 67155240 67194672 67257136 67329672 67396008 67442424 
3445.714 67460104 67447840 67409904 67351792 67274512 67171576 67029104 
3446.136 66832632 66575548 66268164 65939972 65638156 65417372 65320276 
3446.558 65368100 65549992 65828020 66144136 66440188 66675056 66830268 
3446.980 66913108 66947132 66961584 66977788 67005084 67041084 67077676 
3447.402 67106756 67124312 67129520 67119664 67083896 67000472 66833492 
3447.824 66539440 66074376 65398596 64489004 63345140 61998836 60515048 
3448.247 58999468 57594172 56448908 55714620 55503888 55862220 56756748 
3448.669 58075484 59655404 61300252 62837748 64143924 65154820 65870348 
3449.091 66333932 66610300 66757604 66820708 66825772 66785464 66710280 
3449.513 66614348 66516372 66438284 66397292 66401372 66447424 66523460 
3449.935 66612744 66698664 66770072 66821752 66854768 66874280 66887668 
3450.357 66902028 66922100 66949836 66983716 67019804 67052876 67078704 
3450.779 67095384 67103868 67107188 67109120 67112440 67117776 67123992 
3451.201 67129112 67131736 67131504 67128928 67124456 67117784 67107964 
3451.624 67094784 67080460 67070288 67072140 67093636 67138040 67201576 
3452.046 67272512 67335224 67373608 67378248 67349712 67299024 67243296 
3452.468 67199608 67179960 67186704 67213184 67246488 67273648 67284632 
3452.890 67275424 67247784 67207496 67161920 67117576 67080112 67053432 
3453.312 67040008 67040824 67054936 67079168 67108120 67135680 67155904 
3453.734 67164744 67161192 67147304 67127808 67108556 67096176 67096472 
3454.156 67113488 67149008 67201584 67266408 67335144 67398272 67446176 
3454.578 67471656 67471792 67448080 67405552 67350544 67289448 67227056 
3455.000 67166512 67110376 67061292 67022320 66996488 66985208 66987056 
3455.423 66997040 67007872 67011112 66999680 66970088 66922924 66862920 
3455.845 66797324 66735328 66685840 66656132 66651352 66672936 66718200 
3456.267 66779904 66848032 66910676 66956676 66978640 66973320 66942236 
3456.689 66890112 66823720 66750040 66675472 66606460 66549016 66508612 
3457.111 66489300 66491936 66513208 66545624 66580048 66607812 66624092 
3457.533 66629372 66628788 66629308 66636076 66650156 66667804 66682548 
3457.955 66687972 66681356 66664728 66644184 66626524 66616836 66616244 
3458.377 66622292 66630836 66639064 66647472 66659976 66681856 66716668 
3458.800 66763560 66816336 66864544 66896040 66901784 66878052 66828292 
3459.222 66761692 66691524 66631108 66589700 66571136 66572308 66584956 
3459.644 66597640 66600576 66588792 66564512 66536592 66518420 66523328 
3460.066 66558752 66623612 66707112 66792932 66862892 66904332 66914328 
3460.488 66900596 66878472 66865204 66874896 66912656 66973836 67045320 
3460.910 67111136 67155840 67168936 67147008 67092708 67012900 66915604 
3461.332 66808624 66697532 66585628 66474628 66365408 66259112 66158208 
3461.754 66066640 65990068 65934784 65905548 65903788 65925112 65959040 
3462.177 65988520 65993708 65957036 65866676 65722176 65535732 65332344 
3462.599 65142864 64999452 64928308 64941956 65038056 65199372 65400392 
3463.021 65611148 65805872 65968060 66089592 66169576 66208996 66205468 
3463.443 66150824 66031440 65832380 65545196 65173792 64739796 64279388 
3463.865 63842956 63484284 63248536 63168736 63256448 63501964 63875400 
3464.287 64335036 64833272 65322032 65763740 66131596 66412520 66606560 
3464.709 66723752 66780180 66792508 66776628 66744296 66702868 66656904 
3465.131 66608792 66560048 66511916 66465128 66419924 66375864 66332416 
3465.553 66289544 66248608 66212400 66185292 66172076 66176688 66201468 
3465.976 66246088 66307436 66379612 66455320 66526912 66587924 66635264 
3466.398 66669832 66696668 66722792 66755180 66797084 66846156 66893924 
3466.820 66928616 66939264 66919152 66868996 66796376 66713420 66631412 
3467.242 66558264 66496840 66446088 66403760 66368452 66339380 66312992 
3467.664 66278824 66217720 66101364 65901936 65602196 65206524 64745820 
3468.086 64276596 63871036 63593140 63488024 63566232 63803788 64148200 
3468.508 64536128 64913124 65240616 65505396 65714244 65885760 66038636 
3468.930 66185108 66328024 66462596 66580728 66675568 66744432 66788508 
3469.353 66811256 66816052 66805116 66779248 66739068 66686524 66625652 
3469.775 66562524 66504564 66458176 66427856 66414868 66417156 66429792 
3470.197 66446148 66459980 66466236 66462828 66451044 66435488 66422548 
3470.619 66418728 66428784 66453600 66489392 66527628 66557292 66566096 
3471.041 66543488 66483552 66385660 66255280 66102200 65939776 65781508 
3471.463 65639028 65521764 65435496 65383228 65365712 65381780 65428052 
3471.885 65498424 65584628 65675936 65761632 65833996 65889948 65932668 
3472.307 65970176 66012904 66068672 66139516 66219892 66298668 66362216 
3472.729 66399444 66406344 66387120 66353312 66319236 66299296 66303192 
3473.152 66334340 66390204 66463652 66545048 66623300 66688576 66732712 
3473.574 66750840 66742616 66712640 66669768 66624088 66584900 66557024 
3473.996 66539444 66525928 66508004 66478676 66435040 66379680 66319412 
3474.418 66262776 66216288 66183152 66162740 66152152 66147960 66147936 
3474.840 66151620 66159724 66173372 66193328 66219848 66252732 66291156 
3475.262 66332992 66374388 66409072 66428852 66426040 66394536 66331540 
3475.684 66236944 66110836 65950468 65748996 65496124 65184036 64814292 
3476.106 64405256 63992020 63624436 63357920 63235388 63280092 63486344 
3476.529 63823556 64241380 64684860 65108732 65480612 65786920 66028396 
3476.951 66214180 66355292 66461040 66537960 66589828 66619772 66631316 
3477.373 66628552 66616496 66600376 66584856 66573776 66568752 66568384 
3477.795 66567412 66557964 66531752 66483296 66413688 66332188 66255476 
3478.217 66201888 66187616 66220184 66296076 66401220 66515536 66619452 
3478.639 66696984 66740280 66749048 66728872 66688232 66636888 66584948 
3479.061 66541220 66513516 66506880 66522196 66555352 66597876 66639800 
3479.483 66671936 66689668 66693820 66689772 66684080 66681376 66681900 
3479.906 66681372 66672468 66647752 66602668 66536296 66451512 66353492 
3480.328 66249128 66145872 66051520 65974776 65923572 65903676 65916764 
3480.750 65958880 66020412 66087648 66147164 66187448 66201388 66186196 
3481.172 66140852 66063456 65949112 65788792 65571580 65287748 64932608 
3481.594 64510580 64038024 63545216 63071180 62663412 62369728 62226880 
3482.016 62257012 62459316 62811064 63269080 63781268 64297220 64773124 
3482.438 65181480 65508972 65753460 65919656 66015720 66051512 66036740 
3482.860 65980040 65883908 65739292 65519352 65181236 64676452 63963896 
3483.282 63034712 61927380 60738508 59601240 58669768 58083516 57924968 
3483.705 58209296 58876316 59816252 60886264 61951924 62914620 63713624 
3484.127 64333604 64789532 65114404 65343252 65507488 65631608 65731192 
3484.549 65816216 65891396 65956904 66009508 66044076 66055952 66042248 
3484.971 66003328 65942496 65865488 65779084 65691076 65610752 65547872 
3485.393 65512680 65513476 65553404 65628548 65727196 65833100 65927572 
3485.815 65995568 66028892 66026464 65993408 65938272 65871244 65801884 
3486.237 65739900 65695240 65676316 65688516 65730376 65792036 65854372 
3486.659 65893868 65890236 65831856 65722272 65579724 65434044 65315532 
3487.082 65247844 65240868 65288376 65370480 65459900 65531772 65567280 
3487.504 65559288 65512060 65439292 65359160 65289340 65244412 65231760 
3487.926 65251660 65297924 65360984 65429972 65495676 65552824 65600000 
3488.348 65639592 65676352 65716280 65764312 65821880 65883640 65934744 
3488.770 65948872 65887184 65707844 65372420 64859664 64177332 63369304 
3489.192 62514080 61705852 61046896 60618788 60465396 60589184 60951824 
3489.614 61488276 62118324 62770624 63388504 63935016 64394576 64765772 
3490.036 65056752 65279320 65446892 65571576 65662832 65728084 65772392 
3490.458 65799908 65816124 65828528 65846960 65881960 65940548 66023492 
3490.881 66123076 66225352 66312576 66369284 66387200 66365784 66311360 
3491.303 66232752 66138412 66033496 65921044 65804888 65691568 65591516 
3491.725 65516812 65475740 65469312 65488472 65517236 65536276 65531216 
3492.147 65497816 65443632 65385060 65341268 65328792 65355220 65418684 
3492.569 65509320 65614352 65720996 65819680 65905132 65974800 66027764 
3492.991 66063672 66082532 66085288 66074308 66053828 66028972 66004960 
3493.413 65986328 65975860 65975064 65984460 66004224 66034476 66075024 
3493.835 66124832 66181000 66238264 66289304 66324728 66335536 66314744 
3494.258 66259140 66170792 66057164 65930460 65804276 65692664 65607196 
3494.680 65555020 65539036 65557480 65604700 65671088 65744744 65812980 
3495.102 65863776 65889860 65890588 65873552 65852160 65842980 65859748 
3495.524 65907856 65982472 66069256 66149908 66205820 66224240 66199072 
3495.946 66128296 66010608 65842280 65617596 65333600 64996728 64629388 
3496.368 64267956 63961708 63759684 63695832 63782576 64004620 64325304 
3496.790 64692888 65057608 65380384 65636980 65820548 65936144 65995124 
3497.212 66007944 65980120 65908032 65778484 65568272 65250252 64803044 
3497.635 64221096 63526980 62775952 62058248 61475716 61125508 61074952 
3498.057 61338256 61872576 62584600 63362588 64092108 64689656 65117896 
3498.479 65381648 65517904 65575444 65601260 65625132 65659552 65704056 
3498.901 65752608 65799812 65844108 65887192 65931548 65977916 66024356 
3499.323 66066724 66100356 66121460 66127504 66117632 66092468 66054732 
3499.745 66009316 65963728 65927168 65907472 65909136 65930604 65964632 
3500.167 65999716 66024824 66033680 66026396 66008784 65988024 65967356 
3500.589 65941676 65896748 65812612 65672988 65472540 65224496 64958932 
3501.011 64720532 64555088 64495028 64552552 64713436 64943024 65193304 
3501.434 65420704 65594840 65703964 65754224 65762404 65746756 65718468 
3501.856 65680420 65628896 65559684 65473232 65377064 65283056 65202652 
3502.278 65139484 65085832 65022016 64923180 64765224 64533120 64227180 
3502.700 63865148 63481364 63118752 62826988 62650204 62617000 62734428 
3503.122 62980900 63308120 63644088 63914604 64056360 64033724 63849716 
3503.544 63544016 63182300 62831740 62549516 62363988 62271056 62236856 
3503.966 62208128 62124044 61919908 61541900 60952364 60140544 59133800 
3504.388 58008064 56890608 55933076 55301612 55131020 55486540 56348716 
3504.811 57607856 59093500 60593872 61918088 62924956 63539004 63761168 
3505.233 63654264 63326108 62894600 62477800 62168500 62016180 62025772 
3505.655 62155660 62335200 62479836 62525548 62449592 62281704 62094164 
3506.077 61980988 62027284 62274260 62709556 63268644 63864132 64405760 
3506.499 64832196 65123372 65294308 65380520 65417908 65432240 65432600 
3506.921 65418180 65386712 65341384 65292384 65253016 65232956 65235600 
3507.343 65257892 65294572 65341840 65399288 65467396 65542980 65616164 
3507.765 65671244 65691180 65666724 65601544 65514124 65430216 65376076 
3508.188 65367852 65406640 65480080 65568772 65655116 65727056 65780676 
3508.610 65816868 65837224 65841452 65827956 65796800 65752368 65704300 
3509.032 65664596 65641956 65638424 65647648 65658840 65661348 65650856 
3509.454 65630380 65606960 65583972 65554100 65495152 65376396 65166756 
3509.876 64849984 64436184 63967160 63509192 63130208 62882300 62772252 
3510.298 62750972 62709584 62510184 62021672 61159576 59930440 58446688 
3510.720 56921844 55605784 54749608 54528856 54994172 56064888 57550116 
3511.142 59215188 60819844 62193388 63254096 64000388 64484620 64776320 
3511.564 64934340 64990120 64957968 64849604 64686804 64508420 64360868 
3511.987 64281116 64287196 64370880 64505452 64655984 64794564 64904328 
3512.409 64976484 65004264 64976396 64878148 64700624 64451356 64162696 
3512.831 63885556 63681964 63601056 63662456 63850524 64120628 64416304 
3513.253 64685588 64899972 65054924 65164404 65247172 65317480 65378936 
3513.675 65426980 65454768 65459320 65443160 65412032 65370224 65317884 
3514.097 65252124 65171628 65081572 64996300 64934720 64914936 64945496 
3514.519 65021104 65123264 65227264 65312208 65366000 65389284 65391900 
3514.941 65387872 65388500 65399732 65422340 65453920 65491136 65530496 
3515.364 65568184 65598840 65616148 65615420 65595916 65563184 65527620 
3515.786 65501884 65494696 65507472 65533356 65560932 65579084 65582264 
3516.208 65572924 65560052 65554824 65565072 65593068 65634840 65682992 
3516.630 65728976 65765900 65788876 65794068 65778796 65742044 65686392 
3517.052 65618784 65550796 65495556 65462608 65455176 65468524 65493268 
3517.474 65519644 65543216 65566656 65597788 65643872 65706436 65778524 
3517.896 65847588 65900320 65928936 65934204 65922720 65900312 65864884 
3518.318 65802840 65692932 65516388 65267100 64960624 64633476 64337760 
3518.740 64121956 64020280 64042292 64172520 64376344 64611540 64842216 
3519.163 65041476 65196172 65304328 65371288 65406424 65420656 65425676 
3519.585 65430420 65438732 65445732 65437328 65390576 65279136 65082804 
3520.007 64793100 64420544 63993780 63559900 63173896 62888084 62746436 
3520.429 62771064 62958876 63278996 63681172 64102088 64479128 64768572 
3520.851 64949728 65030244 65037824 65011524 64986108 64982136 65004972 
3521.273 65047340 65097472 65145680 65188448 65226512 65260972 65290164 
3521.695 65309468 65314916 65307680 65296088 65292748 65307064 65338424 
3522.117 65372448 65385380 65352348 65261528 65120888 64959024 64812728 
3522.540 64715964 64685896 64718024 64790396 64874748 64949152 65001512 
3522.962 65029604 65033812 65010156 64949296 64841352 64684400 64489800 
3523.384 64280692 64080992 63899160 63717600 63491532 63166248 62693028 
3523.806 62054752 61273608 60408072 59529748 58701232 57963380 57329468 
3524.228 56800316 56383628 56106512 56019412 56181284 56632472 57376160 
3524.650 58363156 59501340 60661272 61709456 62528420 63022932 63139328 
3525.072 62866260 62243276 61358444 60353460 59408800 58698684 58372472 
3525.494 58504432 59074788 59969836 61015748 62030584 62856412 63409248 
3525.917 63681088 63728980 63641420 63514584 63429332 63434308 63549252 
3526.339 63761088 64026880 64269020 64386644 64278024 63860856 63113728 
3526.761 62095124 60952664 59881684 59089572 58740044 58898868 59525904 
3527.183 60484160 61595540 62671480 63570600 64223784 64626960 64826916 
3527.605 64890176 64880436 64832352 64744888 64579516 64275032 63760876 
3528.027 62983928 61935156 60667692 59301928 57997984 56938816 56270396 
3528.449 56064740 56305364 56895084 57690012 58536860 59326020 59999456 
3528.871 60548960 60992392 61347556 61614596 61778496 61824244 61758620 
3529.293 61619788 61477524 61408032 61469768 61685688 62035328 62463840 
3529.716 62896568 63261780 63490072 63516580 63283748 62739168 61856844 
3530.138 60658852 59240456 57768036 56453360 55525588 55152856 55407852 
3530.560 56242496 57510372 58998780 60487396 61813968 62882152 63673028 
3530.982 64219408 64578476 64803332 64930652 64985612 64986752 64954120 
3531.404 64910084 64869932 64833664 64779352 64670000 64462928 64130276 
3531.826 63674264 63134740 62583124 62102260 61772820 61644296 61724496 
3532.248 61975628 62327668 62693340 62990020 63166872 63211716 63155756 
3532.670 63057648 62990192 63013468 63156708 63414368 63750108 64113680 
3533.093 64455080 64743528 64970220 65144744 65283872 65401700 65502864 
3533.515 65583156 65635168 65655572 65648852 65626688 65602048 65582916 
3533.937 65569352 65554336 65528840 65487388 65431880 65371004 65316416 
3534.359 65276828 65255848 65251544 65259732 65277048 65302892 65338148 
3534.781 65381928 65428900 65469356 65491372 65486892 65455180 65404328 
3535.203 65347396 65298044 65264688 65248032 65242900 65242492 65243148 
3535.625 65245972 65255516 65275728 65306152 65340820 65369996 65384484 
3536.047 65380372 65360364 65332456 65305208 65284600 65271576 65263300 
3536.469 65255860 65247384 65238848 65232712 65230092 65228628 65221328 
3536.892 65197984 65144568 65041436 64862628 64570276 64117316 63459564 
3537.314 62566692 61444764 60146944 58783296 57498856 56447004 55765360 
3537.736 55532588 55760476 56391868 57326520 58438344 59604396 60730652 
3538.158 61747020 62612968 63311836 63844208 64226268 64486728 64665656 
3538.580 64803320 64932652 65071120 65216220 65349936 65448348 65495052 
3539.002 65487548 65439496 65372816 65310008 65263676 65233840 65211192 
3539.424 65184740 65148516 65104480 65060072 65023036 64995952 64974836 
3539.846 64951764 64920856 64883128 64847932 64829260 64838804 64881136 
3540.269 64950500 65033656 65114380 65180812 65227768 65256724 65272416 
3540.691 65279444 65280008 65274152 65261788 65244008 65222872 65199496 
3541.113 65171724 65133824 65078308 65000892 64904436 64801024 64708052 
3541.535 64643704 64619836 64637580 64688172 64757548 64833628 64909752 
3541.957 64986244 65066648 65152688 65240372 65319952 65379144 65409444 
3542.379 65409532 65386224 65350340 65312708 65279536 65251648 65227276 
3542.801 65205924 65190744 65188036 65203004 65235316 65276324 65311684 
3543.223 65326076 65309716 65262832 65194532 65117296 65038344 64954120 
3543.646 64848308 64697668 64477560 64172744 63782504 63322984 62823860 
3544.068 62325312 61875220 61519020 61297568 61237036 61339032 61573984 
3544.490 61880136 62178628 62383212 62430800 62299800 62017232 61649612 
3544.912 61280852 60988024 60810976 60746912 60755252 60782916 60784544 
3545.334 60745068 60683788 60647524 60689872 60849448 61138716 61536856 
3545.756 61994924 62438568 62783116 62933368 62787220 62255364 61268592 
3546.178 59805964 57913744 55724460 53448464 51331860 49639136 48577196 
3546.600 48256620 48676036 49727084 51227360 52959248 54737788 56424716 
3547.022 57945232 59280392 60439572 61437840 62280636 62963528 63482052 
3547.445 63843612 64073556 64204868 64258612 64218920 64020800 63549844 
3547.867 62667044 61264400 59302168 56853608 54099644 51327656 48864580 
3548.289 47001428 45964044 45849212 46625252 48143412 50189416 52516500 
3548.711 54881056 57094784 59019888 60582928 61771236 62617696 63183716 
3549.133 63533980 63723636 63779512 63700120 63466104 63061452 62495116 
3549.555 61818940 61121384 60518808 60126216 60019196 60221324 60693136 
3549.977 61351468 62084904 62790064 63394260 63858724 64181240 64382628 
3550.399 64494876 64547768 64566036 64568492 64568092 64575100 64596640 
3550.822 64636036 64692804 64762804 64839444 64913292 64972488 65001992 
3551.244 64982472 64894900 64724620 64468576 64140112 63771216 63408168 
3551.666 63097820 62881556 62782232 62800664 62917620 63101388 63317552 
3552.088 63533740 63727748 63887264 64008976 64096440 64157184 64199136 
3552.510 64226316 64235756 64214944 64144104 63997064 63747676 63373356 
3552.932 62852004 62160732 61271124 60148548 58765844 57121192 55266368 
3553.354 53315648 51459468 49937108 48973016 48745984 49321212 50634016 
3553.776 52492156 54632848 56786776 58720808 60301828 61491944 62332708 
3554.198 62903720 63292004 63564692 63757404 63883952 63942584 63922976 
3554.621 63805488 63561304 63156520 62562028 61775368 60838224 59849392 
3555.043 58943168 58272012 57964524 58082468 58609348 59450280 60469236 
3555.465 61511980 62454452 63224512 63798596 64193964 64446848 64596940 
3555.887 64673824 64698592 64687580 64654932 64615412 64581264 64558560 
3556.309 64546652 64540148 64534116 64528336 64528832 64544972 64584528 
3556.731 64648132 64727956 64810048 64881404 64934724 64971784 65001132 
3557.153 65033608 65075792 65126500 65176864 65214580 65229388 65216500 
3557.575 65178512 65123380 65061244 64999588 64940868 64880076 64805292 
3557.998 64696968 64531292 64286772 63949464 63523180 63033920 62533976 
3558.420 62090264 61771184 61632212 61695868 61947724 62338180 62802068 
3558.842 63270536 63690844 64037200 64306636 64512800 64673496 64803916 
3559.264 64911560 64998288 65064336 65111116 65141808 65159708 65165984 
3559.686 65159544 65138868 65104928 65062836 65020428 64983700 64952736 
3560.108 64919400 64870476 64793244 64683900 64551156 64415452 64299540 
3560.530 64221176 64185292 64183372 64197160 64204832 64185156 64110760 
3560.952 63941852 63621932 63075172 62231504 61054632 59576672 57912992 
3561.375 56263876 54884800 54005536 53792364 54287172 55401224 56930080 
3561.797 58615804 60223052 61567604 62563020 63208004 63559488 63692908 
3562.219 63677344 63564736 63388872 63181720 62982116 62832600 62775200 
3562.641 62834796 63009888 63271584 63573796 63869148 64117724 64296828 
3563.063 64395628 64405700 64314032 64099640 63740136 63225816 62572588 
3563.485 61831540 61080932 60422588 59953836 59744124 59823708 60171924 
3563.907 60724640 61384428 62052044 62640968 63094060 63392016 63542224 
3564.329 63562556 63460312 63217916 62791396 62128104 61189336 59984312 
3564.751 58586828 57144184 55838908 54857244 54344892 54360448 54870356 
3565.174 55757008 56866536 58033808 59128288 60074452 60839952 61424976 
3565.596 61840372 62095428 62195636 62151016 61987912 61750260 61498460 
3566.018 61295996 61188828 61199008 61318088 61514172 61735736 61919852 
3566.440 61995244 61871996 61451972 60638248 59354564 57582880 55387520 
3566.862 52931648 50440312 48180108 46389676 45212060 44678172 44695428 
3567.284 45091776 45647264 46162056 46484952 46509264 46173840 45440896 
3567.706 44293612 42752108 40906288 38947752 37149504 35862720 35424964 
3568.128 36059920 37825852 40570044 43974484 47605864 51061072 54039836 
3568.551 56383236 58075040 59172872 59732032 59746644 59136420 57784020 
3568.973 55609612 52632236 49010816 45017400 41011032 37330288 34238568 
3569.395 31906124 30399280 29725740 29870632 30818326 32543172 34979984 
3569.817 38003640 41401192 44902328 48240608 51184316 53608064 55501092 
3570.239 56949900 58086024 59038376 59895252 60684312 61389956 61979340 
3570.661 62432028 62752932 62971924 63126964 63251832 63363428 63463860 
3571.083 63549484 63619780 63679684 63732856 63769948 63757704 63637716 
3571.505 63345756 62829444 62079544 61144044 60135184 59205308 58506904 
3571.927 58168608 58250020 58733012 59523460 60485304 61466908 62334860 
3572.350 63009256 63463324 63722392 63841120 63886696 63914628 63956124 
3572.772 64019872 64096336 64169528 64225380 64258432 64271140 64270548 
3573.194 64263148 64252388 64238368 64219964 64197436 64173704 64153280 
3573.616 64140396 64136276 64138456 64141504 64139760 64129136 64107708 
3574.038 64074860 64029288 63967752 63886124 63781632 63656632 63519896 
3574.460 63387012 63275600 63199364 63164488 63166884 63195020 63234304 
3574.882 63274536 63313136 63355976 63412736 63491160 63589276 63692136 
3575.304 63769380 63780900 63687224 63456148 63076580 62564248 61966116 
3575.727 61350468 60797544 60384496 60161044 60141824 60299220 60575472 
3576.149 60893312 61181468 61395960 61525332 61592008 61637468 61708320 
3576.571 61836012 62030180 62278844 62558112 62842032 63112116 63361656 
3576.993 63591828 63805856 64003064 64176284 64314224 64406972 64450344 
3577.415 64448648 64412432 64353796 64279192 64185504 64058612 63878420 
3577.837 63623036 63276520 62834400 62305352 61710404 61077820 60442196 
3578.259 59837772 59296652 58851140 58530528 58362708 58372776 58576272 
3578.681 58974852 59548916 60258256 61039620 61817692 62522320 63094532 
3579.104 63503608 63749364 63858968 63874940 63842880 63802064 63775468 
3579.526 63772048 63790120 63823676 63866612 63914968 63966412 64018008 
3579.948 64064960 64100512 64115444 64098908 64037668 63914228 63709636 
3580.370 63406516 62997536 62494788 61938224 61396340 60948992 60675904 
3580.792 60624488 60789184 61099496 61431840 61639684 61582176 61179244 
3581.214 60434248 59448244 58389812 57470220 56888736 56771952 57157648 
3581.636 57979080 59096344 60320512 61474056 62430924 63126808 63566448 
3582.058 63799452 63894548 63907048 63869300 63789388 63662896 63489128 
3582.480 63283056 63074732 62904840 62808836 62805136 62891692 63048512 
3582.903 63247160 63458236 63660212 63838092 63980380 64076928 64116956 
3583.325 64092416 64002408 63855804 63669844 63463656 63253500 63046880 
3583.747 62843936 62643096 62447844 62270812 62132496 62051560 62036432 
3584.169 62076808 62145528 62202620 62208088 62133532 61963144 61693880 
3584.591 61328996 60874284 60338668 59741264 59122364 58542528 58082032 
3585.013 57825120 57831732 58124624 58675440 59415356 60245184 61065640 
3585.435 61801200 62404572 62863408 63189212 63406664 63541208 63614860 
3585.857 63644112 63638020 63598064 63515688 63373176 63145048 62807620 
3586.280 62350632 61787200 61158856 60530184 59982992 59591236 59408196 
3586.702 59453436 59707352 60114128 60592144 61057916 61433724 61666576 
3587.124 61733188 61628224 61345196 60850352 60054544 58817360 56968476 
3587.546 54353036 50912336 46738664 42116388 37462316 33293330 30092296 
3587.968 28172820 27641922 28366460 30052288 32317192 34833484 37394764 
3588.390 39923436 42441184 44990004 47558084 50048632 52283512 54060392 
3588.812 55236568 55769812 55748788 55356504 54836400 54409844 54227520 
3589.234 54352668 54749784 55299472 55805928 56036008 55718576 54582004 
3589.656 52423812 49149728 44849936 39811204 34543080 29681434 25862098 
3590.079 23650630 23369016 25054388 28444040 33067868 38324436 43600804 
3590.501 48427996 52488832 55660792 57981240 59592928 60677864 61399256 
3590.923 61889404 62227684 62453904 62585948 62631092 62596560 62493848 
3591.345 62338272 62150680 61956724 61782772 61654312 61586460 61576932 
3591.767 61601744 61620388 61589228 61476204 61279888 61035084 60809512 
3592.189 60678096 60704608 60917068 61298604 61791840 62318072 62805820 
3592.611 63202004 63486352 63665820 63763536 63804120 63805480 63777668 
3593.033 63725328 63653684 63571788 63490368 63418912 63359928 63306664 
3593.456 63242412 63144456 62989916 62759120 62442808 62045168 61585024 
3593.878 61088584 60578016 60051852 59469776 58741656 57740468 56349020 
3594.300 54501468 52246924 49766808 47386020 45490200 44428256 44437448 
3594.722 45548420 47583276 50188344 52965360 55542632 57668432 59253828 
3595.144 60335668 61024504 61430820 61633620 61663232 61524648 61231732 
3595.566 60827752 60386612 59998168 59732904 59628096 59680892 59858936 
3595.988 60109064 60360908 60525320 60469324 60022308 59006376 57270052 
3596.410 54769488 51615876 48111152 44682492 41822724 39986480 39449200 
3596.833 40273108 42277512 45113648 48308428 51384884 53963232 55772420 
3597.255 56705652 56804256 56241576 55271196 54189860 53298368 52823488 
3597.677 52902216 53551036 54677828 56104000 57617388 59035476 60224472 
3598.099 61129676 61765776 62194352 62489888 62715344 62910372 63085732 
3598.521 63233424 63337320 63384220 63366728 63281712 63123684 62875000 
3598.943 62500528 61951364 61170468 60117584 58790960 57249708 55612820 
3599.365 54051048 52758800 51892728 51547292 51721924 52330332 53219968 
3599.787 54222852 55206928 56090432 56857516 57536704 58173788 58800396 
3600.209 59419648 60003976 60509588 60888840 61103776 61134204 60974492 
3600.632 60632512 60126468 59487988 58761240 57999776 57266716 56620064 
3601.054 56106396 55758220 55590716 55607952 55806696 56178824 56708240 
3601.476 57366172 58110736 58880804 59602276 60195764 60570876 60637740 
3601.898 60310548 59513260 58207440 56414880 54247556 51899624 49647988 
3602.320 47801208 46612048 46243544 46709720 47886344 49536616 51392892 
3602.742 53228224 54885952 56310320 57517156 58556532 59470736 60276596 
3603.164 60964332 61515040 61917392 62177996 62316076 62353264 62301796 
3603.586 62164024 61942868 61654352 61333932 61031560 60786708 60607632 
3604.009 60454616 60252680 59913072 59378108 58655532 57833304 57061820 
3604.431 56504388 56302988 56522600 57140204 58051564 59113820 60179016 
3604.853 61126340 61889996 62450860 62828044 63058508 63185924 63248792 
3605.275 63275108 63285216 63289980 63292300 63288116 63268088 63219252 
3605.697 63126360 62975464 62754964 62459752 62095452 61683852 61264952 
3606.119 60889688 60615624 60487132 60521244 60700588 60977344 61288556 
3606.541 61573728 61798864 61961072 62084704 62202516 62339652 62499324 
3606.963 62663904 62804280 62896832 62934352 62925472 62884396 62816096 
3607.385 62706324 62524868 62237864 61825580 61294352 60672232 59987840 
3607.808 59240160 58373272 57271768 55793504 53802196 51237752 48156696 
3608.230 44760872 41359600 38325464 36037072 34770952 34677168 35744464 
3608.652 37822384 40644160 43885848 47241108 50427064 53238064 55553904 
3609.074 57324756 58567208 59344040 59752904 59900492 59896288 59838940 
3609.496 59796432 59805964 59867364 59951096 60006904 59980096 59822704 
3609.918 59486064 58912552 58016316 56660136 54675584 51887072 48172064 
3610.340 43538500 38184340 32528828 27128872 22651816 19705250 18686734 
3610.762 19731870 22656972 27029066 32227218 37632684 42721068 47126212 
3611.185 50696316 53442808 55490680 56998736 58124656 58988580 59664868 
3611.607 60202840 60634696 60985628 61279368 61533224 61756168 61948948 
3612.029 62107420 62227768 62310772 62362136 62390036 62399996 62391388 
3612.451 62357176 62288164 62179324 62034668 61868020 61697412 61536504 
3612.873 61383704 61217604 60998820 60685516 60244108 59660908 58939368 
3613.295 58081484 57059032 55794196 54144244 51937612 49033796 45391224 
3613.717 41137184 36592208 32262260 28694802 26398308 25700068 26650718 
3614.139 29022872 32369094 36180848 39963452 43382600 46300736 48740292 
3614.562 50819460 52666356 54363204 55918204 57287880 58416404 59277776 
3614.984 59891428 60316008 60616496 60839004 60983572 61002780 60806236 
3615.406 60286360 59340468 57885824 55890716 53394228 50534948 47540784 
3615.828 44735192 42486372 41104968 40796884 41574268 43251148 45458360 
3616.250 47755228 49749748 51168028 51940184 52179976 52135444 52074728 
3616.672 52222008 52695192 53492084 54520708 55645848 56745096 57725196 
3617.094 58541972 59191972 59699200 60101208 60438668 60748864 61053440 
3617.516 61352820 61621628 61817616 61893076 61817800 61596060 61272432 
3617.938 60920080 60613380 60409656 60326368 60342904 60410324 60471664 
3618.361 60466580 60322140 59945532 59201092 57918108 55940484 53169612 
3618.783 49641884 45554528 41285528 37309416 34087704 31999176 31218590 
3619.205 31708788 33243382 35508536 38170520 40952660 43687776 46287264 
3619.627 48716284 50954324 52966408 54703164 56117624 57181320 57899684 
3620.049 58307952 58458892 58397676 58147040 57693424 56985568 55929564 
3620.471 54395608 52244876 49343592 45620536 41115788 36036324 30758722 
3620.893 25789664 21729812 19099802 18258806 19315780 22105706 26224482 
3621.315 31120542 36260768 41170196 45530976 49197444 52148288 54447964 
3621.738 56192032 57481764 58396216 58988752 59282984 59267092 58895496 
3622.160 58102096 56836136 55100160 52995056 50722292 48590588 46940608 
3622.582 46057192 46118420 47126092 48915716 51186448 53607912 55878812 
3623.004 57789172 59257604 60303656 61012996 61481572 61789108 61975192 
3623.426 62044024 61981588 61775192 61428404 60969612 60448672 59932440 
3623.848 59496788 59206076 59105192 59203080 59467696 59825248 60177040 
3624.270 60430352 60516380 60419396 60179244 59883852 59634504 59515520 
3624.692 59568168 59775444 60069324 60351320 60531464 60545936 60379700 
3625.115 60065640 59677264 59306060 59036860 58937660 59039988 59337420 
3625.537 59786768 60322480 60867676 61350388 61724128 61970852 62103180 
3625.959 62151572 62151036 62122148 62061720 61942976 61728696 61389860 
3626.381 60922208 60356156 59754800 59203660 58782504 58554044 58547220 
3626.803 58752724 59124428 59585268 60040112 60370532 60453328 60176700 
3627.225 59452540 58251696 56622044 54705332 52708640 50885668 49484596 
3627.647 48675948 48533540 49010200 49968596 51209820 52539096 53814100 
3628.069 54952768 55939904 56797656 57555424 58224288 58791304 59228096 
3628.491 59511420 59636664 59623308 59502204 59299596 59016016 58619720 
3628.914 58046196 57215804 56049352 54470660 52416256 49828192 46655220 
3629.336 42871652 38504172 33673568 28603256 23648872 19251258 15842224 
3629.758 13808936 13375771 14564860 17186108 20887948 25220856 29687576 
3630.180 33857192 37361772 39915316 41330740 41487068 40341584 37935464 
3630.602 34415916 30043126 25170324 20260826 15801651 12255616 10030698 
3631.024 9385551 10419656 13049169 17035458 21998380 27475306 33022532 
3631.446 38222708 42766336 46478904 49298304 51263636 52473212 53061180 
3631.868 53163428 52918992 52478804 51992432 51618148 51501168 51738512 
3632.291 52367476 53348012 54580056 55918836 57220184 58372412 59302808 
3632.713 59985512 60424160 60636484 60642732 60467736 60149504 59742040 
3633.135 59321456 58971796 58760540 58727040 58867064 59140168 59482156 
3633.557 59832040 60148400 60414304 60634008 60819448 60977128 61101440 
3633.979 61175684 61179532 61098928 60930112 60682044 60373332 60032116 
3634.401 59691192 59382796 59129724 58925744 58715552 58374620 57728852 
3634.823 56571264 54725856 52126664 48870932 45249648 41686460 38703832 
3635.245 36766228 36167608 36978900 39022948 41937140 45250264 48541328 
3635.667 51491564 53936180 55860568 57344716 58503028 59426060 60167392 
3636.090 60741152 61145340 61385740 61486944 61488384 61432828 61347528 
3636.512 61239924 61102200 60925868 60716640 60503448 60331288 60252196 
3636.934 60303732 60494996 60803104 61180392 61570756 61921300 62199364 
3637.356 62393184 62508308 62558432 62557748 62515416 62434908 62317748 
3637.778 62167968 61994572 61813336 61643664 61504480 61412336 61376828 
3638.200 61400008 61475968 61592460 61731868 61873444 61998380 62090784 
3638.622 62140804 62144680 62100724 62003660 61838704 61575200 61170424 
3639.044 60578388 59763008 58719692 57489904 56171980 54901804 53844692 
3639.467 53158228 52948504 53255768 54034780 55171672 56496440 57831968 
3639.889 59030148 59987384 60667256 61089648 61315996 61420088 61473656 
3640.311 61530452 61618220 61744868 61902808 62077056 62248820 62399716 
3640.733 62513336 62574348 62571084 62496168 62347912 62131444 61859592 
3641.155 61553728 61240796 60954684 60731764 60603136 60591876 60704096 
3641.577 60926808 61227240 61561760 61886040 62163152 62374716 62520060 
3641.999 62611832 62665604 62692116 62691908 62657576 62580060 62457500 
3642.421 62299204 62124740 61954056 61796140 61639964 61454300 61195560 
3642.844 60822696 60318356 59700200 59026356 58379056 57854328 57532772 
3643.266 57455560 57615128 57950512 58362264 58722492 58912392 58845828 
3643.688 58489480 57877428 57109800 56338716 55721968 55402240 55462784 
3644.110 55906148 56653512 57565884 58488336 59274968 59836296 60149368 
3644.532 60253104 60223816 60149972 60108112 60142032 60266104 60469904 
3644.954 60731112 61022380 61317864 61595460 61834268 62017976 62137364 
3645.376 62193200 62197200 62169348 62132836 62105184 62095596 62103976 
3645.798 62125048 62152704 62183232 62214128 62238484 62239728 62190228 
3646.220 62051940 61789392 61381164 60831424 60174188 59472576 58809600 
3646.643 58264552 57904504 57765044 57842256 58091960 58438892 58797192 
3647.065 59081196 59231420 59220556 59047256 58719440 58230008 57536764 
3647.487 56568540 55243984 53521152 51442796 49170584 46969124 45128080 
3647.909 43898772 43373324 43438784 43768660 43931388 43503012 42191512 
3648.331 39946228 36957384 33599072 30272974 27330556 24969692 23229236 
3648.753 22055864 21391686 21247912 21730114 22990674 25148876 28205994 
3649.175 32003326 36228116 40475648 44382664 47672076 50216984 52029156 
3649.597 53208360 53878332 54134168 54033380 53596372 52828948 51735964 
3650.020 50317840 48554640 46388400 43732796 40493456 36623112 32172646 
3650.442 27336270 22451684 17936484 14267055 11853912 10971824 11729945 
3650.864 14042996 17657598 22180670 27183400 32227524 36931552 41037072 
3651.286 44388312 46933712 48683776 49660612 49856712 49223308 47688940 
3651.708 45219640 41884312 37922456 33726708 29824076 26780324 25022560 
3652.130 24763968 25897878 28030662 30519314 32654426 33857540 33776848 
3652.552 32420342 30130944 27533832 25325110 24142038 24418718 26273070 
3652.974 29522874 33739312 38408292 42999172 47105356 50506616 53144460 
3653.396 55096828 56506468 57534412 58305136 58899484 59361156 59706324 
3653.819 59940424 60065672 60083972 59999364 59822072 59573008 59291436 
3654.241 59031520 58851152 58801920 58908228 59160832 59517352 59919840 
3654.663 60309772 60645208 60911244 61114864 61275444 61410856 61531052 
3655.085 61635488 61718120 61773252 61799912 61801456 61782460 61744980 
3655.507 61687952 61609540 61511140 61400152 61289236 61190716 61112340 
3655.929 61052832 61003324 60951156 60886840 60807784 60717816 60622964 
3656.351 60526064 60423156 60304584 60158132 59973884 59747128 59475956 
3656.773 59156128 58775444 58306076 57702116 56899572 55806636 54312364 
3657.196 52290164 49607044 46168260 41953112 37070412 31770490 26472104 
3657.618 21712436 18021032 15876378 15562043 17110552 20295010 24689312 
3658.040 29771206 34990384 39917156 44262748 47890344 50796548 53058972 
3658.462 54792708 56107240 57103592 57863700 58450252 58916860 59302136 
3658.884 59629844 59912240 60152680 60352908 60518704 60660520 60791172 
3659.306 60919832 61047152 61164848 61259780 61321636 61347952 61346804 
3659.728 61333128 61324164 61331764 61360048 61406164 61464116 61528324 
3660.150 61595660 61664776 61733592 61797368 61849576 61883888 61897944 
3660.573 61894560 61880012 61858388 61825500 61763900 61645828 61438976 
3660.995 61117860 60677384 60140832 59562664 59015036 58581408 58332968 
3661.417 58309652 58513292 58903460 59409560 59941020 60416724 60779452 
3661.839 61006608 61112432 61138568 61138896 61158208 61225024 61344420 
3662.261 61503228 61677932 61845552 61990324 62103456 62181660 62222916 
3662.683 62224292 62183164 62100304 61983448 61846696 61709280 61589836 
3663.105 61500432 61445532 61422164 61424244 61445956 61484484 61538964 
3663.527 61607404 61684264 61759520 61820708 61858352 61869124 61858048 
3663.949 61835772 61815096 61805148 61808168 61819760 61831628 61835764 
3664.372 61826960 61804460 61770992 61731320 61690388 61653312 61625196 
3664.794 61610428 61612052 61629996 61660356 61695544 61727080 61749068 
3665.216 61760064 61763568 61765256 61769332 61775184 61777236 61767704 
3665.638 61741940 61701864 61657052 61620072 61601760 61604344 61619984 
3666.060 61632492 61624848 61586056 61515140 61421128 61318640 61223196 
3666.482 61145344 61091200 61063884 61065904 61100024 61166716 61260380 
3666.904 61365344 61457472 61510504 61502692 61427264 61295236 61134324 
3667.326 60978020 60858248 60796332 60798560 60858956 60963344 61095520 
3667.749 61238128 61374756 61490172 61569716 61603392 61588684 61532808 
3668.171 61450544 61360388 61278148 61210844 61156412 61106208 61051200 
3668.593 60985856 60910408 60828556 60743832 60656248 60562464 60458192 
3669.015 60341592 60213908 60076524 59925724 59747204 59513836 59190812 
3669.437 58734700 58095340 57213456 56002396 54348616 52122900 49200216 
3669.859 45523020 41154332 36335124 31459468 27059310 23709840 21862264 
3670.281 21784636 23463642 26628718 30788780 35372432 39867648 43865324 
3670.703 47148452 49663544 51471172 52679640 53398800 53715132 53684812 
3671.125 53356768 52785740 52031528 51155080 50192400 49135000 47916228 
3671.548 46419368 44501156 42014208 38860496 35020344 30586318 25759728 
3671.970 20859766 16292697 12465206 9771776 8504636 8801601 10637740 
3672.392 13823845 18055062 22933200 28064886 33098170 37746204 41833860 
3672.814 45276952 48075076 50285588 52003456 53335448 54374908 55201740 
3673.236 55870848 56415256 56857024 57211976 57496456 57730368 57933260 
3673.658 58122072 58308052 58495232 58682848 58867788 59046928 59216672 
3674.080 59371624 59503560 59600868 59652652 59653308 59606420 59525164 
3674.502 59429024 59337656 59262544 59204812 59155652 59102660 59034072 
3674.925 58941576 58816704 58639804 58370928 57946928 57280320 56285356 
3675.347 54901028 53118348 50996496 48664772 46301480 44074368 42106924 
3675.769 40421744 38926852 37418052 35638936 33366192 30473618 27011698 
3676.191 23219786 19519132 16389965 14295130 13569095 14318674 16411415 
3676.613 19490314 23085292 26650080 29686114 31820182 32794514 32504578 
3677.035 30977842 28367462 24924910 20995982 17014582 13419825 10648888 
3677.457 9065249 8884581 10169548 12808770 16560775 21071882 25958192 
3677.879 30866868 35486936 39610656 43127852 46015848 48318216 50111888 
3678.302 51472096 52440032 53017696 53177248 52894664 52188592 51153684 
3678.724 49960000 48849712 48066884 47802916 48155116 49095472 50486844 
3679.146 52118236 53780680 55294696 56549216 57508484 58189964 58642172 
3679.568 58918244 59067860 59127504 59121968 59068312 58975392 58846716 
3679.990 58683776 58489364 58268372 58020200 57724668 57319060 56685928 
3680.412 55670624 54098552 51849012 48917156 45469056 41835724 38470872 
3680.834 35883688 34475524 34476596 35873128 38429100 41728224 45283536 
3681.256 48672708 51564848 53789584 55321344 56239228 56677128 56781140 
3681.678 56693368 56525404 56365732 56280004 56305436 56455516 56719536 
3682.101 57071008 57474456 57897536 58318456 58724240 59108424 59464696 
3682.523 59782472 60048772 60252468 60390288 60470120 60510136 60533124 
3682.945 60557264 60592460 60637744 60685256 60725408 60752988 60769332 
3683.367 60780984 60795188 60815412 60838264 60853836 60847596 60804196 
3683.789 60712716 60568628 60376772 60150816 59914112 59695608 59524024 
3684.211 59424680 59410952 59481464 59619404 59798360 59988340 60163512 
3684.633 60309908 60424924 60515128 60589472 60654432 60710260 60752248 
3685.055 60774084 60772508 60749200 60708960 60654296 60579120 60463440 
3685.478 60276384 59979852 59540352 58943184 58201136 57360560 56493064 
3685.900 55693808 55058604 54665452 54566064 54770052 55245968 55923916 
3686.322 56716084 57526760 58269704 58887840 59352640 59667172 59856444 
3686.744 59958996 60013228 60047560 60078992 60111192 60139240 60154648 
3687.166 60150828 60125776 60082916 60029268 59972772 59918116 59862972 
3687.588 59795040 59691804 59525348 59265900 58893952 58408856 57836476 
3688.010 57226984 56648856 56177028 55868160 55750576 55812400 56006860 
3688.432 56258920 56485972 56620380 56614420 56449820 56131032 55674612 
3688.854 55095784 54398732 53569628 52576952 51368572 49872108 48009488 
3689.277 45693196 42845288 39420296 35423796 30936764 26117852 21219838 
3689.699 16547937 12427452 9185482 7075876 6268542 6826355 8699903 11733571 
3690.181 15681630 20259190 25138976 30006466 34603972 38726968 42261788 
3690.603 45179220 47519868 49368248 50827392 51999416 52960860 53765540 
3691.025 54443372 55003192 55437840 55725144 55832348 55717128 55339864 
3691.448 54675984 53726144 52523368 51131376 49641248 48149628 46754604 
3691.870 45545236 44585604 43911728 43511328 43311976 43157984 42820584 
3692.292 42039476 40554436 38207736 35008308 31187470 27166234 23509848 
3692.714 20826964 19584516 20047846 22195396 25752940 30239594 35101656 
3693.136 39854616 44113472 47670816 50470952 52560608 54033740 54991012 
3693.558 55524788 55712600 55639740 55410532 55137696 54941860 54921532 
3693.980 55128984 55564392 56174584 56873060 57554356 58127404 58529948 
3694.402 58736064 58758396 58639660 58441320 58222884 58035288 57908252 
3694.824 57847348 57838956 57859344 57886800 57908212 57923020 57937900 
3695.247 57957288 57974108 57965520 57896768 57737220 57474076 57127504 
3695.669 56749012 56416524 56209224 56180440 56344828 56670156 57091624 
3696.091 57528600 57917236 58224608 58453940 58634292 58803664 58989576 
3696.513 59197192 59410928 59604860 59758752 59866900 59941196 60001988 
3696.935 60066036 60132576 60178604 60160360 60029196 59741988 59273888 
3697.357 58625124 57820304 56905216 55937044 54987332 54133152 53448700 
3697.779 53004672 52849484 53000452 53436660 54102836 54917960 55790244 
3698.201 56643548 57422004 58097496 58665556 59134308 59515300 59817152 
3698.624 60045956 60206584 60304028 60341636 60315956 60212000 60002040 
3699.046 59655832 59152356 58498360 57736780 56952568 56258008 55761676 
3699.468 55553584 55673328 56102972 56768752 57564320 58374948 59097028 
3699.890 59666940 60061928 60298640 60416656 60463724 60476616 60469376 
3700.312 60434300 60349512 60194864 59964276 59673916 59357224 59053220 
3700.734 58784892 58547128 58303200 58002328 57600368 57089192 56509408 
3701.156 55951648 55530056 55341112 55439928 55814244 56393528 57066544 
3701.578 57725740 58292100 58728836 59040384 59253436 59396776 59485932 
3702.000 59523384 59505468 59432476 59312924 59157588 58966504 58713996 
3702.423 58343668 57771880 56894368 55613316 53843476 51523636 48628636 
3702.845 45177192 41252748 37010836 32713912 28713236 25397614 23174138 
3703.267 22350444 23072476 25281794 28721718 32977882 37546812 41979168 
3703.689 45912060 49134256 51596144 53369648 54601876 55451376 56064596 
3704.111 56538096 56916100 57201056 57367252 57380356 57216032 56877572 
3704.533 56405712 55881072 55403584 55081900 55000712 55196484 55650912 
3704.955 56294304 57030512 57754744 58388772 58891476 59258460 59511312 
3705.377 59681296 59795152 59866600 59900144 59897312 59862976 59807512 
3705.800 59741412 59666820 59569744 59419852 59178448 58810448 58303364 
3706.222 57677068 56987552 56310268 55728156 55307464 55077992 55030904 
3706.644 55122876 55296492 55494148 55680028 55846404 56010356 56201268 
3707.066 56446528 56759728 57134748 57548604 57968832 58365164 58711424 
3707.488 58986920 59173016 59245176 59173280 58927440 58486764 57855376 
3707.910 57072088 56217540 55397072 54729268 54321460 54237804 54490816 
3708.332 55032792 55773644 56591824 57368444 58015060 58480224 58760012 
3708.754 58886264 58912968 58892936 58866480 58854388 58857364 58862588 
3709.177 58849672 58796676 58678460 58468204 58141164 57678984 57082332 
3709.599 56378880 55630284 54918848 54331788 53939600 53768384 53791388 
3710.021 53926800 54060256 54048728 53740436 52992468 51657824 49608820 
3710.443 46760888 43105280 38755076 33971452 29186738 24910640 21678016 
3710.865 19935170 19906728 21564440 24612728 28595504 32955916 37194064 
3711.287 40970232 44109324 46611800 48585140 50180868 51520692 52671328 
3711.709 53639520 54390492 54872356 55039228 54867204 54356608 53535224 
3712.131 52455220 51200396 49877748 48606760 47515064 46705152 46240444 
3712.553 46131076 46330160 46737300 47209940 47595344 47730276 47464632 
3712.976 46680436 45284744 43224764 40489324 37113320 33181850 28837238 
3713.398 24300236 19846154 15813589 12578832 10470847 9745758 10508307 
3713.820 12681661 15999658 20058628 24420224 28656140 32468490 35719400 
3714.242 38419592 40685736 42675964 44531292 46325720 48067632 49714112 
3714.664 51207776 52500864 53576452 54448768 55155100 55740160 56243304 
3715.086 56694476 57108068 57484880 57814540 58081976 58274044 58387764 
3715.508 58433040 58428316 58384572 58286200 58072316 57639264 56869248 
3715.930 55664760 54010520 52007232 49890872 47971760 46583372 45994764 
3716.353 46319960 47499324 49305820 51432596 53542404 55370676 56776516 
3716.775 57734868 58316596 58634216 58803096 58900276 58963200 58999928 
3717.197 59006408 58982288 58937324 58887000 58846372 58822284 58811924 
3717.619 58805896 58794360 58771736 58737740 58695776 58649288 58599068 
3718.041 58542648 58475796 58395168 58300708 58196664 58091468 57995948 
3718.463 57923576 57888232 57902264 57975100 58108916 58296176 58517316 
3718.885 58744856 58947196 59096532 59178640 59195744 59166652 59117588 
3719.307 59074200 59048608 59033924 59003912 58922076 58752728 58466700 
3719.729 58045940 57474304 56723584 55747236 54476596 52839840 50799288 
3720.152 48388232 45746156 43108172 40804640 39174880 38485996 38880876 
3720.574 40319452 42591380 45349236 48223816 50877200 53073172 54715408 
3720.996 55817064 56465224 56762632 56802860 56649524 56346124 55942340 
3721.418 55504836 55119452 54881664 54862176 55089928 55538768 56139708 
3721.840 56796484 57415324 57932616 58316928 58570364 58713560 58772636 
3722.262 58766084 58701016 58574800 58378988 58102588 57733420 57260536 
3722.684 56675760 55979160 55183628 54318484 53423048 52529388 51642804 
3723.106 50718536 49657112 48306280 46512460 44171252 41289052 38018900 
3723.529 34673960 31690434 29499140 28464326 28756644 30304692 32794330 
3723.951 35752304 38686612 41165444 42958056 44052668 44631176 44969500 
3724.373 45350152 45975976 46914844 48118256 49461652 50815104 52076432 
3724.795 53200792 54189816 55065304 55842596 56517220 57065840 57460036 
3725.217 57677240 57705316 57540564 57181572 56630164 55900048 55034696 
3725.639 54117476 53257756 52573832 52136916 51930484 51823732 51600972 
3726.061 51018924 49886020 48160496 45990704 43716100 41756672 40542612 
3726.483 40367280 41296188 43148820 45542096 48014792 50104808 51502556 
3726.906 52096720 51977824 51380464 50612508 49974672 49670064 49792744 
3727.328 50309844 51088528 51906748 52492776 52572688 51880192 50233244 
3727.750 47581156 44053976 39966244 35798184 32138558 29512458 28311568 
3728.172 28678228 30481692 33348810 36774032 40280600 43478692 46166320 
3728.594 48311728 49990568 51302472 52307220 53002304 53347036 53315104 
3729.016 52950768 52381488 51810320 51452276 51454048 51858160 52578768 
3729.438 53443492 54236768 54786172 55006064 54913388 54610020 54246692 
3729.860 53979744 53919860 54122852 54579172 55229048 55975276 56710492 
3730.282 57344068 57810308 58086248 58187564 58158092 58045988 57884876 
3730.705 57679820 57407952 57031544 56521648 55879520 55147012 54400860 
3731.127 53727068 53205480 52881740 52761240 52814600 52994004 53249264 
3731.549 53537156 53829624 54107992 54358324 54568736 54726076 54816752 
3731.971 54827588 54743640 54549724 54234124 53795652 53253692 52653952 
3732.393 52070700 51585312 51268340 51152832 51216792 51379728 51515568 
3732.815 51488300 51159032 50409740 49147712 47287744 44758396 41511412 
3733.237 37548672 32958734 27949872 22873570 18156858 14279292 11678337 
3733.659 10637330 11261717 13439552 16890860 21196008 25903028 30610674 
3734.082 34986920 38833776 42071132 44713308 46831864 48519816 49860020 
3734.504 50901764 51666464 52159084 52388684 52392532 52243284 52037872 
3734.926 51885232 51865164 52003012 52251688 52499580 52587104 52338468 
3735.348 51616664 50342752 48525268 46255724 43702568 41070496 38545404 
3735.770 36268000 34283316 32538046 30897172 29208890 27367866 25380250 
3736.192 23385110 21640434 20448348 20029912 20454140 21572356 23066366 
3736.614 24506114 25515260 25896662 25693120 25180988 24777908 24929712 
3737.036 25935862 27891504 30657106 33935872 37341172 40509680 43187448 
3737.458 45215492 46523428 47077536 46831884 45717228 43659860 40626812 
3737.881 36682920 32036634 27067408 22253848 18156450 15308157 14084120 
3738.303 14668539 16986532 20741252 25442042 30538008 35528192 40008952 
3738.725 43764072 46740264 49009624 50700340 51948072 52856072 53478052 
3739.147 53833164 53914936 53701008 53150404 52205824 50805632 48906360 
3739.569 46526764 43783208 40919692 38260404 36175824 34997676 34914168 
3739.991 35939912 37895244 40474492 43287668 45972368 48269588 50032980 
3740.413 51248732 51998344 52425028 52679156 52895432 53172508 53555836 
3740.835 54044356 54595896 55148548 55634208 56002284 56231784 56329068 
3741.258 56317812 56221504 56051496 55802692 55462656 55027328 54513032 
3741.680 53959828 53420208 52935268 52520980 52159020 51808992 51423772 
3742.102 50971152 50438808 49821120 49099084 48223204 47112584 45692248 
3742.524 43937152 41928020 39859516 38040836 36822656 36483868 37176400 
3742.946 38853080 41291108 44127256 46979284 49533104 51585452 53080584 
3743.368 54070988 54670604 54992436 55127328 55132612 55041736 54887820 
3743.790 54711696 54557424 54464272 54449124 54501940 54589652 54672408 
3744.212 54716536 54701968 54622484 54476036 54255272 53944556 53520600 
3744.635 52959196 52239504 51336016 50208028 48789020 46975804 44653732 
3745.057 41728812 38172968 34063588 29602056 25099334 20885848 17267264 
3745.479 14429243 12390965 11010000 10032468 9189403 8255830 7134911 5864149 
3745.961 4591104 3498256 2744301 2414832 2505728 2951456 3674126 4638019 
3746.444 5876452 7491077 9608122 12337232 15709198 19652182 23983790 
3746.866 28460494 32819952 36824656 40321536 43237948 45577432 47388916 
3747.288 48739468 49688080 50274788 50533384 50504528 50250472 49869992 
3747.710 49482240 49209208 49154724 49370912 49852400 50536972 51332212 
3748.132 52131756 52841536 53394984 53740076 53831376 53619576 53045912 
3748.554 52064800 50672272 48941652 47031208 45180344 43675088 42758216 
3748.976 42589340 43186860 44429856 46078680 47846440 49484056 50807876 
3749.398 51744424 52311568 52584820 52648900 52567520 52370580 52056772 
3749.821 51609880 51011532 50246020 49290144 48100820 46611592 44728340 
3750.243 42354388 39419488 35903084 31856626 27404726 22744666 18102450 
3750.665 13723866 9851556 6685470 4395962 3107138 2888342 3759759 5683133 
3751.147 8565411 12246498 16517423 21133786 25816586 30310082 34394544 
3751.569 37912996 40799676 43069784 44805364 46112500 47095012 47816984 
3751.991 48292348 48498596 48405752 48011020 47365896 46575008 45778168 
3752.414 45118168 44687608 44510476 44531420 44643508 44711596 44614312 
3752.836 44272132 43639988 42698312 41428356 39790604 37725572 35169004 
3753.258 32079968 28475692 24454394 20206160 15974196 12048770 8717888 
3753.680 6213825 4717821 4330038 5072168 6894606 9685331 13281344 17462994 
3754.162 21991308 26612582 31078236 35195000 38825336 41907268 44449320 
3754.584 46509840 48166500 49482048 50489928 51185144 51540156 51529816 
3755.007 51162532 50501216 49674788 48848972 48209208 47918404 48070560 
3755.429 48680368 49673728 50916816 52233796 53458256 54469140 55200472 
3755.851 55653716 55880800 55965080 55987552 56012216 56074012 56177348 
3756.273 56306228 56435200 56541272 56606180 56618576 56572432 56465956 
3756.695 56304264 56102748 55891184 55707768 55591852 55570928 55647160 
3757.117 55793720 55959684 56089652 56133332 56057616 55841392 55452172 
3757.539 54826704 53861104 52412564 50352696 47620896 44289516 40584588 
3757.961 36892348 33702400 31465908 30538826 31066270 32957856 35902788 
3758.384 39458896 43172940 46632884 49575512 51889500 53591676 54779300 
3758.806 55580392 56113840 56458964 56664096 56753308 56740088 56640488 
3759.228 56476704 56274940 56064776 55872428 55718432 55617808 55577944 
3759.650 55599504 55675620 55791804 55922112 56025180 56045776 55907836 
3760.072 55524616 54818000 53733320 52271892 50506868 48598260 46760588 
3760.494 45228488 44206648 43791868 43938852 44434856 44954128 45087828 
3760.916 44455372 42817008 40124416 36573740 32563698 28668994 25481128 
3761.338 23502896 23068104 24248862 26867232 30529864 34762092 39063832 
3761.760 43023656 46395480 49079148 51112372 52608928 53715276 54556524 
3762.183 55218124 55751812 56181320 56520628 56784164 56987632 57147172 
3762.605 57275320 57379448 57465032 57538428 57607656 57681360 57763544 
3763.027 57850008 57927168 57977088 57983848 57939436 57846552 57715512 
3763.449 57557768 57378968 57177448 56947704 56688468 56411244 56143736 
3763.871 55924540 55796604 55790220 55913940 56150092 56460952 56797432 
3764.293 57111408 57370148 57557568 57675076 57734760 57752692 57741064 
3764.715 57704052 57637916 57534108 57385024 57189912 56959364 56716768 
3765.137 56496520 56333416 56256904 56281028 56400064 56588556 56807256 
3765.560 57014504 57170020 57245036 57224804 57108356 56908480 56650544 
3765.982 56372096 56114220 55917036 55808212 55792580 55848488 55930608 
3766.404 55984388 55951652 55781688 55427968 54827700 53892316 52501852 
3766.826 50514908 47825864 44417132 40425640 36146292 32040160 28650658 
3767.248 26452736 25792316 26764186 29205454 32718730 36794472 40932268 
3767.670 44705724 47866756 50328096 52132600 53391188 54237356 54791104 
3768.092 55139980 55356236 55500416 55623172 55767488 55956144 56188144 
3768.514 56441328 56684764 56892256 57052008 57169308 57259540 57337336 
3768.937 57407160 57461772 57487148 57472256 57415244 57325844 57220068 
3769.359 57114140 57016896 56929136 56846884 56767024 56690604 56621728 
3769.781 56562324 56506316 56437124 56333376 56175932 55959588 55697392 
3770.203 55419348 55159712 54942876 54773116 54630428 54475112 54254604 
3770.625 53915636 53397832 52625188 51503648 49906476 47695796 44764916 
3771.047 41079916 36738752 31989922 27254386 23033344 19834370 18084844 
3771.469 18001040 19562432 22499826 26392464 30722594 35006088 38902512 
3771.891 42216500 44918992 47091168 48869416 50377856 51696612 52858532 
3772.313 53859876 54686120 55331512 55806020 56130892 56327156 56405956 
3772.736 56369740 56220056 55969296 55651804 55321516 55041112 54870656 
3773.158 54846236 54974640 55233084 55581492 55972228 56362104 56721272 
3773.580 57029728 57276616 57457560 57573352 57631344 57645752 57637848 
3774.002 57629768 57639348 57675444 57735580 57808700 57880516 57940464 
3774.424 57983952 58012724 58031284 58043560 58050696 58052012 58048024 
3774.846 58042768 58043756 58059248 58092832 58139712 58185776 58213108 
3775.268 58205384 58155796 58070396 57967116 57869264 57796660 57761564 
3775.690 57764968 57799688 57854496 57919728 57988936 58057996 58123232 
3776.113 58178760 58216516 58229280 58213492 58172508 58116188 58059372 
3776.535 58016568 57997664 58006368 58039712 58090340 58148384 58204436 
3776.957 58249324 58274588 58273660 58242496 58182004 58098688 58004900 
3777.379 57915344 57842356 57793036 57766472 57755612 57750588 57744332 
3777.801 57735232 57727808 57729476 57747092 57783008 57834204 57893480 
3778.223 57952756 58006048 58049692 58081680 58099436 58098212 58072260 
3778.645 58016904 57931296 57819056 57686144 57535696 57363428 57155256 
3779.067 56891316 56555880 56147060 55686260 55217224 54802912 54504796 
3779.490 54368204 54410320 54614840 54937388 55316892 55695940 56025508 
3779.912 56273676 56425472 56476380 56427980 56282752 56038536 55681676 
3780.334 55177844 54457756 53421212 51939388 49878788 47153116 43762248 
3780.756 39840044 35646536 31576964 28082660 25567952 24349384 24557734 
3781.178 26129270 28816610 32269484 36096868 39926168 43487832 46605272 
3781.600 49199136 51266132 52849492 54017800 54845604 55415024 55803528 
3782.022 56077600 56292428 56480708 56654668 56811056 56940332 57035896 
3782.444 57100288 57144416 57183248 57228012 57280684 57333380 57371820 
3782.866 57381744 57352248 57278984 57162736 57007804 56820844 56612588 
3783.289 56400972 56210052 56069960 56009292 56044736 56175536 56380084 
3783.711 56623164 56862504 57064260 57211040 57302996 57353784 57381920 
3784.133 57402972 57423724 57443620 57458264 57464172 57460748 57449604 
3784.555 57431764 57405720 57367860 57315740 57251924 57185728 57131096 
3784.977 57101740 57103432 57130624 57166624 57190936 57183952 57131652 
3785.399 57023488 56841380 56549588 56091896 55391620 54378616 53017408 
3785.821 51338140 49449352 47537580 45843320 44588428 43944272 43976120 
3786.243 44629020 45736292 47065876 48391100 49521400 50359632 50904756 
3786.666 51235676 51468660 51719184 52070788 52551952 53142996 53789584 
3787.088 54429716 55005016 55474576 55817048 56023868 56096644 56045060 
3787.510 55890440 55666792 55421320 55211548 55088264 55086288 55212012 
3787.932 55441640 55725668 56003896 56226420 56361800 56407076 56382944 
3788.354 56325744 56272220 56249328 56270180 56332964 56426336 56535264 
3788.776 56647764 56756564 56860008 56960188 57060612 57163400 57267660 
3789.198 57368564 57458256 57528032 57570564 57583496 57570780 57542668 
3789.620 57511768 57489872 57483464 57491684 57507492 57521320 57526084 
3790.042 57519368 57503988 57484564 57463664 57438408 57400724 57340220 
3790.465 57250336 57132076 56995748 56856780 56731388 56629888 56553596 
3790.887 56496352 56449396 56407704 56373828 56358148 56374712 56436044 
3791.309 56546572 56700660 56883144 57075076 57256888 57413112 57534984 
3791.731 57619204 57667268 57683760 57675816 57651824 57620260 57588996 
3792.153 57563084 57544376 57531972 57523948 57519104 57518328 57523932 
3792.575 57538024 57560068 57586096 57609088 57622132 57621732 57609544 
3792.997 57591896 57576832 57570544 57574016 57582868 57589404 57586828 
3793.419 57571448 57543780 57506488 57461664 57408456 57343564 57263584 
3793.842 57168916 57065820 56966752 56885664 56834132 56817484 56833648 
3794.264 56875536 56934784 57005740 57085244 57170972 57258304 57337436 
3794.686 57395076 57418728 57401372 57346116 57265984 57180600 57107720 
3795.108 57058868 57035872 57032768 57040092 57050260 57060544 57071932 
3795.530 57086040 57101484 57112112 57108832 57083164 57030756 56953512 
3795.952 56858568 56755568 56652388 56554240 56463028 56378568 56299568 
3796.374 56223584 56146368 56061112 55960344 55839144 55698592 55546984 
3796.796 55397568 55262240 55143412 55029368 54894044 54705428 54428492 
3797.219 54029728 53473052 52701356 51628028 50137736 48095272 45400272 
3797.641 42036276 38129868 33955148 29936638 26584160 24349802 23574248 
3798.063 24374822 26628688 29988510 33978900 38118876 41974636 45271124 
3798.485 47893096 49858908 51267168 52240156 52876404 53221120 53275832 
3798.907 53018812 52438320 51561632 50472508 49303012 48230396 47429968 
3799.329 47040852 47141468 47723408 48696852 49906932 51186264 52378408 
3799.751 53375736 54136980 54673724 55030904 55255464 55379728 55410136 
3800.173 55336200 55146736 54847116 54467784 54063664 53695488 53418104 
3800.595 53264800 53240304 53324452 53479868 53664804 53835780 53956036 
3801.018 53998512 53946144 53796736 53563164 53271572 52949956 52616836 
3801.440 52266920 51867356 51360520 50684104 49799924 48713376 47486428 
3801.862 46221880 45046004 44058536 43299228 42725100 42215120 41587936 
3802.284 40632904 39171008 37071048 34281764 30839448 26871032 22584050 
3802.706 18235550 14142418 10626143 7976055 6435536 6142983 7121032 9269674 
3803.188 12396048 16232429 20475402 24850344 29106718 33051886 36563688 
3803.611 39572504 42062932 44056652 45595992 46719232 47441284 47741148 
3804.033 47568412 46864540 45604348 43836708 41720308 39526668 37579224 
3804.455 36225932 35734148 36223868 37645988 39792112 42357532 44994192 
3804.877 47420436 49450756 51013088 52134220 52899852 53413928 53760848 
3805.299 54003764 54181736 54319292 54438068 54556400 54686168 54828824 
3805.721 54974056 55104752 55204832 55268444 55302248 55322536 55345784 
3806.143 55381812 55428252 55472940 55498944 55493068 55450676 55375652 
3806.565 55276900 55163336 55041016 54912232 54777948 54640136 54502124 
3806.988 54366792 54232932 54093072 53932828 53735012 53485548 53176548 
3807.410 52808692 52387964 51919988 51402716 50820208 50136456 49297524 
3807.832 48225328 46819888 44975448 42582468 39559468 35884012 31623928 
3808.254 26958602 22171596 17656986 13831215 11084877 9726310 9899889 
3808.676 11577919 14555153 18514516 23051538 27757418 32299114 36417092 
3809.098 39968176 42912652 45287344 47175112 48673552 49877720 50857092 
3809.520 51659180 52313252 52836560 53245568 53560796 53806144 54009176 
3809.942 54194492 54378904 54570880 54769716 54968652 55157792 55327992 
3810.365 55472212 55586304 55669304 55723056 55752144 55763012 55763936 
3810.787 55763332 55767936 55782348 55808124 55844404 55888964 55939320 
3811.209 55993180 56048032 56100984 56148264 56185764 56210576 56221932 
3811.631 56222140 56215640 56207924 56203164 56202776 56205492 56208500 
3812.053 56209256 56206732 56201896 56196700 56192708 56189832 56186272 
3812.475 56179408 56167480 56150512 56130568 56110812 56094460 56083532 
3812.897 56078752 56079980 56086780 56098496 56113516 56128788 56139140 
3813.319 56138296 56121344 56086732 56038056 55983068 55931872 55892580 
3813.741 55868296 55856500 55850860 55844884 55835380 55824464 55818356 
3814.164 55824080 55845028 55878692 55916688 55948616 55965300 55963336 
3814.586 55945916 55921740 55900704 55890240 55892800 55905056 55918976 
3815.008 55923744 55908948 55865288 55786420 55670360 55520312 55345364 
3815.430 55158968 54978140 54818228 54689008 54592160 54520496 54460004 
3815.852 54393524 54306736 54189812 54038744 53853912 53637120 53389052 
3816.274 53108016 52789616 52427756 52015268 51542472 50996416 50357676 
3816.696 49595624 48669792 47525136 46092512 44299816 42071920 39348100 
3817.118 36100224 32348180 28176790 23735736 19254258 15004288 11276890 
3817.541 8366730 6505519 5851663 6464250 8295105 11191566 14913186 19183464 
3818.023 23690992 28147342 32326768 36062116 39271976 41946940 44131716 
3818.445 45898048 47324680 48483748 49427428 50195632 50819984 51326928 
3818.867 51743752 52095700 52402032 52676116 52923556 53144824 53337680 
3819.289 53498760 53622924 53701312 53721568 53668416 53527756 53292388 
3819.711 52964644 52557444 52090108 51587328 51075544 50583076 50146440 
3820.134 49808188 49614000 49605288 49801580 50190536 50721604 51320552 
3820.556 51900956 52389520 52745608 52957956 53034392 52978764 52770400 
3820.978 52358936 51679076 50676092 49344736 47751412 46043020 44405900 
3821.400 43037296 42084812 41594464 41490612 41573540 41569168 41149488 
3821.822 40024684 38008224 35059436 31322024 27117180 22926872 19267026 
3822.244 16633633 15393879 15690895 17431688 20292460 23818088 27455860 
3822.666 30684014 33090108 34368268 34369580 33087364 30659392 27347754 
3823.088 23543760 19753650 16494058 14270630 13465354 14247369 16557049 
3823.510 20108252 24481464 29172996 33737024 37852120 41330048 44128732 
3823.933 46302616 47959524 49209204 50148392 50847608 51347496 51669156 
3824.355 51817492 51789996 51588596 51233544 50772856 50290900 49890004 
3824.777 49670624 49706644 50016936 50561648 51250356 51977436 52639772 
3825.199 53163968 53514500 53680824 53665852 53474680 53115564 52609356 
3825.621 52002020 51375548 50830716 50472024 50377968 50573120 51023340 
3826.043 51643728 52332864 52991352 53552820 53992352 54316668 54548780 
3826.465 54708904 54803324 54821248 54741284 54542052 54215144 53772772 
3826.887 53253012 52712960 52227624 51872972 51705900 51753812 51999448 
3827.310 52384612 52816704 53199268 53451740 53520084 53379240 53009496 
3827.732 52368632 51380124 49929920 47906176 45260380 42064480 38549780 
3828.154 35079096 32126346 30135344 29422774 30107518 32069376 34982800 
3828.576 38386480 41835208 44949996 47499304 49415908 50752856 51631240 
3828.998 52173964 52479200 52597556 52546592 52337156 51994128 51570028 
3829.420 51145588 50806256 50629204 50660872 50904624 51321460 51840024 
3829.842 52380424 52865836 53247096 53510432 53675784 53785100 53885708 
3830.264 54015236 54187184 54390888 54597500 54775608 54901008 54966432 
3830.687 54980988 54964692 54938364 54915568 54900964 54891400 54881112 
3831.109 54865936 54845584 54822416 54799112 54776712 54754792 54733216 
3831.531 54713556 54699088 54692100 54690636 54685960 54664296 54611576 
3831.953 54518352 54384488 54218072 54030508 53828388 53608380 53355176 
3832.375 53045988 52650972 52133060 51443644 50504068 49203776 47411160 
3832.797 44989844 41859856 38047296 33738496 29266662 25100992 21771864 
3833.219 19720346 19246566 20412140 23041678 26746836 31031734 35418300 
3833.641 39488292 42983412 45801068 47964180 49573048 50757188 51639800 
3834.063 52308036 52821512 53216316 53513800 53731516 53884932 53987416 
3834.486 54051456 54087544 54105088 54113680 54121448 54133784 54151308 
3834.908 54169132 54177500 54164648 54121304 54042784 53930804 53791876 
3835.330 53634828 53466288 53287444 53092472 52869280 52601124 52266064 
3835.752 51837584 51276104 50518364 49477748 48034544 46054732 43430344 
3836.174 40114112 36176940 31828220 27444188 23496594 20474902 18815592 
3836.596 18762254 20328684 23276272 27197802 31574456 35898816 39800064 
3837.018 43048584 45585076 47471856 48839668 49825076 50535148 51046228 
3837.440 51403188 51638788 51785456 51873196 51927324 51961052 51973944 
3837.863 51957236 51902200 51806836 51675908 51515228 51323644 51087316 
3838.285 50781992 50379500 49854056 49188104 48365736 47360912 46129588 
3838.707 44599496 42678636 40281128 37343844 33859180 29887032 25567862 
3839.129 21104072 16741927 12769378 9460284 7067891 5798285 5766642 6989913 
3839.611 9367707 12706165 16721166 21092980 25527176 29759546 33607336 
3840.033 36969232 39808684 42142392 44018956 45506404 46673688 47588604 
3840.456 48309112 48873828 49305072 49609260 49784632 49828968 49742176 
3840.878 49520840 49144284 48564748 47706060 46476496 44812764 42718996 
3841.300 40309396 37798988 35497932 33740316 32786858 32787888 33727688 
3841.722 35445644 37661620 40058708 42335988 44219028 45497424 45999672 
3842.144 45590356 44196520 41834920 38663244 34980536 31250108 28015466 
3842.566 25772790 24913300 25591774 27708656 30923298 34767772 38742256 
3842.988 42404572 45480760 47854496 49555660 50699544 51439988 51918556 
3843.410 52236244 52464760 52648068 52814740 52986404 53174172 53375980 
3843.833 53574648 53744224 53858024 53899688 53870228 53786568 53673352 
3844.255 53549384 53419276 53267484 53062100 52756316 52296604 51622828 
3844.677 50659476 49322616 47521404 45178596 42269596 38859448 35139596 
3845.099 31407530 28071434 25562048 24227678 24287406 25747610 28410036 
3845.521 31892676 35747284 39537316 42907352 45661836 47743568 49210164 
3845.943 50173396 50761204 51080656 51205896 51198264 51115212 51018756 
3846.365 50979132 51054532 51277336 51643892 52116356 52633724 53129956 
3846.787 53556876 53888656 54124936 54281880 54383064 54449576 54495388 
3847.209 54528952 54554084 54571956 54581004 54575968 54547500 54483832 
3847.632 54376212 54223636 54037508 53839956 53662044 53534444 53478232 
3848.054 53501148 53594640 53738036 53902880 54062696 54197372 54295612 
3848.476 54355892 54383524 54387804 54378244 54363720 54351172 54345340 
3848.898 54349504 54365000 54390968 54423784 54457324 54484056 54496544 
3849.320 54490528 54466316 54429264 54387436 54348988 54318280 54293976 
3849.742 54269764 54237576 54191912 54131904 54060956 53982648 53895388 
3850.164 53789276 53646984 53449720 53187672 52866052 52506360 52135376 
3850.586 51772500 51412028 51018616 50530100 49883428 49044112 48031936 
3851.009 46930604 45877820 45040904 44558748 44516144 44915444 45683320 
3851.431 46687644 47777480 48827324 49745820 50492576 51066700 51490344 
3851.853 51791840 51996132 52123348 52188240 52203728 52180432 52123336 
3852.275 52029628 51888180 51684280 51403976 51040244 50593700 50067640 
3852.697 49458976 48748712 47891804 46820388 45444904 43661464 41377220 
3853.119 38519332 35061840 31044968 26599758 21955584 17413198 13352196 
3853.541 10150473 8122313 7484407 8290413 10430850 13641202 17579722 
3853.963 21860346 26116456 30073232 33535030 36403508 38661152 40344092 
3854.385 41517156 42246700 42586692 42558716 42148676 41309432 39981800 
3854.808 38115492 35698052 32771966 29443686 25870836 22222106 18666566 
3855.230 15335248 12308525 9628933 7308105 5344261 3731697 2463455 1528876 
3855.712 913236 605834 612768 973065 1758334 3070468 5008319 7627403 
3856.195 10910285 14747325 18953000 23280290 27490814 31387680 34838676 
3856.617 37794548 40267288 42309076 43982472 45351400 46472184 47391920 
3857.039 48157424 48810512 49383548 49897688 50358552 50761272 51098240 
3857.461 51367776 51577684 51742848 51876028 51980664 52046204 52053332 
3857.883 51980856 51816184 51557688 51207104 50755100 50167208 49373952 
3858.305 48288164 46827764 44954036 42706260 40223512 37741476 35534412 
3858.727 33893476 33047916 33113030 34078616 35808084 38081096 40620856 
3859.149 43172132 45529536 47554308 49189940 50440136 51350860 51983016 
3859.572 52402584 52668604 52828008 52922844 52987264 53046900 53119120 
3859.994 53209224 53311864 53413876 53501128 53563036 53595880 53602444 
3860.416 53588904 53560876 53520880 53469496 53408152 53342004 53281880 
3860.838 53241292 53231944 53259572 53320884 53405048 53497508 53586372 
3861.260 53664516 53730176 53784148 53826404 53854428 53864700 53855628 
3861.682 53830636 53797864 53767508 53745932 53732144 53717452 53690564 
3862.104 53643128 53574844 53492824 53406836 53321084 53229180 53112844 
3862.526 52946776 52703892 52350348 51839336 51096360 50003472 48421236 
3862.948 46213364 43306652 39752656 35776284 31780502 28251582 25714180 
3863.371 24569814 24992624 26895048 29944534 33663460 37510880 41052720 
3863.793 44008156 46273500 47897596 49019188 49802924 50379276 50839276 
3864.215 51226372 51549564 51797096 51943728 51957216 51803188 51461496 
3864.637 50940576 50291876 49602688 48986556 48554656 48378132 48476208 
3865.059 48807244 49288284 49807220 50251032 50521288 50527584 50198428 
3865.481 49483456 48366160 46883808 45143752 43328056 41648084 40317440 
3865.903 39480280 39155944 39213312 39380756 39316760 38651796 37111092 
3866.325 34581608 31157000 27131986 22969298 19240992 16471827 15091143 
3866.748 15329614 17175458 20383542 24528914 29127782 33678828 37790180 
3867.170 41222152 43874300 45774716 47029012 47784252 48183632 48364988 
3867.592 48455348 48557928 48758176 49105528 49604000 50211992 50855772 
3868.014 51457284 51953068 52318568 52567052 52737776 52871388 52994284 
3868.436 53110792 53209520 53276916 53310652 53322860 53334924 53363948 
3868.858 53412472 53466476 53503584 53505848 53469016 53404468 53331472 
3869.280 53265308 53207360 53144892 53058892 52937004 52780232 52602960 
3869.702 52422372 52248312 52074932 51883504 51648760 51348248 50959140 
3870.125 50441720 49725872 48693672 47188736 45069980 42258860 38814560 
3870.547 34954460 31071634 27648866 25137498 23885560 24009480 25374172 
3870.969 27598006 30168870 32516604 34112336 34594252 33773356 31669764 
3871.391 28485856 24597880 20493968 16687148 13703287 11956860 11697470 
3871.813 12982751 15664566 19424088 23819084 28409100 32787764 36652220 
3872.235 39844044 42320548 44136276 45392440 46207120 46675944 46859180 
3872.657 46791116 46492160 45994072 45364228 44705600 44156576 43865944 
3873.079 43945880 44451280 45352224 46545784 47870368 49156456 50272456 
3873.501 51140728 51754552 52158392 52423464 52612184 52763796 52889256 
3873.924 52980128 53023672 53015860 52965592 52891956 52815224 52748660 
3874.346 52696644 52655492 52618000 52575348 52516588 52422324 52255540 
3874.768 51961712 51465680 50683344 49547332 48023240 46136788 43978376 
3875.190 41708580 39520968 37593428 36050088 34904540 34049884 33270816 
3875.612 32326998 31020870 29291152 27258080 25230792 23638862 22891474 
3876.034 23304204 24975122 27769782 31342270 35251616 39071032 42457288 
3876.456 45235744 47377044 48960772 50106808 50935540 51536828 51964860 
3876.878 52260332 52461472 52607684 52737836 52875212 53021388 53158504 
3877.301 53262220 53315488 53318432 53287264 53245712 53212048 53190400 
3877.723 53172180 53144516 53101572 53050604 53010212 53000496 53033708 
3878.145 53106440 53201928 53297296 53375844 53431872 53470660 53500872 
3878.567 53526820 53543200 53538148 53499688 53425320 53325540 53222472 
3878.989 53140040 53094812 53090876 53120132 53168468 53223152 53278328 
3879.411 53333608 53389452 53442368 53482808 53499252 53485308 53445252 
3879.833 53394888 53355252 53344372 53366904 53411724 53455344 53473764 
3880.255 53450504 53382996 53280324 53156484 53021556 52877000 52717624 
3880.677 52537656 52336648 52120136 51892524 51644520 51337692 50902268 
3881.100 50234648 49209352 47711424 45646588 42970004 39701040 35938200 
3881.522 31862946 27725458 23860402 20626728 18365878 17362054 17751942 
3881.944 19492630 22330444 25859758 29550750 32860292 35374192 36845564 
3882.366 37274140 36879048 36064144 35292024 34970752 35389460 36632712 
3882.788 38593024 41004828 43551084 45922116 47894412 49376024 50387440 
3883.210 51031536 51432720 51705828 51920824 52104252 52258564 52381368 
3883.632 52479500 52570128 52669140 52780084 52887940 52967204 52993532 
3884.054 52958508 52871780 52749916 52593308 52367592 51992592 51364800 
3884.477 50393864 49044952 47376128 45548568 43810708 42420784 41608124 
3884.899 41503156 42104692 43282680 44811764 46440572 47921688 49082340 
3885.321 49844864 50224424 50310052 50231432 50125600 50091640 50181328 
3885.743 50391540 50680404 50986544 51255512 51457380 51585856 51650972 
3886.165 51662960 51620696 51508812 51304308 50985132 50536116 49938884 
3886.587 49150796 48091696 46628396 44597912 41865344 38372548 34203684 
3887.009 29591604 24918630 20613062 17058008 14527974 13114647 12750903 
3887.431 13259975 14452721 16178836 18367024 21010732 24114060 27632758 
3887.854 31443548 35328664 39030612 42315532 45013732 47070604 48535160 
3888.276 49532804 50205760 50683016 51052664 51355352 51604780 51804136 
3888.698 51959816 52086280 52200676 52315244 52433844 52551988 52662280 
3889.120 52759676 52844620 52921656 52995572 53067488 53133852 53188480 
3889.542 53226752 53248228 53257556 53261620 53266632 53274652 53283548 
3889.964 53288916 53287488 53279176 53267180 53255468 53246040 53236780 
3890.386 53222336 53196212 53154708 53099136 53035776 52972888 52916700 
3890.808 52868864 52825664 52780480 52727644 52666440 52602192 52544708 
3891.230 52503104 52481852 52477204 52478312 52469800 52438184 52376460 
3891.653 52285220 52170640 52039408 51893080 51724492 51516476 51242356 
3892.075 50869924 50355420 49638424 48640680 47253048 45350956 42823496 
3892.497 39603520 35722440 31341800 26785686 22481102 18917818 16563064 
3892.919 15723329 16502310 18749056 22113774 26087270 30135832 33832340 
3893.341 36887528 39215292 40896060 42124816 43118764 44058684 45050780 
3893.763 46109568 47181288 48174480 49002904 49601804 49946704 50053224 
3894.185 49971780 49775776 49546704 49369732 49311952 49413672 49680668 
3894.607 50083092 50562200 51044752 51468468 51790884 51999876 52107352 
3895.030 52135224 52096048 51980344 51753044 51367092 50784712 49999844 
3895.452 49054208 48040252 47091316 46341424 45907564 45857052 46192924 
3895.874 46856896 47744848 48738880 49719172 50594724 51311912 51850900 
3896.296 52221956 52453476 52582828 52644340 52667532 52674524 52678796 
3896.718 52688728 52708332 52738644 52778880 52826680 52878572 52929972 
3897.140 52976268 53013664 53040036 53055724 53063196 53066192 53067776 
3897.562 53069248 53069428 53065480 53054212 53034072 53006088 52973824 
3897.984 52941776 52913576 52891036 52873920 52861136 52852016 52846940 
3898.406 52846456 52849072 52849668 52838200 52801932 52729796 52615612 
3898.829 52461352 52275768 52070500 51852704 51619840 51356800 51040708 
3899.251 50646668 50158268 49576572 48924840 48248016 47602340 47052132 
3899.673 46653332 46443148 46435876 46617380 46947604 47361604 47783608 
3900.095 48127872 48301784 48215528 47768876 46853196 45364048 43204136 
3900.517 40319940 36733616 32581730 28123072 23722182 19837614 16904930 
3900.939 15285082 15191929 16637093 19434028 23227608 27598568 32093222 
3901.361 36324368 40030664 43064696 45405316 47120164 48334912 49185284 
3901.783 49793048 50251848 50612904 50897288 51106668 51238052 51295276 
3902.206 51293472 51253900 51197776 51135648 51063772 50964080 50809020 
3902.628 50562300 50169764 49555248 48605312 47169596 45100072 42282964 
3903.050 38708192 34508168 29991622 25599274 21800606 19036736 17576074 
3903.472 17470160 18552086 20512728 22987404 25648076 28297038 30857238 
3903.894 33347948 35818968 38294524 40736560 43054304 45125956 46849996 
3904.316 48176264 49113680 49719192 50072284 50252816 50317036 50299596 
3904.738 50216660 50072740 49866080 49587532 49217536 48717740 48028812 
3905.160 47072052 45743160 43931328 41534896 38487308 34799728 30597164 
3905.583 26151262 21838930 18136566 15523565 14356625 14825709 16877558 
3906.005 20244200 24472428 29054978 33531256 37533396 40862140 43456544 
3906.427 45358152 46655064 47447048 47823972 47860756 47641656 47267872 
3906.849 46851292 46511320 46335388 46350788 46503652 46663160 46644804 
3907.271 46249624 45340844 43885252 41996180 39911676 37978076 36562516 
3907.693 35946440 36283404 37538764 39515992 41891328 44323496 46528112 
3908.115 48320184 49648252 50560848 51164416 51564180 51841716 52040252 
3908.537 52174224 52251032 52284228 52295688 52310492 52343980 52396320 
3908.959 52454580 52502956 52532300 52545460 52553696 52568916 52594752 
3909.382 52624260 52643972 52643496 52623128 52595348 52578288 52585288 
3909.804 52617688 52663380 52703676 52723464 52720584 52706440 52699500 
3910.226 52712832 52746504 52785252 52807376 52794352 52742616 52664996 
3910.648 52585680 52526840 52498740 52495740 52501344 52497520 52474856 
3911.070 52437068 52397884 52372788 52369860 52386948 52413624 52438716 
3911.492 52455732 52466044 52475628 52489656 52507472 52522344 52525512 
3911.914 52512864 52488616 52464900 52454900 52467128 52499724 52542240 
3912.336 52580280 52603932 52611876 52610604 52608624 52610280 52612408 
3912.759 52606992 52587152 52554212 52519108 52499348 52509576 52553016 
3913.181 52618572 52685388 52733764 52753660 52750660 52741556 52745224 
3913.603 52770144 52809424 52842488 52846812 52807436 52725596 52616836 
3914.025 52504348 52407096 52332176 52274956 52224836 52173828 52121760 
3914.447 52076100 52046708 52039060 52050580 52072436 52095596 52117176 
3914.869 52142000 52178868 52232672 52298288 52359552 52395916 52390672 
3915.291 52340960 52259132 52168376 52090572 52038856 52013472 52006160 
3915.713 52007848 52016376 52037388 52079552 52145780 52228208 52308860 
3916.135 52369464 52401748 52413804 52426300 52461948 52531052 52623240 
3916.558 52709416 52755176 52739616 52664276 52553548 52439452 52346840 
3916.980 52278700 52218204 52140360 52030516 51891920 51739076 51576224 
3917.402 51373124 51051904 50509552 49645448 48419420 46886400 45213556 
3917.824 43642320 42421764 41761016 41754352 42370736 43460068 44806376 
3918.246 46152388 47231044 47808288 47669164 46654760 44702148 41883728 
3918.668 38444408 34779716 31428514 28926408 27697576 27966700 29682760 
3919.090 32542024 36053608 39709664 43053220 45787452 47812100 49180860 
3919.512 50046152 50577220 50924476 51179708 51383408 51547164 51672512 
3919.935 51765828 51841516 51914956 51996188 52084524 52170232 52238892 
3920.357 52278620 52284792 52260280 52212652 52149312 52074236 51986596 
3920.779 51882864 51759936 51616584 51449152 51240080 50947336 50487876 
3921.201 49739768 48571784 46868988 44596220 41837868 38833036 35938312 
3921.623 33565560 32114474 31836384 32788282 34800472 37542404 40578688 
3922.045 43486260 45969120 47869676 49188380 50028760 50545168 50875384 
3922.467 51109980 51294780 51440552 51548052 51623708 51681828 51739316 
3922.889 51806044 51880340 51951748 52009152 52048516 52075084 52099820 
3923.312 52132004 52174120 52220564 52262316 52293476 52316240 52340532 
3923.734 52378748 52437524 52513152 52590872 52651636 52677912 52661724 
3924.156 52606164 52522728 52424404 52319304 52206520 52075268 51906172 
3924.578 51673800 51353264 50922492 50369844 49700608 48943744 48153348 
3925.000 47399744 46765488 46321340 46110820 46141272 46380448 46764064 
3925.422 47205952 47622344 47936860 48092684 48061996 47847088 47486316 
3925.844 47048696 46634568 46349352 46273288 46433320 46773376 47150336 
3926.266 47344704 47132064 46330672 44873204 42844020 40488780 38171960 
3926.688 36271792 35134784 34965872 35791040 37458100 39687596 42147856 
3927.111 44511076 46548624 48142128 49285904 50053620 50558864 50911388 
3927.533 51183668 51412636 51603376 51747800 51840516 51887492 51904568 
3927.955 51911748 51923512 51945616 51975964 52009648 52043596 52078896 
3928.377 52118692 52164124 52210668 52248724 52266404 52256288 52219672 
3928.799 52167312 52114536 52074656 52052892 52043480 52031728 51999248 
3929.221 51931756 51821628 51669768 51483552 51275732 51062860 50864600 
3929.643 50705780 50611464 50601884 50685956 50854964 51082072 51327044 
3930.065 51550956 51723412 51830612 51873140 51855196 51771088 51597080 
3930.488 51288672 50795744 50083116 49151408 48051396 46885496 45798960 
3930.910 44938032 44431544 44356788 44719960 45455772 46440352 47528468 
3931.332 48568848 49446436 50098356 50509860 50703492 50713716 50565184 
3931.754 50259248 49780428 49117616 48290168 47370296 46484160 45777656 
3932.176 45393052 45414132 45841688 46590904 47521804 48482828 49343248 
3932.598 50032104 50533252 50871124 51083988 51208068 51268908 51282352 
3933.020 51260460 51206336 51102928 50895664 50492404 49783340 48671564 
3933.442 47128216 45220920 43122052 41050844 39225728 37789708 36767308 
3933.865 36079164 35595532 35220312 34945132 34873872 35177192 36029872 
3934.287 37510992 39557916 41956092 44416372 46640372 48406920 49632924 
3934.709 50360632 50722504 50868680 50931396 50986184 51054420 51123976 
3935.131 51168332 51158668 51062912 50847884 50481308 49946708 49262224 
3935.553 48495908 47763764 47195100 46909376 46968792 47360236 47997756 
3935.975 48754664 49505612 50151520 50647288 50992764 51215452 51346516 
3936.397 51408952 51414860 51372104 51295208 51208892 51141616 51118392 
3936.819 51148476 51223040 51318968 51410960 51481308 51524444 51545692 
3937.241 51554404 51557256 51555028 51545144 51526864 51505044 51490584 
3937.664 51495304 51525188 51576468 51636060 51687428 51717056 51721116 
3938.086 51705340 51681052 51657556 51638008 51617984 51589888 51548020 
3938.508 51493584 51434512 51382912 51348756 51335892 51341468 51358720 
3938.930 51380972 51404556 51429040 51454092 51475468 51483428 51462456 
3939.352 51395796 51271420 51085204 50843676 50562376 50265304 49979792 
3939.774 49734596 49558684 49474764 49496756 49624156 49840360 50112112 
3940.196 50395788 50650028 50840868 50952296 50986964 50962968 50905656 
3940.618 50840024 50787336 50761172 50769596 50816472 50901648 51020112 
3941.041 51160676 51307712 51442336 51548344 51617256 51649620 51653796 
3941.463 51640584 51618204 51587720 51543544 51476924 51382180 51260704 
3941.885 51122700 50983368 50859748 50765088 50705856 50682736 50692200 
3942.307 50729312 50788532 50864348 50950368 51038696 51121536 51192252 
3942.729 51246940 51285116 51308480 51319184 51318256 51305436 51280184 
3943.151 51243076 51196748 51145020 51091072 51035048 50972160 50890636 
3943.573 50768272 50571756 50248660 49725128 48917136 47735060 46115964 
3943.995 44054428 41632436 39028724 36498152 34355404 32884076 32289072 
3944.417 32649880 33899980 35843948 38200580 40690424 43059508 45133376 
3944.840 46830540 48139144 49098048 49766900 50213336 50497232 50670012 
3945.262 50776072 50845028 50890132 50903772 50861200 50727612 50474168 
3945.684 50093904 49611352 49083300 48584728 48199464 47993308 48000824 
3946.106 48219148 48610100 49109332 49638712 50129452 50528008 50807332 
3946.528 50968792 51037172 51051192 51049444 51064004 51110516 51188268 
3946.950 51283744 51378532 51455684 51503976 51520036 51506380 51469244 
3947.372 51415968 51355248 51296796 51250412 51225772 51229104 51261192 
3947.794 51316636 51385760 51457752 51523424 51577512 51616940 51637620 
3948.217 51631808 51585508 51479336 51292480 51002440 50587688 50028800 
3948.639 49308276 48418600 47372340 46218744 45047244 43989648 43205408 
3949.061 42831704 42954744 43565360 44552912 45708696 46779416 47543492 
3949.483 47848768 47670812 47108640 46365112 45672868 45239932 45203160 
3949.905 45591984 46339324 47305732 48335392 49280116 50038852 50572120 
3950.327 50892520 51050600 51108836 51126336 51138820 51156548 51169348 
3950.749 51158248 51105760 51001884 50841856 50614656 50289916 49815772 
3951.171 49120044 48137608 46843544 45283464 43586876 41951436 40620684 
3951.594 39803524 39632568 40123104 41172064 42580388 44106988 45546456 
3952.016 46750336 47661344 48300284 48738360 49058600 49326352 49581280 
3952.438 49834040 50079420 50307856 50513348 50693964 50848960 50976036 
3952.860 51070980 51130944 51158180 51162104 51156936 51155880 51166676 
3953.282 51187660 51209468 51219260 51207568 51171384 51114736 51045132 
3953.704 50970244 50894924 50821276 50751192 50688316 50637384 50600856 
3954.126 50573136 50536896 50461828 50314316 50067288 49713548 49273552 
3954.548 48797472 48356704 48021616 47851796 47876596 48090340 48454852 
3954.970 48912148 49400708 49863752 50264116 50584132 50822920 50990440 
3955.393 51101192 51169408 51205644 51218348 51214860 51202584 51190372 
3955.815 51187004 51199040 51229352 51275472 51330128 51382328 51420844 
3956.237 51435744 51419720 51368888 51281828 51159412 51005028 50826196 
3956.659 50635752 50451088 50294468 50187016 50143808 50169920 50257848 
3957.081 50389100 50538224 50681796 50801832 50889800 50946216 50977224 
3957.503 50990516 50991936 50985388 50973092 50956828 50937768 50914236 
3957.925 50878472 50813680 50697056 50503592 50215988 49834816 49385236 
3958.347 48917404 48493824 48182488 48035000 48073792 48287748 48635248 
3958.770 49056352 49484424 49867732 50174980 50399184 50552556 50657244 
3959.192 50733600 50790680 50823944 50817572 50753316 50618548 50415700 
3959.614 50164584 49901932 49669828 49507328 49440932 49476856 49602156 
3960.036 49788872 50005160 50220060 50411424 50568204 50687432 50771724 
3960.458 50825472 50853368 50859288 50846620 50818060 50774408 50713520 
3960.880 50629880 50516992 50370416 50192952 49996780 49804908 49645692 
3961.302 49544732 49519568 49572404 49690556 49849220 50021208 50182556 
3961.724 50318076 50423664 50503532 50566420 50620824 50673076 50725648 
3962.146 50777568 50825220 50863604 50887628 50893408 50880472 50852408 
3962.569 50816592 50780220 50745744 50704724 50636732 50509048 50285740 
3962.991 49940236 49463560 48872204 48204800 47517360 46865636 46295980 
3963.413 45840944 45517060 45333424 45298508 45422444 45714964 46175904 
3963.835 46787104 47504592 48263840 48994332 49629076 50126428 50475364 
3964.257 50693708 50815868 50879892 50915200 50934748 50938940 50922088 
3964.679 50880928 50819192 50747328 50677152 50617076 50567536 50521992 
3965.101 50470596 50406500 50329552 50247412 50171972 50115756 50087320 
3965.523 50088988 50117836 50167700 50231800 50302896 50373352 50434248 
3965.946 50474392 50483112 50453024 50383652 50283280 50168608 50061356 
3966.368 49980788 49940648 49944760 49987644 50057052 50139080 50222932 
3966.790 50302404 50376992 50449740 50524804 50604616 50688624 50772728 
3967.212 50850572 50914296 50956384 50971628 50957884 50917204 50855484 
3967.634 50782264 50708236 50642932 50593292 50561436 50545144 50538736 
3968.056 50535876 50531248 50522396 50510088 50497408 50488128 50484704 
3968.478 50487352 50493528 50498896 50498296 50487780 50465780 50433960 
3968.900 50396832 50361196 50334404 50321980 50326400 50345848 50374916 
3969.323 50405604 50430156 50443540 50444380 50435104 50420040 50403328 
3969.745 50386612 50368940 50348016 50322792 50295172 50269912 50251112 
3970.167 50237252 50215956 50163780 50047396 49835868 49512868 49088176 
3970.589 48601756 48120356 47726360 47490212 47457716 47633920 47984132 
3971.011 48440880 48924484 49367556 49722696 49974336 50133080 50226532 
3971.433 50285036 50332740 50383784 50441376 50502068 50559364 50606944 
3971.855 50638792 50649696 50636020 50596748 50535632 50461660 50389032 
3972.277 50332740 50304428 50309200 50343760 50398108 50458848 50514588 
3972.699 50557528 50584596 50596036 50593272 50577284 50548188 50505600 
3973.122 50448736 50375628 50281416 50157980 49994780 49782688 49520420 
3973.544 49219624 48907536 48620056 48396532 48265652 48235696 48292080 
3973.966 48402012 48527380 48634836 48709132 48754548 48790568 48840024 
3974.388 48920080 49035000 49176604 49329180 49477808 49614860 49740372 
3974.810 49858920 49973084 50077900 50159288 50197144 50170396 50066248 
3975.232 49884500 49640540 49361264 49082864 48843772 48675588 48601516 
3975.654 48630000 48753972 48951052 49188884 49432476 49649068 49817968 
3976.076 49931868 49995572 50020028 50016008 49988404 49935052 49850444 
3976.499 49732712 49589424 49441320 49317988 49248748 49254832 49338980 
3976.921 49483980 49654956 49811992 49917816 49947300 49892744 49761392 
3977.343 49571188 49343004 49098296 48855224 48628588 48432868 48281664 
3977.765 48187620 48161344 48207932 48325456 48503768 48726892 48974088 
3978.187 49223628 49457556 49661932 49829356 49958616 50053396 50120444 
3978.609 50167556 50202808 50232860 50263108 50297772 50339368 50388684 
3979.031 50444104 50501708 50555216 50597464 50622584 50627192 50611848 
3979.453 50580568 50539800 50495864 50453524 50415336 50381932 50353284 
3979.875 50329752 50312256 50301652 50297380 50296852 50295440 50288288 
3980.298 50272488 50248656 50221128 50196344 50180348 50175592 50179652 
3980.720 50185372 50183724 50165900 50126084 50062756 49978312 49878264 
3981.142 49769720 49661828 49564676 49488760 49444524 49439016 49474248 
3981.564 49545436 49642204 49750320 49855464 49947576 50021120 50075016 
3981.986 50109964 50125736 50119940 50089260 50032180 49952380 49860096 
3982.408 49771772 49704444 49671820 49679536 49723528 49791540 49867420 
3982.830 49937172 49990940 50025088 50040504 50039612 50023432 49990244 
3983.252 49935564 49854316 49742824 49600964 49433136 49249088 49063412 
3983.675 48892876 48756352 48670720 48647180 48689416 48791180 48937480 
3984.097 49105980 49273824 49421568 49536852 49617048 49667512 49698804 
3984.519 49721692 49744860 49772252 49803056 49832856 49855548 49865484 
3984.941 49858368 49832868 49790840 49737752 49681396 49631000 49595252 
3985.363 49579348 49584056 49604892 49633972 49661520 49679528 49684228 
3985.785 49676780 49662892 49650652 49648504 49662096 49693020 49738140 
3986.207 49790516 49840128 49875948 49889000 49873360 49828576 49759904 
3986.629 49678408 49598360 49534152 49498288 49497560 49532300 49596168 
3987.052 49678276 49764596 49840388 49893724 49915956 49904032 49860816 
3987.474 49795268 49720616 49651160 49600360 49576416 49581040 49609552 
3987.896 49653572 49703808 49753192 49798764 49840436 49878736 49912116 
3988.318 49935228 49939960 49918836 49868436 49792860 49703824 49619056 
3988.740 49555716 49526372 49535144 49577164 49640936 49712616 49781200 
3989.162 49839676 49885836 49920112 49943104 49954068 49951128 49933080 
3989.584 49901480 49861924 49823684 49796236 49786520 49795564 49817956 
3990.006 49842824 49857804 49853968 49828144 49784500 49732308 49683232 
3990.428 49646116 49624360 49614816 49609452 49597972 49571408 49525556 
3990.851 49461900 49387608 49312972 49250016 49208824 49195160 49209332 
3991.273 49245404 49292416 49335600 49361148 49358836 49325016 49263500 
3991.695 49183856 49097312 49011060 48925168 48831428 48717740 48573524 
3992.117 48398176 48205032 48022660 47886100 47827968 47868424 48006868 
3992.539 48222152 48477936 48736868 48967324 49152924 49293240 49398740 
3992.961 49482864 49554668 49616076 49662620 49687968 49688832 49668004 
3993.383 49634048 49598336 49569840 49553040 49546504 49545092 49542176 
3993.805 49532608 49513980 49486020 49450012 49407892 49362672 49318576 
3994.228 49281556 49258604 49255184 49273504 49310512 49358816 49408268 
3994.650 49449872 49479184 49497148 49509104 49521516 49538736 49560156 
3995.072 49580124 49589632 49580468 49548000 49493712 49424896 49353800 
3995.494 49294424 49258536 49254252 49283244 49340788 49415960 49494532 
3995.916 49561416 49602216 49606296 49565684 49474192 49326720 49118640 
3996.338 48848444 48521528 48155832 47784012 47449328 47203244 47089504 
3996.760 47133336 47333816 47662572 48069460 48492976 48879968 49190984 
3997.182 49407812 49532052 49578748 49569044 49523112 49459668 49393632 
3997.604 49336556 49296984 49277932 49275864 49280400 49278296 49257640 
3998.027 49213796 49152280 49088320 49041492 49027404 49053100 49113304 
3998.449 49193340 49273292 49336268 49372612 49381304 49368516 49344336 
3998.871 49319840 49304032 49304320 49325748 49370204 49435328 49513164 
3999.293 49591088 49652824 49684196 49677500 49634500 49566120 49489264 
3999.715 49421716 49375388 49354628 49355916 49371452 49392020 49410364 
4000.137 49422288 49425312 49417988 49399484 49370448 49334288 49297728 
4000.559 49269816 49258040 49265448 49287864 49315432 49335188 49337000 
4000.981 49318224 49284964 49249924 49226752 49225464 49247616 49286396 
4001.404 49328752 49361396 49374240 49363264 49330748 49283628 
##END=
