##TITLE=2 min N2 Gas Flow after R134a
##JCAMP-DX=5.01  $$ Nicolet v. 1
##DATATYPE=INFRARED SPECTRUM
##ORIGIN=Thermo Fisher Scientific Corporation
##OWNER=Nicolet
##LONGDATE=2026/03/03
##TIME=19:10:17
##SPECTROMETER/DATA SYSTEM=Nicolet iS20
##DATA PROCESSING=
Ratio against background
%Transmittance->Absorbance
Truncated
ElementMultiply or ElementDivide
##COMMENTS=
Number of sample scans: 4
Collection length: 21.22 sec
Sample gain: 4.0
Background collected on: Tue Mar 03 18:40:12 2026 (GMT-07:00);;
Number of background scans: 4
Background gain: 4.0
Sample spacing:  1.000
Number of scan points: 50541
Resolution points: 65536
Number of FFT points: 524288
Apodization: N-B strong;
Phase correction: Mertz;
Laser frequency: 15798.00 cm-1
Number of rejected sample scans: 0
Number of rejected background scans: 0
Bench serial number: BEP2311074;;
##RESOLUTION= 0.500
##XUNITS=1/CM
##YUNITS=ABSORBANCE
##FIRSTX=399.976074
##LASTX=4000.001953
##FIRSTY=-0.112271
##MAXX=4000.001953
##MINX=399.976074
##MAXY=0.239411
##MINY=-0.735025
##XFACTOR=1.000000
##YFACTOR=1.000000E-09
##NPOINTS=59738
##DELTAX=0.060265
##ZPD=1525
##XYDATA=(X++(Y..Y))
399.976 -112270888 -84153184 -44102380 -1840104 35549388 64311048 82782312 
400.398 91173672 91253304 86471112 81499824 80745256 86964200 99530440 
400.820 114744912 126751232 129803584 120151416 97915184 67596272 35650912 
401.242 6450792 -19822912 -46150508 -76602624 -114572904 -161858336 
401.603 -217417056 -276439040 -327999328 -357514752 -354043744 -319451808 
401.965 -267493216 -214457136 -171722448 -143093744 -126640976 -116195920 
402.327 -104413248 -85301672 -58003104 -27005624 1169647 22310646 35974180 
402.749 44250668 50018600 55606684 62076124 68846296 73771688 73915200 
403.171 67277464 54004496 36785556 19648496 7376700 4464989 14484700 
403.592 39127756 76386232 119807992 159614336 187357344 198808080 194624736 
404.014 178325808 154427264 126981896 98466200 69380824 37744624 226662 
404.436 -46482376 -103712056 -170350400 -242353280 -313104256 -373141472 
404.798 -412062624 -424103808 -412214496 -386812288 -358720128 -335545664 
405.159 -320095232 -312002624 -309936352 -313259104 -322694240 -339549088 
405.521 -363572640 -390187040 -408415808 -404558688 -368863616 -302755872 
405.883 -217958336 -128774256 -46643168 22095032 74843352 112038168 
406.244 135596640 147467392 149288384 142292384 127949464 108508216 87930632 
406.666 71955584 66033520 72749312 89427120 109543312 125365224 131240832 
407.088 124621296 105045720 73104904 29180806 -26730760 -95135656 -175225920 
407.510 -260927536 -336752608 -375702336 -355350400 -281512192 -183098944 
407.872 -87222304 -8761232 45317212 73740152 78550368 63699760 34189268 
408.294 -4324129 -44800280 -79320416 -98916184 -96390376 -70318384 -26345904 
408.716 25198124 73922936 110778896 129992024 129638088 111563376 80663256 
409.137 42915592 3864535 -32855626 -64784208 -89436408 -103502568 -102268888 
409.559 -81345952 -39736472 18213968 83490184 145840880 195839696 227614944 
409.981 239410736 233023888 212567968 182911104 148767696 113655560 80495968 
410.403 51787288 29668016 15928149 11123896 13824062 19927348 24050452 
410.825 21735390 10872211 -7666152 -31230552 -56674220 -81570168 -104156104 
411.247 -123085192 -137120224 -144495344 -143096752 -131378520 -109438096 
411.609 -79571448 -45442664 -11156719 19767386 44635440 61595596 70185520 
412.031 71333560 67239168 60524164 53669900 48190440 44190360 40424496 
412.452 34855940 25814520 13046169 -1533053 -14190618 -20219852 -16197143 
412.874 -1751804 19306324 40500468 54921548 58169844 49898936 33407018 
413.296 14502822 -624491 -6543924 -728337 16026601 40276912 67712192 
413.718 94449376 117511576 135255840 146967056 152736144 153254064 149854000 
414.140 144273616 138205344 133010832 129151584 125929864 121271480 
414.502 112007928 94426072 65247492 23448898 -27815660 -79983120 -121807024 
414.924 -144143456 -145946992 -133987352 -118532152 -108147424 -107279288 
415.285 -116258440 -131152616 -145061664 -149847024 -140338384 -116624568 
415.647 -84031936 -49902768 -21079754 -1997985 6014395 4071383 -4719357 
416.069 -16356017 -26321050 -30994446 -28644630 -19882770 -7214846 6236118 
416.491 17825384 26165452 30772352 31603280 28626148 21620800 10310848 
416.913 -5360473 -24830788 -46873804 -70030000 -93232376 -116918616 
417.274 -143612288 -178027840 -225883504 -292008352 -375642752 -463228160 
417.636 -518522144 -500482272 -413010176 -300229184 -198239984 -121270944 
417.997 -73263632 -53719744 -62088452 -99650360 -171272560 -286530720 
418.359 -455137056 -658009600 -735025216 -548735296 -303984640 -118678752 
418.721 6570699 89967272 144523760 177671056 192851424 191886048 177904912 
419.143 156662432 135595584 120388744 113739208 115565952 124292048 
419.504 137593504 152421632 164806640 168709248 157242640 126590760 81597528 
419.926 35320880 297181 -18687334 -24442116 -22623274 -18546900 -15652804 
420.348 -15698090 -18677590 -23195546 -26969162 -27986808 -25694298 
420.710 -21542552 -18672702 -20954552 -32436192 -56265128 -94004856 
421.071 -144009920 -200260992 -250850464 -280696512 -279681312 -248342336 
421.433 -196228464 -134340800 -71196376 -12019847 40122980 82595008 
421.795 113240152 130059568 131511792 117404232 89589792 52441096 11799229 
422.217 -25694234 -54639648 -72389056 -79106824 -77041544 -68990696 
422.578 -57602112 -44582356 -30776270 -16591508 -2395994 10586652 19736838 
423.000 22457764 19236218 13459821 8203413 5197233 5151095 8214995 14087218 
423.482 21712714 29277488 34253404 34161916 26943814 11393685 -12360798 
423.904 -42277036 -73860176 -101019328 -117208816 -118477368 -105171848 
424.266 -81343424 -52667356 -24478258 -1397265 13491437 18525196 13380060 
424.688 -1056881 -23037208 -50269848 -80555152 -111634616 -141405504 
425.049 -167970960 -189082944 -202029840 -203920400 -192923408 -170186976 
425.411 -140231120 -109258664 -82272040 -62240872 -50433200 -46913752 
425.773 -51179352 -62004612 -77394608 -94204120 -108821232 -118301680 
426.134 -120856080 -115970544 -103682984 -84136992 -57811780 -26322016 
426.496 6862650 37128612 59938448 72407008 73993800 65700056 49428752 
426.918 27249332 1479799 -25567796 -51716820 -74822864 -93431008 -107047248 
427.340 -116272280 -122213528 -125801472 -127067160 -125085216 -118492808 
427.701 -106405360 -89121744 -68179832 -45879572 -24436758 -5598861 9731301 
428.123 21246938 28777332 32027188 30382322 23089462 9793011 -8714794 
428.545 -29745376 -49029144 -61413664 -63211480 -53855604 -35884400 
428.907 -13644654 8293915 25631220 35247424 35240740 25169790 6059449 
429.329 -19861848 -49728224 -80845304 -110523232 -136143808 -155189392 
429.690 -165250368 -164904944 -154417360 -135999920 -113045568 -89154688 
430.052 -67504184 -50125952 -38032216 -31149262 -28454258 -28152980 
430.414 -28239332 -27403584 -25662284 -24751956 -27530298 -37320304 
430.775 -56525012 -85595744 -121463776 -156777456 -180069216 -180208400 
431.137 -154292432 -109434600 -57548076 -8283268 31997904 60255684 75761544 
431.559 79414328 73917832 63302592 52084764 43159760 37058492 32215386 
431.981 26176394 16395893 1032589 -20397338 -46519708 -73910992 -97950208 
432.403 -113548728 -116989184 -107016064 -85124272 -55187180 -22529096 
432.764 6835957 28041766 38140816 37080432 27434802 13323648 -1514167 
433.186 -15331283 -28635016 -43838760 -63975908 -91442792 -126326544 
433.548 -165390976 -201532608 -226136304 -232223616 -218038112 -187767824 
433.909 -149735504 -113417376 -86452464 -74051408 -77523792 -94482920 
434.271 -119454568 -145514992 -165974080 -175544960 -172554336 -159470048 
434.633 -142296656 -127796608 -121720464 -126977984 -143011072 -166104560 
434.994 -190621552 -211336576 -224952432 -231443280 -233105424 -232936272 
435.356 -232753488 -232449456 -229953072 -222282016 -206916496 -183479200 
435.717 -154307152 -123634048 -95894400 -74191472 -60450100 -55501888 
436.079 -59615516 -72619120 -93387320 -118657680 -141045504 -150432896 
436.441 -139111712 -108777896 -69580744 -33014112 -6639871 6772480 7164432 
436.863 -3297474 -20841474 -39757548 -53680012 -57653932 -50246736 -34428424 
437.285 -15670637 625955 11392291 15907148 15422594 12062659 8015817 4554715 
437.767 1685548 -1533152 -6196936 -12795338 -20924904 -29455212 -36982516 
438.189 -42235100 -44547756 -43928128 -40987660 -36587092 -31585872 
438.550 -26596080 -21955186 -17945986 -14976812 -13672043 -14934747 
438.912 -19720622 -28788752 -42314428 -59456684 -77968224 -94193688 
439.274 -104281840 -105262088 -96236048 -78430224 -54539508 -27954030 
439.635 -2057612 19624298 34119372 39476480 35096236 22068398 2934334 
440.057 -18587440 -38571576 -53114272 -59120796 -55206732 -42121024 
440.419 -22825968 -1444459 17530974 30800842 37016092 36796556 32319672 
440.841 26500534 22360738 22068118 26709926 36072060 48889576 63130512 
441.263 76570728 87425832 94422528 96995464 95071576 88811416 78328680 
441.684 63624368 44850896 22730708 -780962 -22006846 -36436028 -40144572 
442.106 -31993140 -14147740 9286554 34209020 57769908 78084264 94220952 
442.528 105843200 112989424 116093960 115922656 113483072 109727040 
442.890 105466800 101259776 97319584 93509272 89347344 84205136 77534840 
443.312 69259408 60012056 51413100 45807048 45643748 52227152 64309128 
443.734 77889576 87769640 90281448 84212816 70940784 53318172 34862512 
444.156 18611754 6312192 -1742761 -6763624 -10787996 -15965462 -23538920 
444.578 -33441118 -44250412 -53891692 -60262240 -62005328 -58914568 
444.939 -51915144 -42791848 -33582036 -26281316 -22326768 -22534852 
445.301 -27266064 -36438740 -49522276 -65289684 -81919296 -97083360 
445.662 -108676936 -115653976 -118127280 -116872344 -112513432 -105128240 
446.024 -94255384 -79375064 -60575052 -39045192 -17028880 2667180 17780024 
446.446 26983864 29994986 27303984 19910524 9234732 -2970621 -14271296 
446.868 -21893946 -23482234 -17867356 -5879876 9893979 25710064 37962800 
447.290 43769808 41542812 31497278 15677685 -2343630 -18715930 -30075140 
447.712 -34848512 -33586296 -28632224 -23112080 -19782360 -20357976 
448.073 -24806722 -31414106 -37084928 -38519276 -33012268 -19465500 1257233 
448.495 26672684 53480416 78611752 99377544 113979520 121531904 121914696 
448.917 115757784 104271440 89221264 72549872 56388344 42921224 33952880 
449.339 30654108 32895796 38991340 45583608 48611552 44721340 32017414 
449.761 10842995 -16513940 -46171576 -73798680 -95282368 -107620224 
450.123 -109886344 -103226592 -90429608 -74722280 -59273800 -46484816 
450.484 -37742676 -33624568 -33848248 -37484676 -43093376 -49260444 
450.846 -54972212 -59862836 -64191804 -68492200 -73068712 -77575008 
451.207 -80813288 -81005744 -76569992 -66663020 -51747852 -33480480 
451.569 -14624549 1641044 12247139 14855699 8905905 -3924633 -19834184 
451.991 -34410396 -43752724 -45888576 -41164272 -31768228 -20820692 
452.353 -11322322 -5975185 -6677102 -14540092 -29574644 -50109864 -71707856 
452.775 -86836208 -88210296 -73365560 -46872588 -16430520 11187638 32023192 
453.196 44576252 48499428 44374620 33376176 17332238 -1588156 -21081932 
453.618 -38987556 -53813248 -64693980 -71265112 -73421744 -71196576 
453.980 -64884692 -55241160 -43806320 -32916262 -25446880 -24806068 
454.342 -34058268 -55292332 -88763824 -132398192 -181298496 -227780976 
454.703 -263243408 -280050240 -275147648 -251460464 -216371584 -177952800 
455.065 -142023744 -111876640 -88280824 -70561016 -57511652 -48026612 
455.427 -41398108 -37319880 -35694548 -36316092 -38605592 -41612068 
455.788 -44016788 -44511212 -42244716 -36996212 -29205468 -19638130 -9100727 
456.210 1763090 12361362 21886216 29272526 33037390 31453282 22999806 
456.632 6770157 -16867574 -45965364 -76409704 -102745168 -120021448 
456.994 -125767488 -121152640 -109744616 -95732744 -82196576 -71099784 
457.355 -63585544 -60311988 -61845640 -68592144 -80379072 -95040392 
457.717 -107375504 -110505504 -99925928 -77679864 -50268844 -24181416 
458.078 -3325128 10572392 17137484 17068522 11759124 3318863 -5895697 
458.500 -13555254 -18229010 -19889226 -19885428 -20322532 -23049778 
458.862 -28903750 -37108964 -45454480 -50886956 -50939412 -44652708 
459.224 -33340606 -20161592 -9541651 -5817502 -11922084 -28847358 -54889964 
459.646 -85781912 -114545568 -133771512 -138422496 -128303784 -107854208 
460.007 -83513512 -60968448 -43375260 -31762592 -25354438 -22415326 
460.369 -20861054 -19101642 -16513843 -13386709 -10599878 -9109682 -9661956 
460.791 -12552436 -17703342 -24768262 -33297092 -42698640 -52146288 
461.152 -60551796 -66351688 -67846376 -63925460 -54914464 -42809952 
461.514 -30292432 -19569500 -11554202 -6201118 -3136907 -2162105 -3465508 
461.936 -7512013 -14658315 -24737526 -36621172 -48240564 -56596772 -58797240 
462.358 -53281540 -40662100 -23731430 -6366008 7648454 16079480 18553794 
462.780 16552275 12625576 9682510 9960627 14280400 21921170 30746068 
463.202 37918576 40349404 35857856 23909132 6149909 -13871319 -31409110 
463.624 -41725824 -41980836 -31981412 -14414208 6426714 25538612 38665424 
464.045 43246064 38481432 25524380 6919711 -13793680 -33206980 -48603632 
464.467 -58262820 -61659132 -59144916 -51669428 -40415400 -26747490 
464.829 -12087942 2243492 14954388 25029964 31897332 35478228 36227732 
465.251 34944416 32570746 29862224 27320428 25197422 23560544 22402322 
465.673 21661896 21211342 20792714 20042948 18635446 16464647 13869455 
466.095 11686073 11183253 13575732 19610224 29167162 41178184 53737504 
466.517 64480796 71290760 72533312 67645944 57294268 43483684 29106572 
466.939 17221250 10512338 10284316 16155750 26086734 37213036 46490628 
467.360 51431936 50686168 43931124 31905536 16146706 -832522 -15844081 
467.782 -25620524 -27552628 -21193022 -8731616 5576858 17460878 23900974 
468.204 23832818 18116056 9041480 -266448 -6895104 -8692677 -5274358 1909365 
468.686 10051021 16382301 19310342 18857724 16462823 14199085 13886561 
469.108 16189592 20398378 24645054 26855052 25435170 20064394 11767465 
469.530 2781911 -4127677 -6457979 -2546491 7674152 22712832 40004520 
469.952 56987688 71524824 82061776 87627848 87535184 81536040 69996984 
470.374 54125408 35737320 16666500 -1591358 -18241114 -32951002 -45419144 
470.796 -55111332 -61188408 -62837256 -59820516 -52815344 -43293216 
471.158 -32866284 -22900750 -14074417 -6371559 669226 7561695 14516390 
471.579 21324296 27538194 32811348 37209176 41309608 46095992 52580388 
472.001 61234264 71404632 80989104 87058408 86851608 79313064 65328360 
472.423 46971560 26157780 4021552 -18928702 -42244028 -64504912 -82807768 
472.845 -93849432 -95661368 -88985056 -76633544 -62152896 -48586836 
473.207 -37863920 -30858616 -27117390 -25050314 -22166568 -16016496 -5042146 
473.629 10463696 28226830 44501504 55528324 59150608 55305020 46011520 
474.051 34361948 23860400 17217630 15703587 18872602 24742908 30473302 
474.473 33187330 31075382 23729046 12418467 -361838 -11279451 -17323484 
474.894 -16951262 -10517124 -140068 11344740 21194574 27740810 30503194 
475.316 30017388 27384334 23827778 20234254 16825526 13202511 8628700 
475.738 2541180 -5152112 -13944066 -22960248 -31134954 -37539264 -41463676 
476.160 -42365284 -39859008 -33660568 -23682706 -10227573 5764914 22607338 
476.582 38194288 50188760 56657808 56522452 49583496 36592336 19010942 
477.004 -1009315 -21088528 -38796540 -52000192 -59533940 -61482984 -59299956 
477.426 -55169232 -51440416 -49664656 -50086864 -51645720 -52402864 
477.788 -50364692 -44128392 -33635180 -20200496 -6138202 6323488 15726434 
478.209 21916568 25909472 29384936 33795156 39588364 46010116 51417500 
478.631 54087464 52723796 47023284 37698364 26382216 15046034 5496316 
479.053 -1230444 -5253899 -7748897 -10597421 -15728513 -24786508 -38418504 
479.475 -55816168 -74301592 -89909288 -98664712 -97826488 -87132768 
479.837 -68731416 -46593884 -25031548 -7903083 2406920 5530142 2809390 
480.259 -3279092 -10187409 -15806349 -19241896 -20877002 -22031444 -24057514 
480.681 -27507534 -31689010 -35023024 -35809592 -33172260 -27570724 
481.042 -20651942 -14601707 -11216943 -11596531 -15867306 -23494286 
481.404 -33654684 -45699588 -59277964 -74061496 -89328168 -103413424 
481.765 -113550360 -116825048 -111322152 -97483432 -78069672 -57418824 
482.127 -39973136 -29105454 -27021038 -34148940 -49145624 -68754744 
482.489 -88695008 -104632584 -113433504 -114263768 -108427184 -98635568 
482.850 -87743984 -78281192 -71867296 -69036376 -69333672 -71398824 
483.212 -73342216 -73027920 -68885672 -60378424 -48232884 -34109396 
483.574 -20159314 -8483115 -537995 2928563 2080624 -2176710 -8377044 
483.996 -15100484 -21515626 -27567490 -33843128 -41123672 -50043604 
484.357 -60766928 -72897864 -85352256 -96505376 -104134648 -105942480 
484.719 -100527200 -88134192 -71028928 -52593948 -36433680 -25047280 
485.080 -19416010 -19061274 -22298188 -26764468 -30151220 -31317592 
485.442 -30662232 -29870266 -30815470 -34841356 -42122824 -51672724 
485.804 -61385592 -68656672 -71287688 -68405568 -61233992 -52686084 
486.165 -46281704 -44511272 -48400560 -57472000 -70240904 -84512104 
486.527 -97876216 -108384376 -114856232 -117301696 -116638352 -114199072 
486.889 -111049288 -107661808 -103874152 -99043896 -92376944 -83379712 
487.250 -72265632 -60062556 -48346404 -38617536 -32016932 -28981244 
487.612 -29223094 -31799424 -35373300 -38563544 -40131732 -39308016 
487.974 -35768916 -29577584 -21108414 -11009048 -177429 10407390 19700292 
488.395 26797072 31113930 32413416 30932184 27341528 22725506 18222504 
488.817 14679019 12352737 10800227 9045065 5902131 450591 -7744731 -18355920 
489.299 -30330040 -41934180 -51288804 -57001072 -58495336 -56154180 
489.661 -50933456 -43955076 -36040960 -27630612 -18857388 -9742118 -481899 
490.083 8357108 15921207 21202646 23407178 22235660 17988222 11589315 
490.505 4385590 -2024370 -6343902 -7850598 -6537429 -2993722 1833593 6912338 
490.987 11421204 14760837 16638715 17020312 16038738 13907019 10858860 
491.409 7179220 3198949 -684308 -3995028 -6297336 -7243033 -6636477 -4446117 
491.891 -779904 4118512 9854355 15800718 21148270 25087146 26946492 26475108 
492.373 23916238 20027994 15909452 12871419 12232654 14921055 21321476 
492.795 31076236 43195592 56169540 68300552 78052344 84023688 85213376 
493.217 81088728 71686504 57733768 40719600 22935180 6893149 -5041851 
493.639 -11427031 -12267106 -9083010 -4462318 -1072416 -1132600 -5533763 
494.061 -13614343 -23200164 -31372740 -35388904 -33475048 -25520934 
494.423 -12926838 1856985 16323192 28363940 36909268 42103312 45096232 
494.845 47527096 50803552 55697868 61975376 68544688 73759632 76143256 
495.266 74824024 69819776 61921724 52414592 42701384 33916768 26940924 
495.688 22259932 19968526 19777064 21066004 23006376 24615492 25018978 
496.110 23580238 20053150 14687897 8184066 1477139 -4663700 -9812872 
496.532 -14013593 -17619640 -21072272 -24589142 -27964562 -30477958 
496.894 -31136588 -29086276 -24013436 -16344273 -7068011 2585909 11578731 
497.316 19137972 24871202 28747984 30997728 32006926 32176278 31861390 
497.738 31273636 30471312 29376036 27816258 25575336 22450856 18332986 
498.160 13236088 7321770 842852 -5884158 -12543358 -18853708 -24533124 
498.581 -29330822 -33070366 -35725004 -37515948 -38944148 -40750284 
498.943 -43645876 -48094660 -54003656 -60612376 -66465864 -69788008 
499.305 -69151144 -63874752 -54413568 -42141892 -29067682 -17165378 -7970689 
499.727 -2332260 -144771 -429800 -1559631 -1887580 -91042 4354196 11059652 
500.209 18785786 25788572 30355814 31088196 27384440 19477966 8330560 
500.631 -4746561 -18312436 -30946376 -41524508 -49201604 -53616524 -54953940 
501.053 -53946184 -51639864 -49032196 -46945364 -45835832 -45811416 
501.414 -46685572 -48065504 -49498504 -50668996 -51608736 -52712496 
501.776 -54543952 -57468200 -61345432 -65196568 -67128648 -64135924 
502.137 -53046684 -32424722 -4772779 23577510 45698368 57298768 58022808 
502.559 50024548 36661156 21336788 7298183 -3013762 -8569668 -9760779 
502.981 -8153867 -5657178 -4034128 -4358738 -6992733 -11693593 -17804042 
503.403 -24435162 -30626290 -35585856 -38700804 -39599992 -38208792 
503.765 -34814536 -30156754 -25334372 -21772320 -20791444 -23230506 
504.126 -29203486 -37975932 -48154836 -58006088 -66112764 -71646040 
504.488 -74539600 -75276232 -74562240 -72946768 -70625312 -67510792 
504.850 -63446456 -58500664 -53194752 -48474500 -45482324 -45290112 
505.211 -48491456 -55093820 -64442164 -75378896 -86238120 -95074944 
505.573 -100146464 -100197552 -95067464 -85774976 -74288720 -62727548 
505.935 -52693448 -45017832 -39631388 -35857400 -32768312 -29698004 
506.296 -26523988 -23786108 -22374132 -23188448 -26668628 -32593292 
506.658 -39974196 -47286900 -52943540 -55831672 -55972232 -54493772 
507.020 -53054516 -52835736 -54120152 -56218144 -57916180 -57860616 
507.381 -55119008 -49537060 -41787340 -33170116 -25158174 -19196376 
507.743 -16326850 -17140534 -21745690 -29705924 -39958688 -50778580 
508.104 -60171928 -66116632 -67209720 -63153116 -54866576 -44289760 
508.466 -33743964 -25559454 -21305726 -21501374 -25594754 -32243162 
508.828 -39739256 -46427504 -51210040 -53568724 -53575260 -51664872 
509.189 -48441016 -44443084 -40032968 -35473072 -31003856 -26932106 
509.551 -23648506 -21457224 -20383806 -19968060 -19283642 -17034710 
509.913 -11909156 -3124933 9278024 24182044 39646012 53002072 61561040 
510.335 63282736 57161360 43680540 24671814 3088445 -17890982 -35252824 
510.756 -46680692 -51123480 -48898784 -41654396 -31716734 -21685428 
511.118 -13735161 -9277429 -9084016 -13181522 -20944606 -31068114 -41905928 
511.540 -51815816 -59614768 -64920364 -67963776 -69207024 -68925368 
511.902 -67055316 -63278384 -57336832 -49333208 -39899176 -30039738 
512.263 -20919030 -13420732 -7976609 -4505081 -2508015 -1254067 -43966 
512.685 1509955 3436238 5436188 7072313 7866594 7428975 5502289 1973134 
513.167 -3070519 -9304510 -16117588 -22740732 -28344200 -32226674 -34050944 
513.588 -33929888 -32462112 -30529692 -29139632 -29062662 -30610572 
513.950 -33632020 -37628328 -41979904 -46059480 -49377808 -51564160 
514.311 -52361396 -51679140 -49646452 -46679976 -43417236 -40683372 
514.673 -39292400 -39842288 -42657796 -47664784 -54416464 -62094684 
515.034 -69701936 -76184696 -80527520 -81985832 -80129864 -74964744 
515.396 -66943088 -56952252 -46121788 -35486292 -25858664 -17650818 
515.757 -10957939 -5776797 -2206084 -560233 -1356903 -5060191 -11832391 
516.179 -21275756 -32465986 -43996008 -54261856 -61863916 -65649696 
516.540 -64988008 -59866732 -51059588 -40038680 -28649996 -18718024 
516.902 -11464434 -7454791 -6732828 -8980430 -13639293 -19919768 -26932978 
517.323 -33680928 -39312224 -43340420 -45675996 -46588020 -46482700 
517.685 -45742176 -44580620 -43105708 -41470992 -39951980 -38930548 
518.046 -38737628 -39472180 -40939448 -42679148 -44150692 -44876488 
518.408 -44664844 -43660624 -42264048 -40897984 -39804352 -38951812 
518.769 -38072132 -36786144 -34745296 -31751044 -27725866 -22659882 
519.131 -16568959 -9565443 -2039408 5182848 10570288 12105995 7811130 
519.552 -3437830 -20924272 -41918232 -62420504 -78986960 -89642520 -94303224 
519.974 -94245512 -91375256 -87453160 -83548536 -80013160 -76555096 
520.335 -72660888 -67957208 -62475112 -56593860 -50837356 -45551364 
520.697 -40767960 -36211152 -31541656 -26599136 -21604474 -17100782 
521.058 -13846735 -12536437 -13591318 -17063000 -22556434 -29278882 
521.420 -36060016 -41626820 -44717844 -44284344 -39803956 -31427174 
521.781 -20146314 -7577074 4205490 13290336 18492488 19537194 17202496 
522.203 13014211 8920990 6506688 6505007 8490991 11162174 12877289 12375543 
522.685 9254160 3933206 -2564279 -9102155 -14687497 -18859830 -21755396 
523.107 -24023532 -26515168 -29978080 -34826068 -40992604 -47971492 
523.468 -54937152 -61019064 -65412028 -67586120 -67404128 -65126612 
523.829 -61356680 -56848288 -52373672 -48429872 -45079540 -41836908 
524.191 -37770104 -31722214 -22731992 -10549367 4224159 20229636 35847240 
524.613 49376780 59404044 65011748 65775260 61932500 54292420 44133320 
525.034 32804382 21550390 11451140 3307811 -2234995 -4764061 -4211000 
525.456 -955064 4180699 10137941 15608781 19222432 19632896 15645877 6856356 
525.938 -5657799 -19047988 -30031762 -36458120 -38122028 -36180452 -32236486 
526.360 -27730964 -23645618 -20599176 -18778414 -18019612 -17920266 
526.721 -18032710 -18026702 -17756396 -17268558 -16722118 -16314182 
527.083 -16204644 -16511993 -17305654 -18600678 -20328570 -22278326 
527.444 -24067608 -25094194 -24675078 -22256576 -17652696 -11286520 -4215463 
527.866 2011480 5886446 6199952 2386363 -5341654 -15951442 -27678118 
528.287 -38429360 -45986644 -48801752 -46470704 -39833552 -30538218 
528.649 -20400942 -10950346 -3035018 3062183 7477379 10527750 12525914 
529.070 13650127 13932371 13349068 11960231 10031591 8146623 7118926 7794128 
529.552 10787420 16130818 23163164 30574360 36820068 40299088 39725952 
529.974 34454372 24596910 11141539 -4307693 -19694942 -33169348 -43511728 
530.396 -50291068 -53884640 -55198880 -55345860 -55178864 -55128292 
530.757 -55105468 -54668952 -53247512 -50440896 -46208068 -40912640 
531.119 -35223524 -29878400 -25511498 -22411266 -20516030 -19523664 
531.480 -19120920 -19149710 -19701560 -21041528 -23454076 -27001234 
531.842 -31378228 -35842112 -39382772 -41036440 -40088288 -36364548 
532.203 -30259708 -22696960 -14845227 -7949738 -3141217 -1160459 -2312453 
532.625 -6334433 -12460234 -19460906 -25959926 -30847258 -33503484 -34097112 
533.046 -33512440 -33172324 -34456676 -38243684 -44503708 -52249860 
533.408 -59766380 -65222284 -67490224 -66510780 -63374808 -59696036 
533.769 -57032628 -56154676 -56890872 -58321084 -59265040 -58715596 
534.131 -56085608 -51333792 -44787488 -36916572 -28103630 -18652070 -8891621 
534.552 701085 9366447 16214974 20525152 21983588 20907816 18118544 14672405 
535.034 11361950 8507175 5933637 3232529 90995 -3407849 -6788123 -9376795 
535.516 -10732335 -10948860 -10727389 -11103658 -13002863 -16886442 
535.878 -22484296 -28886636 -34819000 -39230736 -41621612 -42282116 
536.239 -42084816 -42155664 -43311120 -45700572 -48806252 -51729964 
536.601 -53654796 -54103596 -53112632 -51107016 -48736040 -46613676 
536.962 -45230196 -44879860 -45641424 -47425980 -50025888 -53193692 
537.324 -56661392 -60180440 -63526296 -66443084 -68652976 -69871344 
537.685 -69864184 -68582496 -66249072 -63374356 -60587132 -58515520 
538.047 -57610992 -58034500 -59648384 -62029084 -64601304 -66713660 
538.408 -67843656 -67676088 -66073008 -63038132 -58679356 -53265920 
538.769 -47271388 -41437080 -36653180 -33624016 -32642714 -33339746 
539.131 -34766704 -35527172 -34298500 -30366064 -23988072 -16460124 -9671418 
539.553 -5492181 -4931497 -7918374 -13336265 -19572318 -24903288 -28055240 
539.974 -28517030 -26465538 -22558100 -17559086 -12189824 -7006590 -2491543 
540.396 809489 2365341 1770776 -1019860 -5558495 -10901654 -15903912 
540.818 -19733130 -22151864 -23650138 -25106828 -27400752 -30886792 
541.179 -35203056 -39311560 -41959448 -42148480 -39502528 -34366040 
541.541 -27569294 -20104462 -12790159 -6316309 -1291663 1669582 1828402 
541.962 -1492176 -8649383 -19380204 -32627534 -46586236 -58905632 -67525392 
542.384 -71207456 -69977824 -64927012 -57732852 -50005896 -42815180 
542.745 -36764132 -32057532 -28734764 -26830820 -26383664 -27336106 
543.107 -29393100 -31999234 -34385328 -35709376 -35337316 -32933064 
543.468 -28542876 -22498454 -15307038 -7500647 454240 8095004 14978292 
543.890 20680734 24793000 27041516 27325262 25733336 22474652 17792762 
544.312 11872809 4820855 -3223447 -11933044 -20719836 -28667802 -34800348 
544.733 -38455928 -39604528 -38996764 -37919096 -37799536 -39566692 
545.095 -43372504 -48433664 -53352784 -56511920 -56808548 -54144696 
545.456 -49405696 -44012540 -39253836 -35975388 -34299084 -33749668 
545.818 -33491828 -32787238 -31299156 -29253048 -27272444 -26106532 
546.179 -26254088 -27708054 -29890866 -31813960 -32479454 -31155000 
546.541 -27701588 -22549356 -16575051 -10786024 -6120886 -3293528 -2595998 
546.962 -3885130 -6611318 -10048084 -13445885 -16281024 -18380186 -19901000 
547.384 -21250514 -22900846 -25241500 -28359938 -31951152 -35307264 
547.745 -37579100 -38032244 -36345928 -32749600 -27955738 -22941892 
548.107 -18599632 -15604667 -14212424 -14271231 -15304480 -16685069 
548.468 -17790874 -18065036 -17147764 -14895912 -11438390 -7166156 -2717648 
548.890 1141408 3754029 4680999 3907528 1876386 -519330 -2230907 -2451777 
549.372 -938434 1802150 4705650 6486575 6174510 3321200 -1812257 -8359038 
549.854 -14929689 -20039604 -22677306 -22648120 -20717942 -18186052 
550.215 -16453424 -16458370 -18560298 -22594998 -28010882 -33987036 
550.577 -39543184 -43784180 -45964172 -45676444 -42934504 -38159296 
550.938 -32085072 -25540116 -19333272 -13976120 -9595682 -5966590 -2704148 
551.360 515573 3768434 6837270 9274773 10556606 10280075 8226915 4433555 
551.842 -850248 -7169611 -13938996 -20500322 -26122102 -30175858 -32241716 
552.264 -32219474 -30364366 -27220102 -23477870 -19747788 -16517671 
552.625 -14090551 -12622572 -12222652 -12976011 -14907567 -17870662 
552.986 -21458202 -24999486 -27640964 -28675246 -27756856 -25112582 
553.348 -21477186 -17929932 -15475095 -14603404 -15114821 -16148014 
553.709 -16585417 -15384951 -12038733 -6666954 77838 7326623 14253419 
554.131 20238454 24953384 28210848 29847174 29668016 27454284 23099910 
554.553 16744455 8907225 437888 -7674584 -14463535 -19287508 -21881690 
554.974 -22331236 -20984672 -18425094 -15469340 -13030228 -12066320 
555.336 -13273249 -16805132 -22141884 -28132700 -33327658 -36229168 
555.697 -35877532 -32137632 -25804370 -18246770 -10935742 -4898670 -377398 
556.119 3043764 6105114 9377755 12992770 16517991 19207264 20284382 19337744 
556.601 16427962 12035168 6840064 1566516 -3128552 -6797615 -9198057 
557.023 -10346781 -10505708 -10175628 -9988120 -10526115 -12226163 -15174977 
557.444 -19042248 -23038088 -26134708 -27336354 -25984270 -22034404 
557.806 -16047280 -9044427 -2151851 3500366 7017791 7920986 6212657 2475694 
558.288 -2261002 -6642579 -9436650 -9820581 -7575707 -3183682 2253750 
558.709 7231201 10389302 10832327 8521908 4234933 -653904 -4712245 -6953443 
559.191 -7008220 -5220409 -2404561 398089 2318736 2799452 1648328 -998406 
559.673 -4756196 -9052898 -13243361 -16597312 -18448308 -18365006 -16263247 
560.095 -12540557 -8032852 -3975756 -1649226 -2114527 -5961295 -13084502 
560.517 -22685230 -33389394 -43669760 -52001664 -57227440 -58767636 
560.878 -56593776 -51194080 -43375740 -34166060 -24565314 -15450890 -7594527 
561.300 -1585779 2071868 2952014 797373 -4377074 -12091745 -21385788 
561.721 -30763058 -38567028 -43490416 -44878488 -43014696 -38935760 
562.083 -34155404 -30062062 -27619482 -27199872 -28624406 -31401560 
562.444 -34981572 -38954904 -42986456 -46702296 -49570076 -50806084 
562.806 -49615804 -45543548 -38769540 -30207784 -21305442 -13757568 -8937358 
563.228 -7703230 -10143680 -15581044 -22654850 -29707750 -35365480 -38789660 
563.649 -39911720 -39216964 -37463216 -35324920 -33235404 -31378102 
564.011 -29722944 -28147296 -26546400 -24921840 -23417722 -22312792 
564.372 -21942270 -22661454 -24725946 -28198192 -32874704 -38278240 
564.734 -43739512 -48464040 -51770760 -53210460 -52702872 -50601676 
565.095 -47694648 -45058812 -43700056 -44362316 -47219416 -51815700 
565.456 -57072496 -61568796 -63955172 -63291616 -59514788 -53479004 
565.818 -46761536 -40992604 -37433884 -36559408 -37961572 -40508796 
566.179 -42766988 -43599520 -42446844 -39536956 -35623768 -31651710 
566.541 -28292204 -25769150 -23904914 -22351158 -20858590 -19489514 
566.902 -18623724 -18827278 -20558884 -23894878 -28415216 -33294852 
567.264 -37622640 -40608116 -41864468 -41436572 -39744580 -37419900 
567.625 -35176992 -33704200 -33489742 -34788636 -37542300 -41377504 
567.987 -45572904 -49144236 -51070724 -50420600 -46697952 -39978424 
568.348 -30906416 -20490586 -9897638 -347238 7126706 11653942 12637448 
568.770 9891742 3683381 -5230688 -15783122 -26612192 -36389776 -44085828 
569.191 -49114792 -51487916 -51677516 -50384428 -48169068 -45325036 
569.553 -41910680 -37919308 -33484406 -28989150 -24968612 -21979378 
569.914 -20324902 -19920338 -20313266 -20896990 -21177656 -20930430 
570.276 -20278864 -19579950 -19243322 -19497086 -20289140 -21283832 
570.637 -22027758 -22072102 -21124824 -19093714 -16039615 -12124451 -7561510 
571.059 -2641546 2266640 6690942 10047935 11774716 11384468 8586217 3380468 
571.541 -3906015 -12636669 -22020136 -31138654 -39140004 -45352144 -49277336 
571.963 -50701752 -49721636 -46804196 -42717768 -38463512 -35109212 
572.324 -33462596 -33962404 -36515176 -40544020 -45022968 -48718772 
572.685 -50516532 -49599900 -45778528 -39526636 -31908300 -24193138 
573.047 -17567934 -12903713 -10552860 -10403268 -11947840 -14510002 
573.408 -17363056 -19936478 -21905854 -23112708 -23477524 -22885600 
573.770 -21133062 -18014526 -13473351 -7774479 -1527341 4390778 9045742 
574.192 11753166 12133422 10197638 6280053 999876 -4876981 -10593832 
574.613 -15434262 -18870268 -20579678 -20438432 -18547946 -15252850 
574.975 -11170638 -7072347 -3834227 -2238653 -2752352 -5461262 -9981481 
575.396 -15563303 -21141992 -25635486 -28182666 -28268640 -25872214 
575.758 -21423288 -15748037 -9813650 -4620002 -937211 924661 1161607 348710 
576.240 -891681 -2101668 -3138585 -4083728 -5065071 -6077857 -6891973 
576.661 -7049625 -6051652 -3538968 480444 5567326 10895756 15501632 18625590 
577.143 19827418 19101094 16752411 13249342 9008563 4294359 -764524 -6107655 
577.625 -11617596 -17032574 -21987506 -26067436 -28947242 -30518542 
577.987 -30930578 -30578612 -29968804 -29619274 -29855264 -30715734 
578.348 -31929512 -33002258 -33328668 -32318034 -29597084 -25091192 
578.710 -19109918 -12256315 -5341425 837839 5695584 8849564 10155238 9629693 
579.192 7404000 3696982 -1167861 -6715243 -12390876 -17600008 -21829734 
579.613 -24803846 -26517722 -27246804 -27409432 -27449092 -27624486 
579.975 -27914076 -28031944 -27588294 -26290548 -24087828 -21211860 
580.336 -18096022 -15225497 -12929476 -11312896 -10255243 -9552737 -9057441 
580.758 -8785553 -8868540 -9425919 -10403042 -11511482 -12266236 -12210475 
581.180 -11115188 -9125938 -6726205 -4609085 -3443189 -3615504 -5152112 
581.601 -7687215 -10640909 -13369584 -15429178 -16687397 -17312754 -17674774 
582.023 -18210040 -19325540 -21261652 -24044944 -27432420 -30963530 
582.384 -33993288 -35859932 -36111976 -34646700 -31847152 -28477624 
582.746 -25519090 -23735384 -23399324 -24213540 -25498814 -26505348 
583.107 -26738890 -26185214 -25279232 -24700466 -24987912 -26300872 
583.469 -28270038 -30190786 -31263546 -30982012 -29285264 -26517940 
583.830 -23184270 -19682466 -16119823 -12326822 -8079688 -3428856 1115530 
584.252 4523710 5507121 2984308 -3612120 -13949938 -26805746 -40117324 
584.674 -51614620 -59339380 -62063464 -59640068 -52878860 -43268116 
585.035 -32422076 -21892718 -12891104 -6148100 -2029844 -522673 -1332955 
585.457 -3939738 -7722956 -12065031 -16400464 -20356046 -23762486 -26663860 
585.878 -29261598 -31857960 -34766704 -38206484 -42242764 -46697504 
586.240 -51150872 -54935224 -57340724 -57847944 -56311288 -53058476 
586.601 -48785408 -44363600 -40494608 -37573720 -35594860 -34259280 
586.963 -33162806 -32037522 -30868028 -29833054 -29122684 -28741586 
587.324 -28409722 -27665650 -26099170 -23608464 -20532052 -17555206 
587.686 -15429625 -14576139 -14902732 -15758518 -16241096 -15500898 
588.047 -13216524 -9759970 -6120593 -3453149 -2615068 -3903060 -6985071 
588.469 -11130271 -15516212 -19592968 -23155936 -26311006 -29253482 
588.830 -32056484 -34542428 -36361044 -37139476 -36717548 -35243568 
589.192 -33150252 -30938756 -28984716 -27427442 -26202778 -25208640 
589.553 -24477100 -24225260 -24793768 -26435328 -29107780 -32356694 
589.915 -35413828 -37481088 -37949428 -36643676 -33784336 -29846788 
590.276 -25308492 -20537206 -15772386 -11201154 -7122416 -4003334 -2357438 
590.698 -2598106 -4763930 -8420496 -12656076 -16384510 -18694220 -19111312 
591.119 -17790716 -15406378 -12919473 -11178808 -10793619 -12050819 
591.481 -15011062 -19670400 -26066562 -34244980 -44081336 -55067728 
591.842 -66223240 -76068856 -83056680 -85930776 -84109888 -77938928 
592.204 -68574568 -57660756 -46744668 -37116020 -29575448 -24430558 
592.565 -21653938 -20941796 -21801722 -23523666 -25287734 -26254930 
592.927 -25689520 -23227396 -18990776 -13654255 -8229789 -3892585 -1609647 
593.348 -1832879 -4434704 -8739962 -13814512 -18675210 -22659820 -25546614 
593.770 -27502776 -28876128 -29932588 -30636912 -30620732 -29307718 
594.132 -26223614 -21323928 -15172930 -8920220 -3958190 -1707713 -3104603 
594.553 -8357836 -16855080 -27340678 -38203572 -47778836 -54869408 -58882976 
594.975 -59978148 -58903488 -56804592 -54822772 -53721732 -53794076 
595.336 -54791316 -56097372 -56880408 -56419224 -54324780 -50702344 
595.698 -46155248 -41648888 -38231304 -36609080 -36955892 -38751084 
596.059 -40975264 -42323356 -41737776 -38824568 -34018748 -28478678 
596.421 -23672196 -20998468 -21225018 -24325648 -29447656 -35270024 
596.782 -40309600 -43411392 -44115492 -42648756 -39749840 -36261600 
597.144 -32917708 -30120214 -27974660 -26423700 -25383880 -24836798 
597.505 -24836232 -25430820 -26567968 -28018214 -29416600 -30304980 
597.867 -30283316 -29158810 -27027544 -24309420 -21639814 -19777420 
598.228 -19348136 -20709758 -23877474 -28527550 -34068716 -39756640 
598.589 -44916912 -48996740 -51662252 -52795980 -52417608 -50618928 
598.951 -47517792 -43277200 -38129132 -32396798 -26505348 -20881738 
599.312 -15901932 -11838936 -8819127 -6876710 -6001264 -6186843 -7436682 
599.734 -9711241 -12853148 -16475661 -19973790 -22644188 -23846834 -23318534 
600.156 -21303960 -18531120 -15875611 -14086991 -13515106 -14033709 
600.517 -15142309 -16179586 -16610133 -16158996 -14923991 -13274535 
600.879 -11710881 -10639939 -10279966 -10668456 -11732006 -13382500 
601.240 -15569441 -18274854 -21448110 -24941582 -28505984 -31795916 
601.602 -34470664 -36292412 -37154988 -37097556 -36243736 -34757072 
601.963 -32799192 -30551900 -28254640 -26178600 -24601414 -23696416 
602.324 -23431032 -23514030 -23437344 -22644284 -20641736 -17200602 
602.686 -12409263 -6644668 -428973 5697733 11243127 15838997 19187628 
603.108 21060926 21351266 20124708 17699914 14605578 11538102 9116388 
603.529 7660426 7075984 6861775 6310073 4756633 1924607 -1934952 -6037014 
604.011 -9396867 -11133596 -10893576 -8993606 -6330383 -4003958 -2860957 
604.433 -3259558 -4888743 -6924388 -8274329 -8081769 -6007244 -2371708 
604.855 2021999 6139356 9079305 10389267 10116913 8783290 7117174 5841510 
605.336 5336652 5512323 5813570 5459540 3719639 170872 -5103616 -11503060 
605.818 -18018660 -23592022 -27311898 -28731416 -27957138 -25567858 
606.180 -22385934 -19211244 -16745998 -15452361 -15569345 -17131136 
606.541 -19965530 -23690582 -27723846 -31425540 -34177792 -35592296 
606.903 -35655452 -34756308 -33565504 -32755684 -32796212 -33701684 
607.264 -35022868 -35942112 -35642508 -33612948 -29897208 -25079306 
607.626 -20100508 -15930329 -13216332 -12212279 -12730828 -14315476 
607.987 -16399443 -18542898 -20526050 -22299668 -23881488 -25232776 
608.349 -26193544 -26534960 -26048868 -24687224 -22634848 -20324712 
608.710 -18336610 -17212830 -17384672 -19038538 -22093704 -26199938 
609.071 -30808432 -35257560 -38837780 -41001500 -41445696 -40200152 
609.433 -37584664 -34114816 -30330440 -26626996 -23247780 -20288414 
609.794 -17784672 -15804879 -14467989 -13886113 -14059084 -14777146 
610.156 -15593767 -15880657 -15067874 -12811842 -9197862 -4728436 -220682 
610.578 3489443 5845909 6669509 6214505 5013847 3721778 2832735 2557778 
611.059 2807889 3312085 3769470 3980520 3894456 3542153 2941273 2025494 
611.541 635909 -1396571 -4135816 -7452153 -11013732 -14369269 -17059590 
611.963 -18802720 -19548054 -19470600 -18842698 -17915688 -16791520 
612.325 -15394545 -13525546 -10993961 -7752673 -3987477 -114032 3325908 
612.746 5777976 6897188 6637747 5290532 3369749 1515608 323575 162254 
613.228 1119915 2949479 5172956 7173931 8418757 8598992 7669026 5830831 
613.710 3423013 801622 -1815424 -4386784 -7027195 -9889865 -13043154 
614.132 -16356336 -19503676 -21995286 -23359450 -23331158 -21975978 
614.493 -19722584 -17239104 -15274699 -14375680 -14791045 -16435081 
614.855 -18980816 -21964670 -24916210 -27469434 -29337636 -30326238 
615.216 -30312704 -29225512 -27072904 -23966342 -20154190 -15979771 
615.578 -11840129 -8125088 -5115078 -2991517 -1860098 -1810409 -2989675 
615.999 -5607201 -9856699 -15803186 -23229816 -31580050 -39912780 -47135088 
616.421 -52213780 -54398220 -53478740 -49810036 -44247448 -37837108 
616.782 -31661258 -26566130 -23003806 -21085118 -20627456 -21312668 
617.144 -22782896 -24761000 -27070164 -29593462 -32230798 -34820316 
617.505 -37084016 -38667888 -39176912 -38312124 -36010892 -32523878 
617.867 -28397370 -24295948 -20864560 -18481714 -17182130 -16683858 
618.228 -16545357 -16351677 -15902188 -15321624 -15043774 -15669487 
618.590 -17692876 -21340238 -26408360 -32326124 -38232396 -43254828 
618.951 -46736248 -48301904 -47912324 -45756160 -42159692 -37491152 
619.313 -32187354 -26783658 -21847032 -17948912 -15482417 -14508753 
619.674 -14699125 -15395280 -15841397 -15368608 -13701742 -11041577 -8021663 
620.096 -5411328 -3854490 -3624869 -4545413 -6080602 -7564767 -8508849 
620.517 -8737851 -8468135 -8145250 -8250760 -9029824 -10385314 -11899195 
620.939 -13040325 -13385006 -12817022 -11609596 -10368944 -9851808 -10667744 
621.361 -13136744 -17112918 -22019098 -26883584 -30633144 -32414482 
621.722 -31803214 -28991132 -24682718 -19903818 -15605147 -12497291 
622.084 -10904949 -10758647 -11704591 -13263126 -15019576 -16672570 
622.445 -18072600 -19157952 -19868526 -20118540 -19821742 -18961976 
622.807 -17655972 -16162923 -14817624 -13877577 -13432521 -13352716 
623.168 -13374918 -13229252 -12820529 -12305533 -12075311 -12576320 
623.529 -14095812 -16596388 -19665240 -22630570 -24785818 -25722810 
623.891 -25454974 -24426642 -23265838 -22576974 -22656768 -23394144 
624.252 -24312648 -24789636 -24331194 -22731864 -20167728 -17092052 
624.614 -14082788 -11589982 -9840050 -8799450 -8275596 -8056433 -8064499 
625.036 -8414256 -9385063 -11278546 -14241027 -18130250 -22479388 -26599478 
625.457 -29716136 -31263300 -31021840 -29222010 -26452290 -23523666 
625.819 -21204478 -19956004 -19880048 -20708370 -21972890 -23140826 
626.180 -23833816 -23925830 -23543062 -22961254 -22464882 -22230856 
626.542 -22271432 -22472118 -22664380 -22713438 -22552532 -22203310 
626.903 -21753286 -21340774 -21127098 -21276196 -21952666 -23268886 
627.264 -25239906 -27725866 -30433508 -32936502 -34774656 -35622240 
627.626 -35357784 -34107160 -32145570 -29792124 -27268648 -24663746 
627.987 -22012610 -19422536 -17188278 -15850214 -16037859 -18301540 
628.349 -22867684 -29467534 -37261344 -44944368 -51147368 -54657004 
628.710 -54872036 -51962712 -46837964 -40807476 -35151872 -30873304 
629.072 -28399976 -27631046 -28036790 -28912338 -29539418 -29401024 
629.433 -28342028 -26582304 -24640612 -23101022 -22450442 -22850048 
629.795 -24077294 -25544866 -26513048 -26329002 -24650912 -21613712 
630.156 -17786708 -13999477 -10992572 -9260628 -8888277 -9604692 -10905241 
630.578 -12264722 -13298829 -13772687 -13592634 -12714804 -11086411 -8659647 
630.999 -5455176 -1649985 2421114 6295988 9523502 11834878 13204594 13860869 
631.481 14155847 14444449 14918552 15555512 16140172 16371118 15967987 
631.903 14757135 12723282 9990530 6781062 3342035 -56953 -3154309 -5729941 
632.385 -7612011 -8737754 -9173337 -9103680 -8753568 -8302871 -7822483 
632.807 -7252875 -6456085 -5310822 -3811860 -2116770 -511056 722890 1406163 
633.289 1562492 1384756 1144432 1025581 1022293 903178 304011 -1143737 
633.771 -3651090 -7152695 -11299595 -15549525 -19368480 -22304262 -24092592 
634.192 -24657048 -24065632 -22496440 -20198756 -17490158 -14686248 
634.554 -12058682 -9789677 -7928526 -6415832 -5140029 -4027661 -3111083 
634.975 -2561973 -2630514 -3558786 -5413881 -7986597 -10748141 -13033089 
635.397 -14290084 -14317624 -13376203 -12086686 -11208870 -11319643 
635.759 -12679504 -15095428 -17990654 -20483666 -21677232 -20954678 
636.120 -18125196 -13522462 -7870090 -2126859 2848244 6442721 8409029 
636.542 8885648 8300906 7203172 6012883 4900736 3693907 1989111 -683679 
637.024 -4575578 -9546611 -14988592 -19998568 -23627450 -25178624 -24513020 
637.445 -22082400 -18795962 -15618539 -13344940 -12308431 -12342989 
637.807 -12887309 -13254899 -12941536 -11805693 -10155560 -8610177 -7897421 
638.228 -8519798 -10606118 -13834122 -17583334 -21099228 -23763586 -25287954 
638.650 -25715722 -25365096 -24653322 -23979670 -23559886 -23373390 
639.012 -23157380 -22514184 -21035972 -18466250 -14832931 -10480900 -6013518 
639.433 -2086038 694481 1965345 1688309 161459 -2057909 -4311991 -5962668 
639.915 -6615005 -6166982 -4784216 -2772469 -474584 1807107 3852835 5476585 
640.397 6512944 6819666 6267346 4778508 2342321 -975364 -5046698 -9694165 
640.879 -14677855 -19714636 -24441896 -28417016 -31217262 -32514378 
641.241 -32251808 -30722526 -28575050 -26603530 -25454942 -25484470 
641.602 -26635628 -28542288 -30678778 -32612164 -34137696 -35343948 
641.963 -36520416 -37987288 -39868528 -41963872 -43734688 -44489112 
642.325 -43682648 -41102816 -37002632 -31984676 -26866888 -22388042 
642.686 -19079666 -17206972 -16780014 -17666026 -19703110 -22765352 
643.048 -26712720 -31297952 -36111884 -40529168 -43857716 -45555480 
643.409 -45383484 -43537716 -40559016 -37179840 -34033884 -31549670 
643.771 -29897732 -29042052 -28860254 -29241618 -30129922 -31464528 
644.132 -33087804 -34681824 -35744168 -35772212 -34484956 -31984090 
644.494 -28744998 -25461630 -22849796 -21403260 -21348502 -22578296 
644.855 -24709856 -27128938 -29134364 -30111528 -29588170 -27395712 
645.216 -23718440 -19137724 -14506541 -10803961 -8960696 -9561359 -12733210 
645.638 -17997934 -24363494 -30383090 -34596344 -36071024 -34637860 
646.000 -30898704 -25807306 -20327622 -15104325 -10470874 -6602409 -3646128 
646.421 -1848617 -1546458 -3006687 -6271307 -10986434 -16447045 -21666294 
646.843 -25713816 -28023060 -28503132 -27551600 -25845052 -24135282 
647.204 -22922628 -22325382 -22057994 -21652676 -20716266 -19168826 
647.566 -17250376 -15389588 -13990302 -13265569 -13195600 -13533060 
647.927 -13919358 -13996108 -13571600 -12677637 -11570882 -10627232 
648.289 -10262750 -10827781 -12515770 -15342510 -19119206 -23495762 
648.650 -27941324 -31856328 -34710760 -36171520 -36251876 -35290556 
649.012 -33836752 -32411314 -31404518 -31034120 -31351160 -32306160 
649.373 -33778024 -35609268 -37594232 -39503252 -41121896 -42281756 
649.735 -42946748 -43257224 -43559688 -44320220 -46032184 -49067208 
650.096 -53499600 -58960708 -64541212 -68984480 -70898608 -69365752 
650.458 -64374372 -56837908 -48184076 -39792680 -32756328 -27642862 
650.819 -24588702 -23393798 -23649634 -24854788 -26547770 -28449166 
651.180 -30479842 -32763426 -35528244 -39006820 -43291776 -48243112 
651.542 -53388736 -57949640 -60902996 -61093740 -57655532 -50358288 
651.903 -39921848 -27825140 -15912058 -5754105 1791303 6501442 8696776 
652.325 8981873 8094161 6695686 5257698 4026835 2991181 1953430 616432 
652.807 -1285915 -3924404 -7309993 -11301339 -15606105 -19836462 -23590234 
653.229 -26472522 -28229676 -28844350 -28603808 -27996810 -27519632 
653.590 -27476432 -27857086 -28392186 -28676424 -28364034 -27266344 
653.952 -25455850 -23230946 -21050272 -19362078 -18472632 -18517880 
654.313 -19455900 -21146286 -23419794 -26154454 -29266832 -32659714 
654.674 -36159632 -39414664 -41876532 -42938944 -42108240 -39305836 
655.036 -34951520 -29841870 -24791920 -20380676 -16905308 -14388951 
655.397 -12703092 -11660499 -11097263 -10897486 -10994801 -11343305 
655.759 -11862119 -12398283 -12728641 -12563895 -11635758 -9781092 -7012491 
656.180 -3559147 139384 3461220 5792516 6671527 6003308 4123696 1725199 
656.662 -421326 -1774739 -2106152 -1533945 -391732 881265 1901710 2410019 
657.144 2273435 1465636 -7753 -2163127 -5051676 -8738111 -13247764 -18534264 
657.626 -24444652 -30721508 -37017604 -42813856 -47453132 -50198276 
657.988 -50372952 -47700588 -42515680 -35797568 -28810210 -22826282 
658.349 -18801958 -17153180 -17773382 -20020780 -22928252 -25342750 
658.711 -26320550 -25382036 -22591914 -18502004 -13928728 -9737615 -6541738 
659.132 -4653145 -4071254 -4593053 -5912302 -7716901 -9742669 -11728877 
659.554 -13425646 -14612920 -15129189 -14930298 -14087087 -12762908 
659.915 -11163760 -9523013 -8096177 -7122253 -6835485 -7402220 -8871267 
660.337 -11126427 -13860825 -16627768 -18865604 -20059886 -19858240 
660.699 -18140674 -15066625 -11053141 -6752434 -2894465 -226445 686848 
661.120 -329194 -2963941 -6449262 -9820064 -12075633 -12512067 -10887209 
661.542 -7483484 -3062623 1309707 4466529 5544170 4123529 375040 -5033303 
662.024 -11048878 -16545931 -20687456 -23038906 -23666956 -22971844 
662.385 -21512914 -19766466 -18029974 -16436294 -15002772 -13727392 
662.747 -12640145 -11794149 -11219978 -10878032 -10658433 -10411549 
663.108 -10023898 -9481585 -8896782 -8480450 -8461636 -9012721 -10150899 
663.530 -11713719 -13370323 -14741148 -15474520 -15359909 -14388246 
663.891 -12745115 -10754315 -8754900 -7028010 -5679515 -4619084 -3590399 
664.313 -2297852 -523003 1797392 4555987 7537757 10508095 13302192 15823774 
664.795 18015610 19800400 21014010 21417504 20775196 18950092 16025398 
665.217 12335453 8444028 4948926 2349650 913405 625822 1265973 2533448 
665.699 4199669 6134752 8284256 10558438 12709976 14321493 14899245 13995467 
666.181 11425558 7356615 2337890 -2887191 -7529338 -11001004 -13089871 
666.602 -13945382 -13987093 -13693554 -13499432 -13666874 -14293578 
666.964 -15378362 -16898360 -18872204 -21394682 -24706038 -29290746 
667.325 -36160820 -47567064 -68704064 -111329992 -198243120 -356184864 
667.687 -564945792 -702455936 -691480704 -602039488 -500798816 -409532192 
668.048 -332730880 -269817152 -218779744 -177302176 -143539184 -116229384 
668.410 -94514904 -77920904 -65954692 -57908960 -52866128 -49761852 
668.771 -47593848 -45545036 -43156740 -40310536 -37170440 -34048956 
669.132 -31305782 -29241092 -28011132 -27634498 -27971026 -28747852 
669.494 -29546538 -29881432 -29314128 -27558814 -24640644 -20904158 
669.855 -16935234 -13326207 -10552084 -8873441 -8321658 -8790456 -10122381 
670.277 -12200553 -14971562 -18425158 -22524566 -27117266 -31910826 
670.638 -36514264 -40513652 -43646536 -45873788 -47396452 -48531960 
671.000 -49586248 -50691700 -51740204 -52402364 -52269220 -51047716 
671.361 -48662644 -45287216 -41227976 -36814792 -32293398 -27833686 
671.723 -23575514 -19648076 -16199058 -13366210 -11228050 -9794763 -9020381 
672.145 -8861690 -9340314 -10577760 -12764967 -16097570 -20657282 -26323826 
672.566 -32689710 -39125864 -44838952 -49082328 -51450216 -52015036 
672.928 -51295344 -49944940 -48510064 -47192900 -45860344 -44158832 
673.289 -41723812 -38353472 -34112180 -29331102 -24528082 -20280096 
673.651 -17021774 -14988688 -14147579 -14246991 -14887076 -15665395 
674.012 -16307097 -16701650 -16923982 -17165568 -17652090 -18519722 
674.373 -19754310 -21199840 -22661236 -23999766 -25183972 -26251656 
674.735 -27223960 -28022158 -28448392 -28194466 -26966638 -24621702 
675.096 -21265060 -17276870 -13241401 -9858027 -7725820 -7274445 -8675952 
675.518 -11837421 -16427903 -21935972 -27781288 -33268090 -37697960 
675.880 -40489328 -41308064 -40229180 -37694348 -34331996 -30651362 
676.241 -26934906 -23264174 -19638828 -16131094 -12977009 -10534750 -9220926 
676.663 -9317224 -10832951 -13457836 -16641768 -19785462 -22403588 -24339214 
677.084 -25783452 -27195702 -29063900 -31724740 -35173016 -39024416 
677.446 -42540796 -44904212 -45614820 -44739156 -42893408 -40865804 
677.807 -39295972 -38413620 -38080448 -37912720 -37486436 -36471828 
678.169 -34747220 -32422230 -29784236 -27199840 -24994574 -23436086 
678.530 -22692054 -22837976 -23877222 -25747448 -28320920 -31361580 
678.892 -34523060 -37298380 -39031384 -39112720 -37191576 -33444800 
679.253 -28557706 -23519744 -19235018 -16255714 -14793254 -14715685 
679.615 -15665747 -17144356 -18681874 -19945182 -20820660 -21424802 
679.976 -22022782 -22894118 -24185428 -25857290 -27696988 -29445304 
680.337 -30902066 -32039400 -32996394 -33996472 -35160824 -36335412 
680.699 -37002572 -36495436 -34312436 -30435608 -25364502 -19944422 
681.060 -15101540 -11552976 -9755531 -9744905 -11160950 -13312550 -15417410 
681.482 -16835096 -17219550 -16637430 -15504063 -14454111 -14083590 
681.843 -14844971 -16942210 -20344634 -24811576 -29914062 -35058876 
682.205 -39410336 -42077988 -42404024 -40239960 -36033884 -30584324 
682.566 -24731922 -19086548 -14043365 -9815593 -6478088 -4042794 -2483274 
682.988 -1759988 -1814005 -2557131 -3859778 -5527711 -7346580 -9141446 
683.410 -10855347 -12614494 -14733396 -17647476 -21736832 -27140298 
683.771 -33505938 -39946268 -45121080 -47804628 -47453636 -44365544 
684.133 -39444016 -33730352 -28130526 -23178396 -19093588 -15859958 
684.494 -13345679 -11433324 -10112767 -9487192 -9728284 -10967954 -13212538 
684.916 -16301321 -19941510 -23794076 -27516336 -30841364 -33546702 
685.277 -35404360 -36182920 -35687616 -33907792 -31134644 -27994512 
685.639 -25243750 -23456774 -22896916 -23432980 -24641082 -25893534 
686.000 -26567968 -26201436 -24612310 -21976450 -18771972 -15657406 
686.362 -13236387 -11979912 -12105859 -13571504 -16118290 -19361730 
686.723 -22906598 -26359748 -29407932 -31822552 -33461214 -34299360 
687.084 -34436600 -34067612 -33380252 -32477762 -31323570 -29774862 
687.446 -27630954 -24728356 -21020758 -16625376 -11828651 -7023544 -2667431 
687.868 855136 3273791 4458327 4424250 3294189 1246101 -1564419 -5028783 
688.350 -9099721 -13753010 -18882228 -24207272 -29228204 -33214100 -35463116 
688.771 -35600260 -33808736 -30767534 -27398668 -24550346 -22722684 
689.133 -22077708 -22447986 -23463462 -24640392 -25531432 -25834750 
689.494 -25414850 -24332166 -22804998 -21188920 -19891222 -19331434 
689.856 -19879098 -21750954 -24961824 -29250572 -34110836 -38767508 
690.217 -42365584 -44249512 -44164788 -42383376 -39514596 -36248184 
690.578 -33055690 -30152240 -27578778 -25319712 -23406356 -21933452 
690.940 -20984450 -20535720 -20365310 -20087916 -19219992 -17391452 
691.301 -14503273 -10795784 -6773639 -3036400 -124698 1669682 2314405 
691.723 1995968 976928 -515954 -2400343 -4732435 -7620021 -11088381 
692.145 -15004148 -19058516 -22838418 -25913980 -27885396 -28504154 
692.506 -27702552 -25630956 -22620506 -19154876 -15785357 -12994503 
692.868 -11162242 -10454216 -10789352 -11839549 -13119641 -14128881 
693.229 -14454304 -13933958 -12696655 -11159432 -9871954 -9392327 -10115195 
693.651 -12158734 -15387286 -19463218 -23954804 -28343424 -32110032 
694.012 -34813832 -36138472 -36022568 -34679344 -32571680 -30241256 
694.374 -28189654 -26749046 -26003620 -25834002 -26007426 -26326258 
694.735 -26710942 -27242072 -28091020 -29417902 -31235454 -33340730 
695.097 -35294128 -36563484 -36667736 -35325192 -32531810 -28504680 
695.458 -23600024 -18209850 -12791735 -7860165 -3951624 -1644934 -1395349 
695.880 -3404595 -7501624 -13096815 -19231404 -24696364 -28425240 -29687886 
696.301 -28320050 -24717682 -19727112 -14406484 -9727571 -6521534 -5279235 
696.723 -6111706 -8764934 -12723911 -17363406 -22057142 -26334458 -29874720 
697.145 -32496702 -34146212 -34860712 -34755844 -33991420 -32757218 
697.506 -31228332 -29535518 -27777464 -26024840 -24350428 -22857530 
697.868 -21668122 -20903590 -20642212 -20874032 -21486236 -22280404 
698.229 -23050468 -23642888 -24044818 -24398138 -24972208 -26038230 
698.591 -27747376 -30053930 -32703936 -35301612 -37401720 -38675736 
698.952 -38969836 -38343344 -37003240 -35227496 -33258024 -31235978 
699.314 -29230838 -27287350 -25499000 -24069520 -23292188 -23491148 
699.675 -24948902 -27786198 -31892258 -36866356 -42101476 -46839716 
700.036 -50374928 -52259496 -52343624 -50795500 -47991012 -44450468 
700.398 -40702680 -37204016 -34308544 -32187880 -30850004 -30172826 
700.759 -29982534 -30099750 -30376200 -30703570 -30978866 -31091556 
701.121 -30936070 -30433322 -29586622 -28508498 -27428190 -26616338 
701.482 -26294198 -26532778 -27193554 -27948562 -28393210 -28240668 
701.844 -27429154 -26190984 -24953156 -24234408 -24424294 -25639202 
702.205 -27657816 -29970412 -31929512 -32910242 -32557756 -30862534 
702.567 -28181174 -25092410 -22296174 -20433186 -19915590 -20899800 
702.928 -23234022 -26530098 -30202192 -33626684 -36261352 -37711784 
703.289 -37843056 -36777772 -34868268 -32565628 -30343172 -28582154 
703.651 -27479450 -27044978 -27096782 -27334704 -27392976 -26980932 
704.012 -25986798 -24539230 -22990008 -21822360 -21521334 -22375296 
704.374 -24396886 -27279382 -30509958 -33457286 -35571504 -36555448 
704.735 -36412600 -35446076 -34113960 -32915864 -32211200 -32170002 
705.097 -32788958 -33941288 -35429740 -37017876 -38472364 -39552200 
705.458 -40047984 -39836336 -38915852 -37439540 -35683592 -34009220 
705.820 -32734514 -32042482 -31936898 -32249902 -32717672 -33074022 
706.181 -33164744 -32970778 -32599624 -32204952 -31923048 -31804476 
706.543 -31804752 -31808014 -31683438 -31336180 -30734720 -29927826 
706.904 -29037746 -28254482 -27789834 -27854040 -28601544 -30069790 
707.265 -32147448 -34566816 -36974152 -38963020 -40191392 -40453464 
707.627 -39694472 -38018980 -35646752 -32885208 -30058352 -27500256 
707.988 -25532712 -24393784 -24199498 -24855446 -26044126 -27229094 
708.350 -27814604 -27362114 -25724058 -23155718 -20233640 -17733910 
708.711 -16321234 -16366355 -17810242 -20210268 -22884530 -25166180 
709.073 -26655074 -27256886 -27153622 -26636532 -25982928 -25343406 
709.434 -24745852 -24165402 -23603350 -23129202 -22865042 -22906378 
709.796 -23255726 -23784258 -24277494 -24491474 -24246442 -23479596 
710.157 -22225788 -20569534 -18579790 -16290758 -13719013 -10913738 -8005594 
710.579 -5187440 -2669275 -593588 1042055 2395259 3729030 5281074 7171809 
711.061 9308252 11406305 13041867 13807815 13429610 11812371 9057212 5415219 
711.543 1253777 -3027746 -6995929 -10236505 -12448450 -13487099 -13444279 
711.964 -12623892 -11498736 -10542641 -10077254 -10190289 -10698101 
712.326 -11231570 -11368062 -10839706 -9627281 -7993818 -6358661 -5186261 
712.747 -4816724 -5370192 -6754685 -8722620 -10992895 -13320424 -15577081 
713.169 -17738934 -19838140 -21903522 -23916704 -25795348 -27416276 
713.531 -28638708 -29347948 -29496078 -29122064 -28365804 -27446790 
713.892 -26660776 -26303804 -26598450 -27623244 -29238428 -31071816 
714.253 -32553792 -33110618 -32285706 -29918268 -26204554 -21677390 
714.615 -17063892 -13051932 -10187474 -8694821 -8468980 -9128079 -10172650 
715.037 -11126880 -11639887 -11584045 -11040802 -10264271 -9572249 -9286414 
715.458 -9639239 -10719469 -12470537 -14698773 -17125722 -19412050 -21257708 
715.880 -22467054 -22997080 -22975740 -22661834 -22374258 -22365288 
716.241 -22767270 -23534464 -24473090 -25285516 -25688644 -25523526 
716.603 -24805222 -23730676 -22601194 -21742948 -21373548 -21556898 
716.964 -22191600 -23070922 -23940538 -24570512 -24813326 -24598972 
717.326 -23935520 -22888712 -21583258 -20192622 -18926768 -18030294 
717.687 -17712502 -18094846 -19158584 -20731272 -22509338 -24128638 
718.049 -25295394 -25836218 -25750228 -25163678 -24254808 -23144910 
718.410 -21842904 -20257802 -18280128 -15888356 -13240693 -10674242 -8651592 
718.832 -7634899 -7900513 -9467352 -12063967 -15250195 -18511182 -21435430 
719.254 -23815280 -25634862 -27022936 -28142794 -29113326 -29955040 
719.615 -30614464 -31025296 -31177172 -31142602 -31055220 -31030418 
719.976 -31098126 -31141244 -30919716 -30117278 -28478678 -25922158 
720.338 -22591664 -18828484 -15080931 -11810755 -9344529 -7841487 -7271610 
720.760 -7462478 -8145412 -9016519 -9795315 -10209159 -10037303 -9147123 
721.181 -7531747 -5357822 -2955977 -793960 680808 1139681 473279 -1184945 
721.663 -3508501 -6100304 -8657276 -11030595 -13262386 -15500802 -17901030 
722.085 -20515368 -23271052 -26006992 -28575548 -30917218 -33082616 
722.446 -35173444 -37237564 -39157596 -40643148 -41273444 -40671720 
722.808 -38685316 -35475420 -31507824 -27391202 -23738332 -20936618 
723.169 -19091684 -18064844 -17605480 -17480928 -17571084 -17877628 
723.531 -18440942 -19228234 -20073332 -20668246 -20672004 -19853934 
723.892 -18181126 -15867753 -13317821 -11055338 -9543823 -9107378 -9850642 
724.314 -11638565 -14111945 -16743448 -18976978 -20278326 -20304572 
724.675 -19003016 -16649356 -13783665 -11039510 -8998734 -7958522 -7869472 
725.097 -8348377 -8866754 -8927425 -8286259 -7056765 -5674609 -4727518 
725.519 -4704674 -5883406 -8234471 -11505545 -15326870 -19374058 -23427736 
725.940 -27346652 -31011414 -34229576 -36702752 -38108372 -38179780 
726.302 -36839384 -34243876 -30774386 -26925908 -23162220 -19866976 
726.663 -17259516 -15425565 -14377090 -14100078 -14579118 -15779223 
727.025 -17614388 -19906002 -22377816 -24715084 -26584738 -27716976 
727.386 -27951826 -27232644 -25609528 -23216278 -20273140 -17053124 
727.748 -13870324 -11051074 -8845554 -7398148 -6708163 -6651716 -7028141 
728.169 -7642908 -8379514 -9213693 -10203754 -11430097 -12952213 -14764336 
728.591 -16797292 -18936348 -21060562 -23050122 -24780122 -26121010 
728.952 -26925034 -27063316 -26487174 -25283046 -23703884 -22118518 
729.314 -20962318 -20576804 -21109296 -22453242 -24279688 -26121416 
729.675 -27495342 -28070398 -27701060 -26449918 -24517904 -22195440 
730.037 -19781822 -17529016 -15643951 -14248947 -13374147 -12956942 
730.398 -12861479 -12922335 -13001706 -13062574 -13197754 -13618614 
730.760 -14557811 -16179331 -18452150 -21118134 -23694816 -25623586 
731.121 -26452384 -25959240 -24270538 -21828252 -19309248 -17378880 
731.483 -16560093 -17092754 -18885782 -21560398 -24552288 -27297212 
731.844 -29299882 -30292680 -30285018 -29565202 -28608462 -27937844 
732.206 -28011720 -29062104 -31062930 -33736052 -36671024 -39420988 
732.567 -41650724 -43240308 -44276504 -44987840 -45600796 -46231868 
732.928 -46790456 -46997432 -46446856 -44791076 -41873676 -37821616 
733.290 -33015494 -28010604 -23401836 -19652350 -17075072 -15778232 
733.651 -15690165 -16592752 -18175024 -20092980 -21977016 -23516166 
734.013 -24497266 -24848436 -24676206 -24258786 -24000048 -24286266 
734.374 -25402974 -27405668 -30100028 -33064470 -35788412 -37838684 
734.736 -38927396 -38984616 -38100268 -36435692 -34118156 -31207332 
735.097 -27730528 -23765718 -19550748 -15538144 -12301056 -10464211 
735.459 -10478313 -12459300 -16125027 -20848926 -25847894 -30321974 
735.820 -33721460 -35814228 -36689140 -36651412 -36107620 -35443788 
736.181 -34928500 -34732356 -34933268 -35541064 -36506740 -37714060 
736.543 -38979920 -40047804 -40655220 -40592092 -39752556 -38174136 
736.904 -36019064 -33526212 -30922032 -28394266 -26064160 -23996630 
737.266 -22238632 -20833578 -19817182 -19200274 -18944624 -18962516 
737.627 -19132240 -19349942 -19559110 -19765834 -20014576 -20345962 
737.989 -20746466 -21135082 -21373296 -21325726 -20928218 -20230100 
738.350 -19399374 -18666734 -18262750 -18309162 -18775494 -19472724 
738.712 -20132332 -20474942 -20298974 -19539754 -18265738 -16651843 
739.073 -14910609 -13264604 -11888749 -10894706 -10345034 -10260097 
739.435 -10635768 -11448105 -12647033 -14134910 -15744746 -17258210 
739.796 -18404864 -18918646 -18614424 -17418098 -15404331 -12765418 -9782162 
740.218 -6737721 -3865755 -1345706 705565 2183945 2956551 2865487 1743396 
740.700 -512281 -3864671 -8077769 -12722302 -17281902 -21210094 -24098672 
741.121 -25749634 -26181222 -25596254 -24308762 -22690482 -21073944 
741.483 -19744906 -18910778 -18668830 -19003144 -19768556 -20723912 
741.844 -21551886 -21958968 -21768854 -20975736 -19764788 -18446626 
742.206 -17372098 -16783168 -16757444 -17185728 -17845192 -18477046 
742.567 -18893712 -19038538 -18971682 -18816426 -18675558 -18581980 
742.929 -18479968 -18262974 -17834316 -17178946 -16394211 -15682526 
743.290 -15271660 -15356999 -16025852 -17227768 -18778224 -20400498 
743.651 -21806762 -22733374 -23024544 -22656958 -21732104 -20424272 
744.013 -18917568 -17352806 -15789032 -14225443 -12644522 -11066869 -9594256 
744.435 -8414159 -7747921 -7811841 -8733175 -10510010 -12992894 -15914261 
744.856 -18931652 -21656616 -23746362 -24922560 -25010308 -23979730 
745.218 -21964386 -19278696 -16358729 -13746044 -11940039 -11259982 
745.579 -11770963 -13228191 -15149636 -16908942 -17970340 -18013000 
745.941 -17017602 -15236950 -13107135 -11106338 -9601192 -8825198 -8838996 
746.362 -9563562 -10805772 -12302118 -13754454 -14834084 -15258959 -14841673 
746.784 -13548831 -11535327 -9134762 -6796995 -4941587 -3902436 -3834095 
747.206 -4695561 -6267486 -8203714 -10114224 -11592304 -12325791 -12146072 
747.627 -11070164 -9315084 -7284285 -5514265 -4511771 -4673009 -6143037 
748.049 -8780975 -12198748 -15905030 -19487138 -22682526 -25434662 -27807362 
748.471 -29862100 -31547174 -32661926 -32904438 -32030936 -29977524 
748.832 -26966110 -23449020 -20038720 -17311354 -15640019 -15161379 
749.194 -15756410 -17143274 -18950684 -20843464 -22564580 -23940036 
749.555 -24882420 -25355252 -25356594 -24907198 -24048108 -22832600 
749.917 -21316706 -19568200 -17676428 -15770435 -14051544 -12765933 
750.278 -12159539 -12413546 -13546550 -15374749 -17516382 -19522238 
750.639 -20964182 -21582532 -21358218 -20495392 -19338724 -18233520 
751.001 -17458458 -17144164 -17292758 -17824268 -18639912 -19650164 
751.362 -20774956 -21938050 -23043586 -23984278 -24675330 -25077804 
751.724 -25225680 -25208140 -25144136 -25126310 -25190568 -25313742 
752.085 -25435070 -25487344 -25416600 -25190224 -24784348 -24174334 
752.447 -23339730 -22281568 -21045032 -19720906 -18436844 -17310908 
752.808 -16407387 -15726499 -15220826 -14852304 -14651427 -14739002 
753.170 -15302752 -16517384 -18436812 -20935764 -23704418 -26360404 
753.531 -28528730 -29985378 -30702212 -30809974 -30494976 -29885854 
753.893 -28997268 -27744858 -26033298 -23870354 -21424646 -19026232 
754.254 -17073830 -15873566 -15558316 -16020903 -16980640 -18067992 
754.615 -18983640 -19588154 -19907648 -20081462 -20270420 -20580754 
754.977 -21019588 -21510676 -21936916 -22199532 -22237844 -22037806 
755.338 -21615572 -21001878 -20237374 -19379476 -18524040 -17803786 
755.700 -17376236 -17410298 -18033568 -19310738 -21207664 -23583076 
756.061 -26168930 -28592020 -30461834 -31409268 -31211804 -29864048 
756.423 -27602348 -24852694 -22112976 -19852256 -18332192 -17556700 
756.784 -17277126 -17128556 -16767517 -16035879 -15024922 -14032650 
757.146 -13418065 -13414564 -14027453 -14996498 -15908416 -16331732 
757.507 -16037509 -15089859 -13856235 -12844495 -12551052 -13275338 
757.868 -15011254 -17451614 -20077382 -22350342 -23811076 -24243372 
758.230 -23708810 -22525856 -21156984 -20084596 -19725972 -20304002 
758.591 -21826928 -24068390 -26637374 -29021536 -30707060 -31329398 
758.953 -30723730 -28992682 -26452008 -23582388 -20881738 -18761470 
759.314 -17507662 -17223532 -17855814 -19223702 -21080606 -23133664 
759.676 -25078776 -26657722 -27662792 -27995256 -27693070 -26943690 
760.037 -26044718 -25322432 -25067484 -25417444 -26315094 -27493506 
760.399 -28564656 -29108152 -28815730 -27621814 -25742890 -23643924 
760.760 -21868646 -20934882 -21134198 -22448460 -24535660 -26838950 
761.122 -28747012 -29729412 -29514902 -28105962 -25754318 -22840964 
761.483 -19815316 -17109382 -15061921 -13934697 -13863231 -14836581 
761.844 -16669158 -19008346 -21384304 -23253558 -24173112 -23891428 
762.206 -22432442 -20083740 -17338160 -14768275 -12851733 -11937912 
762.567 -12171654 -13504058 -15716018 -18468504 -21367082 -23982272 
762.929 -25962360 -27088906 -27329010 -26851564 -25995568 -25188004 
763.290 -24790294 -25026950 -25899060 -27209116 -28621646 -29800446 
763.652 -30524628 -30718296 -30443486 -29819782 -28947986 -27853482 
764.013 -26498334 -24836264 -22885664 -20779600 -18768006 -17139386 
764.375 -16175117 -16053123 -16808988 -18338290 -20426832 -22797924 
764.736 -25122684 -27083490 -28391690 -28830490 -28331348 -27014126 
765.097 -25202136 -23323182 -21834334 -21058700 -21085530 -21760374 
765.459 -22748310 -23676274 -24235004 -24304406 -23949976 -23360924 
765.820 -22722462 -22129666 -21545864 -20850064 -19918282 -18724466 
766.182 -17377480 -16109351 -15183808 -14790309 -14992241 -15704289 
766.543 -16747529 -17912158 -19046116 -20072416 -20971034 -21730688 
766.905 -22293184 -22534254 -22307978 -21502602 -20129706 -18354872 
767.266 -16500350 -14943999 -13996526 -13806519 -14274085 -15074914 
767.628 -15742829 -15873343 -15247763 -13951254 -12332072 -10910798 
767.989 -10167342 -10342608 -11365319 -12864213 -14335000 -15302784 
768.351 -15557612 -15229176 -14761229 -14692270 -15451242 -17139386 
768.712 -19468130 -21821666 -23487098 -23960290 -23094394 -21199082 
769.073 -18894314 -16962542 -16050473 -16520415 -18402674 -21430480 
769.435 -25137254 -28949814 -32333504 -34793280 -35936500 -35539784 
769.796 -33579240 -30292156 -26139386 -21777204 -17860932 -14876350 
770.158 -13048459 -12275900 -12218271 -12429678 -12574904 -12531062 
770.519 -12445874 -12642913 -13500653 -15256401 -17884432 -21057026 
770.881 -24224038 -26778736 -28166084 -28077666 -26507498 -23776132 
771.242 -20428064 -17139642 -14563579 -13125974 -12972795 -13910213 
771.604 -15499619 -17141490 -18284068 -18591092 -18000094 -16731651 
771.965 -15175906 -13784018 -12905128 -12749459 -13387865 -14793606 
772.326 -16897404 -19613048 -22834078 -26376150 -29948422 -33182242 
772.688 -35649104 -37004820 -37089008 -35981612 -33980636 -31511646 
773.049 -29018872 -26819450 -25091566 -23886726 -23187852 -22967664 
773.411 -23205568 -23861102 -24808414 -25795848 -26464758 -26384912 
773.772 -25217926 -22828450 -19371396 -15264590 -11119064 -7600713 -5214811 
774.194 -4240073 -4631279 -6064429 -7987149 -9787054 -10967793 -11230279 
774.616 -10578278 -9286705 -7840283 -6753120 -6459154 -7208882 -9009671 
775.037 -11654145 -14778876 -17988014 -20886726 -23166710 -24640488 
775.399 -25230026 -24979560 -24040272 -22670670 -21176518 -19863114 
775.760 -18974060 -18608710 -18706408 -19055090 -19380996 -19414776 
776.122 -19001622 -18145948 -16994056 -15754364 -14591646 -13563026 
776.483 -12591706 -11520904 -10195274 -8558135 -6687249 -4784314 -3086113 
776.905 -1808462 -1070830 -881828 -1170835 -1843866 -2836730 -4129515 
777.327 -5733832 -7650493 -9823853 -12128253 -14375038 -16348390 -17877722 
777.748 -18864082 -19311912 -19317172 -19051920 -18723038 -18521118 
778.110 -18605820 -19061878 -19894640 -21037110 -22382126 -23813556 
778.471 -25228556 -26556904 -27740878 -28709984 -29369286 -29589718 
778.833 -29247536 -28281060 -26737612 -24794550 -22720450 -20830958 
779.194 -19369114 -18440432 -17987856 -17839024 -17794246 -17732732 
779.555 -17680436 -17801750 -18326824 -19430206 -21160328 -23385698 
779.917 -25835842 -28144532 -29976782 -31105004 -31435064 -31005244 
780.278 -29936146 -28386320 -26509088 -24467892 -22449120 -20653238 
780.640 -19305350 -18599790 -18644136 -19430648 -20822240 -22590814 
781.001 -24447440 -26127936 -27426914 -28220146 -28482960 -28272956 
781.363 -27716354 -26969942 -26217782 -25646230 -25414320 -25653072 
781.724 -26422142 -27685174 -29279068 -30930392 -32291614 -32996360 
782.086 -32787792 -31583994 -29539726 -27006746 -24485178 -22483636 
782.447 -21350836 -21216688 -21934144 -23160460 -24444998 -25415756 
782.809 -25884918 -25876366 -25572480 -25202574 -24926658 -24755586 
783.170 -24559646 -24140672 -23356560 -22196038 -20815956 -19471932 
783.531 -18446244 -17924716 -17943794 -18385554 -19028422 -19609344 
783.893 -19873464 -19641616 -18813602 -17387506 -15461154 -13250689 
784.254 -11083536 -9339632 -8437817 -8716061 -10346781 -13281380 -17229804 
784.676 -21705254 -26074986 -29741448 -32210122 -33182670 -32615178 
785.037 -30709652 -27889870 -24690200 -21722996 -19514666 -18381490 
785.399 -18379108 -19275240 -20649668 -22012264 -23016248 -23550470 
785.760 -23767098 -23978414 -24532468 -25655258 -27354244 -29417188 
786.122 -31487640 -33210970 -34306156 -34645508 -34223540 -33093456 
786.483 -31307046 -28903596 -25947816 -22573482 -19025756 -15647562 
786.845 -12778416 -10704049 -9568327 -9357209 -9934753 -11110440 -12708273 
787.266 -14573416 -16578943 -18590712 -20439666 -21958116 -23018260 
787.628 -23590234 -23759852 -23700056 -23586656 -23502542 -23399890 
787.989 -23118898 -22490148 -21439406 -20079406 -18699616 -17704898 
788.351 -17436306 -18061666 -19497972 -21455804 -23526364 -25324682 
788.712 -26619392 -27340088 -27559282 -27410240 -27036200 -26549610 
789.074 -26036138 -25581604 -25264320 -25135598 -25180438 -25297394 
789.435 -25307898 -25024292 -24354752 -23373642 -22345620 -21632186 
789.797 -21605862 -22485650 -24253836 -26635752 -29183008 -31396352 
790.158 -32831356 -33242278 -32588926 -31015950 -28759572 -26091150 
790.519 -23259840 -20464416 -17892476 -15723655 -14125577 -13254995 
790.881 -13203346 -13965372 -15410438 -17306546 -19359258 -21271622 
791.242 -22842472 -23994124 -24794330 -25406694 -26029086 -26785558 
791.604 -27652436 -28431416 -28810770 -28497732 -27343602 -25469192 
791.965 -23270392 -21348030 -20270864 -20430910 -21887204 -24357228 
792.327 -27279040 -29995242 -31986554 -32955944 -32911408 -32073688 
792.688 -30760250 -29226192 -27604026 -25918224 -24140392 -22254656 
793.050 -20288604 -18292326 -16302023 -14305954 -12260342 -10135167 -7980740 
793.471 -5951066 -4302608 -3303195 -3140328 -3856100 -5322965 -7286533 
793.893 -9447997 -11586046 -13590162 -15467037 -17281264 -19091400 -20900686 
794.315 -22658878 -24290120 -25736894 -26977196 -28007496 -28810056 
794.676 -29321222 -29425550 -29001236 -27970840 -26359156 -24302840 
795.038 -22044042 -19874950 -18069326 -16882808 -16514163 -17093166 
795.399 -18668768 -21158500 -24310924 -27661360 -30631170 -32617636 
795.760 -33175762 -32201968 -29982936 -27140486 -24392344 -22413060 
796.122 -21597162 -21977804 -23250952 -24907012 -26416498 -27356980 
796.483 -27550700 -27042240 -26034078 -24772360 -23475892 -22296772 
796.845 -21309070 -20544822 -20015242 -19732242 -19724960 -20042580 
797.206 -20750762 -21921512 -23595504 -25740984 -28204122 -30716414 
797.568 -32909476 -34406140 -34966836 -34562596 -33420044 -31922090 
797.929 -30511780 -29508370 -29010348 -28889706 -28869554 -28657566 
798.291 -28053532 -27029940 -25699420 -24232090 -22737714 -21210126 
798.652 -19530000 -17556414 -15225753 -12650476 -10116911 -8057929 -6896734 
799.074 -6913855 -8156989 -10404563 -13220510 -16050281 -18409404 -19946510 
799.495 -20522920 -20213874 -19271406 -18051146 -16905660 -16148364 
799.857 -15964504 -16390989 -17319918 -18532614 -19743830 -20637346 
800.218 -20948586 -20484424 -19169872 -17075488 -14436068 -11640532 -9145501 
800.640 -7441502 -6899213 -7664264 -9597757 -12282309 -15116708 -17429334 
801.062 -18723578 -18783332 -17747142 -16025949 -14192125 -12788744 
801.423 -12154449 -12395127 -13375496 -14824670 -16414663 -17878168 
801.785 -19049828 -19855898 -20298248 -20420636 -20290090 -19980086 
802.146 -19569404 -19124850 -18680224 -18227708 -17720964 -17107374 
802.508 -16366260 -15547127 -14767378 -14186930 -13929241 -14024789 
802.869 -14379238 -14812725 -15121508 -15170978 -14960998 -14623877 
803.230 -14357247 -14303742 -14469335 -14680194 -14651267 -14079581 
803.592 -12805891 -10895450 -8658737 -6539518 -5001368 -4382454 -4777432 
804.014 -6034497 -7814510 -9747918 -11523937 -13003861 -14223840 -15343630 
804.435 -16545741 -17946052 -19544696 -21220160 -22769094 -23961450 
804.797 -24624458 -24665658 -24096854 -23013296 -21571624 -19943598 
805.158 -18268024 -16635356 -15065505 -13523522 -11944713 -10280904 -8537537 
805.580 -6801529 -5231900 -4043516 -3459164 -3634069 -4623346 -6341551 
806.002 -8587372 -11060053 -13444922 -15498660 -17091924 -18261956 -19196090 
806.423 -20194866 -21558728 -23508978 -26093054 -29146200 -32287582 
806.785 -35004836 -36829400 -37437260 -36792872 -35148512 -32996792 
807.146 -30891328 -29276900 -28384706 -28144720 -28232906 -28173940 
807.508 -27555986 -26148714 -24009892 -21446344 -18943198 -17005908 
807.869 -16010109 -16168669 -17481374 -19777200 -22743878 -26009704 
808.231 -29181738 -31864456 -33736300 -34556808 -34211756 -32740720 
808.592 -30341780 -27344318 -24117418 -21029500 -18347472 -16204294 
808.953 -14633039 -13616108 -13151916 -13285975 -14088883 -15599265 
809.315 -17743706 -20305742 -22910274 -25098070 -26473240 -26782070 
809.676 -26022626 -24435162 -22464002 -20612636 -19316222 -18878866 
810.038 -19390788 -20743906 -22652208 -24747416 -26630706 -27977734 
810.399 -28641622 -28678658 -28338986 -27950116 -27818302 -28078940 
810.761 -28647856 -29241958 -29511620 -29185144 -28186642 -26681436 
811.122 -25016942 -23587000 -22642144 -22212282 -22081958 -21917606 
811.484 -21393074 -20368946 -18951668 -17474466 -16357070 -15963322 
811.845 -16510207 -18006390 -20288414 -23075478 -26067686 -28958866 
812.206 -31472110 -33391234 -34556904 -34917492 -34549832 -33667468 
812.568 -32560524 -31506806 -30701996 -30185036 -29860182 -29565884 
812.929 -29196360 -28777838 -28488484 -28563044 -29184122 -30343046 
813.291 -31812452 -33176344 -33997484 -33988292 -33101808 -31544894 
813.652 -29662758 -27789492 -26080884 -24483894 -22792484 -20811786 
814.014 -18496734 -16052132 -13870773 -12444940 -12163148 -13174096 
814.375 -15345804 -18300268 -21530256 -24491192 -26775246 -28156518 
814.737 -28621492 -28334236 -27588700 -26734248 -26079482 -25871558 
815.098 -26231662 -27134946 -28410312 -29778110 -30922524 -31548038 
815.460 -31489522 -30744722 -29482456 -27970900 -26516288 -25373910 
815.821 -24672294 -24400896 -24409164 -24465886 -24297170 -23681170 
816.182 -22512706 -20831872 -18822868 -16766720 -14984398 -13726269 
816.544 -13135522 -13218903 -13878443 -14962438 -16335275 -17925512 
816.905 -19714478 -21699202 -23833722 -25980306 -27918114 -29391024 
817.267 -30159290 -30086734 -29162714 -27502836 -25299800 -22796886 
817.628 -20251446 -17901920 -15997846 -14771221 -14397413 -14956485 
817.990 -16366962 -18375612 -20566944 -22497540 -23801070 -24291186 
818.351 -24012652 -23197778 -22170692 -21205360 -20473552 -20004894 
818.713 -19727398 -19528130 -19316444 -19050016 -18715834 -18301126 
819.074 -17767530 -17055226 -16124835 -15000947 -13810243 -12756634 
819.435 -12094387 -12041924 -12700582 -14013914 -15755227 -17587822 
819.797 -19104368 -19953536 -19909134 -18910588 -17081064 -14698068 
820.158 -12145137 -9793792 -7960311 -6829352 -6430066 -6668520 -7389352 
820.580 -8457802 -9798359 -11406246 -13300211 -15453864 -17750832 -19977492 
821.002 -21862440 -23185308 -23840026 -23886818 -23513182 -22968858 
821.363 -22455696 -22055632 -21734058 -21383642 -20901096 -20233292 
821.725 -19396744 -18444308 -17424972 -16355889 -15245268 -14145174 
822.086 -13187597 -12601523 -12645970 -13488865 -15117989 -17281296 
822.448 -19560630 -21459840 -22615506 -22911596 -22516450 -21792172 
822.809 -21155660 -20922536 -21184788 -21810828 -22505154 -22947456 
823.170 -22865764 -22128280 -20760334 -18927020 -16894060 -14979084 
823.532 -13539035 -12874572 -13170400 -14404369 -16302215 -18328414 
823.893 -19784546 -20058842 -18776668 -15998995 -12198652 -8169345 -4736990 
824.315 -2505973 -1762826 -2418400 -4124854 -6409009 -8867209 -11221495 
824.737 -13331669 -15146213 -16614182 -17638538 -18089984 -17844874 
825.098 -16861806 -15223161 -13154263 -10973544 -9028331 -7654595 -7085321 
825.520 -7430786 -8643243 -10520973 -12708112 -14750724 -16228966 -16825438 
825.942 -16456136 -15294052 -13748612 -12325437 -11465660 -11446103 
826.303 -12276093 -13725530 -15392050 -16866714 -17817016 -18074030 
826.664 -17651868 -16712617 -15512600 -14328236 -13445532 -13098648 
827.026 -13433100 -14477796 -16113086 -18080386 -20005528 -21517138 
827.387 -22309172 -22215084 -21237198 -19513716 -17262890 -14705082 
827.749 -12054653 -9501618 -7221722 -5410347 -4251032 -3878070 -4328689 
828.171 -5501178 -7152206 -8927166 -10474205 -11498543 -11851028 -11559880 
828.592 -10818247 -9933360 -9239545 -9075126 -9696595 -11238382 -13678175 
829.014 -16812080 -20265708 -23527056 -26102788 -27597156 -27833282 
829.375 -26895854 -25109454 -22942930 -20846274 -19179004 -18095738 
829.737 -17545754 -17317562 -17133366 -16737135 -15952080 -14741308 
830.098 -13208007 -11580400 -10131186 -9126132 -8728466 -8940247 -9587483 
830.520 -10365482 -10950217 -11083697 -10693090 -9901298 -8977281 -8194187 
830.942 -7725755 -7581243 -7636950 -7729564 -7786163 -7901293 -8332841 
831.363 -9379357 -11197892 -13670181 -16361058 -18643914 -19855866 -19588154 
831.785 -17808812 -14894215 -11460819 -8200885 -5667872 -4121769 -3559081 
832.207 -3785387 -4565906 -5703159 -7087277 -8651267 -10284140 -11779993 
832.628 -12829761 -13057205 -12153837 -9958976 -6543011 -2200249 2568777 
833.050 7149644 10963882 13494547 14409819 13608141 11220346 7580812 3142508 
833.532 -1584623 -6188933 -10396572 -14087087 -17257668 -19938156 -22118298 
833.954 -23726284 -24652290 -24829818 -24303184 -23263734 -21997490 
834.315 -20782792 -19807498 -19089910 -18508800 -17880806 -17089122 
834.677 -16161198 -15293700 -14761614 -14817368 -15543611 -16795314 
835.038 -18201842 -19287158 -19628440 -18952300 -17248370 -14759756 
835.400 -11945680 -9322250 -7372967 -6434866 -6612917 -7787140 -9644359 
835.821 -11798535 -13856685 -15550803 -16795920 -17677668 -18386378 
836.183 -19107698 -19937270 -20824008 -21599716 -22058464 -22079974 
836.544 -21690376 -21075744 -20490176 -20174496 -20242054 -20644012 
836.906 -21196020 -21669004 -21888274 -21778780 -21374494 -20759226 
837.267 -20000846 -19106112 -18032454 -16737580 -15237270 -13632421 
837.628 -12083109 -10733111 -9655928 -8815359 -8107592 -7436584 -6811935 
838.050 -6382007 -6404013 -7111822 -8607513 -10763463 -13247411 -15584689 
838.472 -17324184 -18211312 -18238730 -17636884 -16733946 -15840024 
838.833 -15106181 -14508945 -13903666 -13141308 -12163502 -11057599 
839.195 -10020855 -9300813 -9094562 -9474874 -10383341 -11657177 -13102731 
839.616 -14532305 -15818011 -16901326 -17782510 -18508958 -19157826 
839.978 -19820160 -20567480 -21426726 -22346500 -23196428 -23772776 
840.339 -23858310 -23306130 -22090620 -20347446 -18333940 -16385181 
840.701 -14792902 -13732497 -13227934 -13160884 -13327654 -13518800 
841.062 -13609173 -13578987 -13514946 -13554290 -13842049 -14474879 
841.424 -15479763 -16821612 -18424268 -20191544 -22002814 -23715492 
841.785 -25144730 -26057794 -26232192 -25501250 -23842818 -21423414 
842.147 -18616488 -15925441 -13831811 -12706760 -12659037 -13516263 
842.508 -14851984 -16150026 -16950274 -16975510 -16219551 -14911857 
842.870 -13428024 -12127415 -11286327 -11028172 -11336493 -12101831 
843.231 -13169982 -14375487 -15523533 -16408376 -16827286 -16624482 
843.592 -15776731 -14445843 -12992187 -11855670 -11455721 -12014915 
843.954 -13464774 -15444015 -17422490 -18916426 -19630752 -19605130 
844.315 -19168540 -18832894 -19053886 -20094338 -21939750 -24333450 
844.677 -26857452 -29059344 -30587598 -31195954 -30763058 -29264758 
845.038 -26761354 -23421268 -19549448 -15637014 -12268910 -10022409 -9328217 
845.460 -10294301 -12662705 -15838649 -19109092 -21778338 -23401992 
845.821 -23891336 -23475358 -22572822 -21597792 -20857326 -20456608 
846.183 -20343148 -20390414 -20506328 -20688246 -21027860 -21647790 
846.544 -22634628 -23969792 -25519278 -27044420 -28271932 -28973868 
846.906 -28998044 -28312196 -26990616 -25201012 -23158514 -21106992 
847.267 -19301516 -17956224 -17232098 -17189552 -17758114 -18716120 
847.629 -19718088 -20389590 -20389180 -19550050 -17933684 -15838554 
847.990 -13697792 -11954545 -10938069 -10737248 -11194437 -11961346 
848.352 -12666567 -13027816 -12980997 -12681820 -12440754 -12562028 
848.713 -13192675 -14243240 -15402124 -16256703 -16435305 -15789319 
849.074 -14445779 -12789065 -11293462 -10402492 -10358332 -11128139 
849.436 -12422079 -13797307 -14825726 -15178082 -14735543 -13581170 
849.797 -11963893 -10202395 -8626516 -7526505 -7085223 -7369709 -8305048 
850.219 -9694683 -11230504 -12567629 -13426417 -13647127 -13267401 -12503375 
850.641 -11706398 -11219203 -11272606 -11904514 -12943819 -14054817 
851.002 -14843145 -15016823 -14462861 -13305320 -11833842 -10418472 -9355426 
851.424 -8776851 -8642042 -8781170 -8991269 -9122531 -9155558 -9203961 
851.846 -9471535 -10146594 -11328036 -12953500 -14815351 -16592050 -17955620 
852.267 -18672036 -18631566 -17872030 -16532280 -14811829 -12902394 
852.629 -10971992 -9167043 -7610806 -6430164 -5751718 -5673628 -6247727 
853.050 -7440753 -9129539 -11093064 -13056851 -14746721 -15914071 -16403399 
853.472 -16167806 -15280585 -13915893 -12334648 -10848140 -9738813 -9237924 
853.894 -9460998 -10388032 -11865182 -13644847 -15454759 -17028400 -18175724 
854.315 -18792440 -18845584 -18353538 -17356276 -15906660 -14068547 
854.677 -11940845 -9668599 -7423848 -5398893 -3756087 -2592078 -1938877 
855.099 -1772099 -2045608 -2716496 -3756481 -5129551 -6748063 -8451108 
855.520 -9981708 -11024133 -11305633 -10657624 -9105139 -6864154 -4317371 
855.942 -1897906 24188 1187888 1507362 1045841 -20277 -1478968 -3122236 
856.424 -4781988 -6355168 -7780435 -9023464 -10059610 -10855929 -11372904 
856.846 -11576787 -11457689 -11058955 -10495747 -9975976 -9758415 -10118950 
857.267 -11278095 -13308019 -16086649 -19276510 -22415420 -24970456 
857.629 -26503352 -26792974 -25870028 -24011272 -21636474 -19224112 
857.990 -17150790 -15641330 -14746048 -14368082 -14319996 -14393726 
858.352 -14432766 -14347631 -14132601 -13845548 -13589873 -13481477 
858.713 -13621568 -14084841 -14893928 -16012505 -17342046 -18748902 
859.075 -20083708 -21215302 -22065708 -22606950 -22853978 -22838260 
859.436 -22585812 -22103404 -21383610 -20420698 -19230010 -17857722 
859.797 -16382245 -14892199 -13474796 -12206351 -11145804 -10349661 -9876586 
860.219 -9780121 -10097488 -10821382 -11885010 -13153909 -14456099 -15626051 
860.641 -16532600 -17120720 -17400844 -17420134 -17215666 -16784060 
861.002 -16078316 -15049662 -13704919 -12168400 -10682583 -9597919 -9254790 
861.424 -9867128 -11438035 -13717761 -16251916 -18464694 -19865740 -20152450 
861.846 -19316380 -17628484 -15575578 -13702095 -12419986 -11943842 
862.207 -12224359 -13014118 -13945638 -14682597 -15013526 -14890598 
862.569 -14424946 -13823081 -13308116 -13029746 -13038363 -13280866 
862.930 -13646003 -14007690 -14283062 -14463374 -14614682 -14853392 
863.291 -15304384 -16067013 -17172990 -18571346 -20122400 -21630736 
863.653 -22864256 -23600714 -23691806 -23084024 -21850372 -20169562 
864.014 -18313388 -16574860 -15200126 -14359812 -14102580 -14368724 
864.376 -15016471 -15878262 -16788492 -17604526 -18222942 -18560010 
864.737 -18553566 -18172738 -17434680 -16428413 -15312092 -14311661 
865.099 -13654737 -13514786 -13968741 -14966408 -16350305 -17893272 
865.460 -19378682 -20621294 -21492606 -21916252 -21835122 -21207822 
865.822 -20023438 -18343056 -16337382 -14286974 -12569529 -11530552 
866.183 -11386073 -12126642 -13503801 -15082339 -16378608 -17056406 
866.544 -17009126 -16415715 -15639666 -15121477 -15184064 -15931191 
866.906 -17235888 -18818266 -20370464 -21662448 -22629250 -23350312 
867.267 -23981112 -24639140 -25332558 -25922034 -26175482 -25828632 
867.629 -24706382 -22800816 -20305140 -17573758 -15033116 -13106588 
867.990 -12072410 -12027775 -12863764 -14321471 -16044756 -17677892 
868.352 -18971046 -19794960 -20155360 -20137330 -19849314 -19366294 
868.713 -18720976 -17943444 -17110434 -16391722 -16060276 -16402889 
869.075 -17635896 -19777168 -22593678 -25592600 -28142016 -29678354 
869.436 -29814554 -28494504 -25975096 -22760006 -19403590 -16366897 
869.798 -13935050 -12168883 -10972832 -10178477 -9644911 -9295138 -9131875 
870.219 -9204253 -9565994 -10230260 -11146321 -12186345 -13167764 -13881203 
870.641 -14119611 -13753909 -12782469 -11388591 -9919402 -8864839 -8736422 
871.063 -9892586 -12449287 -16183672 -20592508 -24947494 -28538160 -30871978 
871.484 -31787566 -31502708 -30501896 -29374426 -28570644 -28316076 
871.846 -28553334 -29016052 -29321284 -29125502 -28253396 -26737706 
872.207 -24817990 -22851116 -21245054 -20317410 -20230636 -20947796 
872.569 -22243102 -23741468 -24999612 -25645824 -25425724 -24270006 
872.930 -22282764 -19706372 -16850490 -14018181 -11503221 -9542137 -8313142 
873.352 -7934186 -8428263 -9702913 -11530197 -13599668 -15554863 -17096990 
873.773 -18087506 -18576712 -18795074 -19042152 -19591512 -20549404 
874.135 -21815806 -23106332 -24086354 -24500524 -24280814 -23575576 
874.496 -22687084 -21935940 -21500396 -21355916 -21271558 -20933018 
874.858 -20048368 -18496004 -16368046 -13951831 -11610661 -9668794 -8336871 
875.280 -7663255 -7578344 -7956245 -8687513 -9696077 -10932705 -12342184 
875.701 -13821765 -15222074 -16387701 -17198660 -17636088 -17796282 
876.063 -17873048 -18072884 -18544582 -19315620 -20277630 -21210284 
876.424 -21848544 -21981206 -21494466 -20424398 -18938630 -17312754 
876.786 -15842834 -14771285 -14250582 -14302011 -14829633 -15643630 
877.147 -16525455 -17263242 -17704996 -17800130 -17597652 -17227226 
877.508 -16837008 -16554320 -16430264 -16432816 -16460508 -16392073 
877.870 -16133616 -15652165 -14993553 -14274278 -13659810 -13316857 
878.231 -13398146 -14003840 -15153572 -16764583 -18641404 -20507780 
878.593 -22027948 -22923634 -23063758 -22536174 -21646498 -20854202 
878.954 -20654502 -21384650 -23139256 -25697264 -28604522 -31255804 
879.316 -33105646 -33842116 -33428420 -32087780 -30164172 -28003364 
879.677 -25812270 -23643484 -21441360 -19139658 -16752629 -14428055 
880.039 -12406784 -10969247 -10326528 -10540830 -11510191 -12996625 
880.400 -14708926 -16350081 -17701622 -18633058 -19088388 -19071644 
880.762 -18626708 -17837274 -16818362 -15729215 -14756809 -14073551 
881.123 -13821669 -14069349 -14798410 -15903786 -17220696 -18557852 
881.484 -19717264 -20545360 -20943658 -20880506 -20390760 -19567470 
881.846 -18543790 -17458650 -16451703 -15637269 -15094884 -14878944 
882.207 -15013399 -15490507 -16254757 -17189870 -18106258 -18740684 
882.569 -18828992 -18154530 -16635804 -14370230 -11637307 -8832730 -6338155 
882.990 -4465171 -3354161 -2969502 -3134341 -3614387 -4197251 -4740825 
883.412 -5205513 -5626401 -6073871 -6607956 -7268483 -8078160 -9056921 
883.834 -10232007 -11621629 -13206689 -14895720 -16521435 -17868502 
884.195 -18714152 -18914870 -18445640 -17421534 -16057720 -14634993 
884.557 -13430915 -12643846 -12377609 -12617101 -13253099 -14105017 
884.918 -14979084 -15714388 -16207516 -16449789 -16525902 -16603244 
885.280 -16870346 -17493212 -18550518 -20000402 -21681770 -23358224 
885.641 -24803406 -25844116 -26421642 -26587978 -26476668 -26236308 
886.003 -25978216 -25750228 -25533712 -25271886 -24905102 -24401742 
886.364 -23765876 -23033374 -22251192 -21466150 -20707674 -19982302 
886.725 -19271818 -18535502 -17717114 -16751513 -15591114 -14227143 
887.087 -12716703 -11184007 -9823368 -8868378 -8529902 -8973322 -10262297 
887.509 -12342087 -15029307 -18043484 -21055986 -23699304 -25649884 
887.870 -26652082 -26551512 -25343060 -23184428 -20394808 -17368914 
888.232 -14536631 -12253062 -10718144 -9974358 -9906415 -10307146 -10926760 
888.653 -11566849 -12123581 -12599495 -13081222 -13691274 -14532177 
889.015 -15636630 -16951388 -18342770 -19643832 -20686254 -21361434 
889.376 -21649554 -21618978 -21391970 -21088940 -20783106 -20463784 
889.738 -20047262 -19419368 -18509688 -17341918 -16059700 -14873052 
890.099 -13999766 -13557052 -13501585 -13617104 -13588524 -13125588 
890.460 -12072378 -10508489 -8740319 -7232508 -6417105 -6585732 -7782811 
890.882 -9804838 -12246555 -14623524 -16527720 -17675760 -17981308 -17520390 
891.304 -16481338 -15085219 -13538328 -12021265 -10665514 -9569689 -8800554 
891.726 -8386567 -8321431 -8565185 -9062016 -9753198 -10599522 -11593401 
892.147 -12754382 -14113709 -15689557 -17462310 -19359608 -21250892 
892.509 -22952486 -24273232 -25036990 -25134190 -24562902 -23450246 
892.870 -22047694 -20667992 -19651336 -19252292 -19573742 -20539228 
893.232 -21911872 -23359072 -24526516 -25162992 -25159864 -24579842 
893.593 -23609784 -22513524 -21552328 -20921398 -20752498 -21099102 
893.954 -21948382 -23221366 -24775774 -26409170 -27860536 -28878082 
894.316 -29259492 -28912026 -27885240 -26363398 -24617256 -22906346 
894.677 -21436724 -20296856 -19461288 -18828992 -18287530 -17769216 
895.039 -17273494 -16857150 -16593389 -16524179 -16625918 -16806026 
895.400 -16931410 -16890586 -16629171 -16187981 -15688919 -15318073 
895.762 -15265486 -15677765 -16637271 -18135526 -20075832 -22267562 
896.123 -24460000 -26342972 -27581732 -27905406 -27152750 -25367192 
896.485 -22815656 -20000244 -17539484 -16002029 -15804496 -17041750 
896.846 -19463028 -22490650 -25419914 -27577566 -28525750 -28210830 
897.208 -26950136 -25319024 -23898014 -23136898 -23179308 -23862672 
897.569 -24790950 -25520934 -25732990 -25324340 -24434410 -23355586 
897.930 -22409472 -21796616 -21548954 -21523162 -21484912 -21182924 
898.292 -20453732 -19272388 -17748000 -16075475 -14463182 -13096751 
898.653 -12094645 -11518452 -11394304 -11727136 -12505887 -13691660 
899.015 -15207165 -16919172 -18651404 -20230542 -21508436 -22418472 
899.376 -22990952 -23347234 -23651078 -24048516 -24617164 -25328496 
899.738 -26060666 -26639554 -26919680 -26825464 -26384538 -25704978 
900.099 -24942738 -24236790 -23663660 -23230790 -22890756 -22581378 
900.461 -22258370 -21916094 -21578718 -21276796 -21023566 -20810648 
900.822 -20621136 -20456608 -20355446 -20389718 -20630016 -21107814 
901.183 -21774652 -22501850 -23098854 -23390406 -23273062 -22754252 
901.545 -21946178 -21027922 -20186358 -19549194 -19177956 -19067966 
901.906 -19180080 -19462048 -19858430 -20302738 -20692320 -20897622 
902.268 -20788286 -20276240 -19373710 -18211980 -17025152 -16056826 
902.629 -15495910 -15397646 -15676677 -16144821 -16600948 -16919172 
902.991 -17073990 -17133082 -17191238 -17306640 -17456898 -17551674 
903.352 -17481914 -17195442 -16735572 -16240649 -15876314 -15777722 
903.714 -15982613 -16429402 -16988924 -17534268 -17993928 -18360526 
904.075 -18671116 -18957694 -19208676 -19364710 -19348674 -19119494 
904.437 -18713168 -18248708 -17887420 -17756176 -17904590 -18275870 
904.798 -18745920 -19174628 -19480200 -19662832 -19785906 -19913566 
905.159 -20051660 -20108606 -19925878 -19325888 -18200860 -16572947 
905.521 -14612407 -12597178 -10822190 -9558409 -8973938 -9122238 -9945731 
905.943 -11293268 -12931148 -14552685 -15847530 -16530206 -16421076 
906.304 -15508155 -13965275 -12123775 -10367812 -9076975 -8502708 -8724764 
906.726 -9660854 -11118644 -12867720 -14686055 -16409462 -17911458 -19087976 
907.147 -19861752 -20194328 -20131700 -19820064 -19516600 -19514952 
907.509 -20043022 -21187910 -22832664 -24692296 -26387346 -27608038 
907.870 -28197136 -28193876 -27776626 -27171144 -26532436 -25875490 
908.232 -25085218 -23989858 -22473944 -20555630 -18416806 -16345007 
908.593 -14664946 -13609976 -13275403 -13606186 -14444689 -15589868 
908.955 -16865980 -18175598 -19493030 -20848104 -22283552 -23820046 
909.316 -25424506 -27000736 -28382470 -29369378 -29762116 -29403874 
909.678 -28241474 -26346464 -23919402 -21226692 -18562044 -16164582 
910.039 -14164480 -12595279 -11423964 -10614202 -10173622 -10163134 
910.400 -10659241 -11686916 -13156964 -14839783 -16387893 -17462404 
910.762 -17817304 -17414722 -16438048 -15248499 -14244169 -13705112 
911.123 -13724053 -14162364 -14717478 -15002708 -14706524 -13677373 
911.485 -11978204 -9858221 -7701635 -5932730 -4890742 -4799356 -5696619 
911.906 -7437691 -9703367 -12085075 -14194787 -15735606 -16609335 -16920606 
912.328 -16943358 -16996380 -17351850 -18138704 -19304146 -20641864 
912.690 -21871356 -22754786 -23145884 -23035574 -22519342 -21752590 
913.051 -20883380 -20022550 -19252356 -18635628 -18240828 -18140578 
913.413 -18380694 -18945926 -19730058 -20554746 -21194412 -21458422 
913.774 -21260136 -20640758 -19754942 -18800910 -17953586 -17282696 
914.135 -16737772 -16168477 -15405546 -14327049 -12926838 -11325066 -9753134 
914.557 -8487728 -7763999 -7743820 -8462644 -9833992 -11662402 -13702159 
914.979 -15706878 -17467878 -18869792 -19889542 -20589632 -21077986 
915.340 -21476744 -21878478 -22319498 -22777992 -23182636 -23437344 
915.702 -23430594 -23059330 -22238600 -20908894 -19061274 -16758909 
916.063 -14163102 -11512353 -9112213 -7264833 -6170608 -5887035 -6290021 
916.485 -7127664 -8076793 -8872045 -9386069 -9654730 -9844067 -10162908 
916.907 -10766436 -11673337 -12762072 -13823242 -14676734 -15248019 
917.268 -15628992 -16038658 -16756391 -17983056 -19747914 -21871356 
917.629 -24019894 -25813582 -26935562 -27261490 -26878848 -26058918 
917.991 -25129406 -24391780 -24012402 -23988104 -24172204 -24344414 
918.352 -24306130 -23934706 -23235594 -22328184 -21411146 -20680440 
918.714 -20280854 -20268300 -20602432 -21166546 -21801090 -22352040 
919.075 -22681552 -22696834 -22360222 -21690060 -20762576 -19704440 
919.437 -18697330 -17941474 -17633352 -17930280 -18892126 -20452214 
919.798 -22394052 -24401146 -26082850 -27084080 -27191624 -26379020 
920.160 -24838580 -22918698 -21068168 -19683352 -19022776 -19158840 
920.521 -19973346 -21210126 -22553918 -23742974 -24600788 -25069988 
920.883 -25189130 -25049408 -24741846 -24320824 -23796900 -23145098 
921.244 -22331330 -21337336 -20178988 -18911032 -17621388 -16404580 
921.605 -15353224 -14538169 -13998322 -13748484 -13785977 -14104729 
921.967 -14704314 -15592009 -16773637 -18233872 -19917426 -21713352 
922.328 -23447358 -24923780 -25949190 -26389246 -26217250 -25531244 
922.690 -24543644 -23512586 -22702024 -22286888 -22312508 -22692652 
923.051 -23252648 -23799910 -24187214 -24370416 -24402022 -24390276 
923.413 -24424230 -24522320 -24603420 -24524606 -24133620 -23360046 
923.774 -22261298 -21031772 -19934738 -19207852 -18984782 -19224970 
924.136 -19721224 -20151184 -20211408 -19695828 -18585442 -17047994 
924.497 -15400845 -14002075 -13130860 -12943305 -13425807 -14434721 
924.858 -15739154 -17108236 -18354936 -19358560 -20077762 -20521560 
925.220 -20720910 -20698986 -20460400 -19995560 -19303958 -18426238 
925.581 -17468134 -16597886 -16043065 -16021285 -16685802 -18073204 
925.943 -20072226 -22430270 -24790106 -26801322 -28165930 -28725988 
926.304 -28493510 -27636488 -26424542 -25143790 -24067012 -23386640 
926.666 -23207924 -23556056 -24378028 -25550802 -26880936 -28144346 
927.027 -29096748 -29528924 -29326888 -28493510 -27163302 -25556236 
927.389 -23945336 -22569738 -21582628 -21041622 -20912400 -21107436 
927.750 -21520828 -22064166 -22661360 -23237134 -23710536 -23983838 
928.112 -23967878 -23618036 -22959620 -22099060 -21193212 -20415104 
928.473 -19884700 -19638194 -19624228 -19739460 -19873812 -19960752 
928.834 -20003124 -20062796 -20221686 -20530094 -20978200 -21489738 
929.196 -21957646 -22280970 -22418724 -22404154 -22334886 -22323524 
929.557 -22455412 -22753780 -23172146 -23612670 -23965810 -24160418 
929.919 -24186212 -24103564 -24016382 -24047670 -24294194 -24801654 
930.280 -25559110 -26502510 -27531388 -28522276 -29361358 -29949692 
930.642 -30218326 -30138238 -29719262 -29009326 -28081020 -27026330 
931.003 -25934332 -24873908 -23889078 -22987904 -22146732 -21315252 
931.365 -20433976 -19446648 -18319106 -17056724 -15715379 -14401067 
931.726 -13242846 -12375291 -11890619 -11808240 -12064063 -12525267 
932.087 -13030935 -13427831 -13631426 -13643241 -13549729 -13475182 
932.449 -13536112 -13786522 -14197384 -14671577 -15093411 -15386358 
932.810 -15541661 -15622631 -15722057 -15912952 -16193248 -16473874 
933.172 -16598333 -16421489 -15872864 -15019672 -14057223 -13279451 
933.533 -12982765 -13364925 -14491416 -16271258 -18505116 -20922000 
933.895 -23259650 -25297144 -26855210 -27813144 -28091890 -27662728 
934.256 -26561828 -24911798 -22923130 -20847442 -18953158 -17440028 
934.618 -16387798 -15748676 -15377499 -15104260 -14799755 -14440427 
934.979 -14109797 -13962420 -14135552 -14682597 -15515701 -16428510 
935.341 -17133464 -17370410 -17003996 -16066566 -14767090 -13427478 
935.702 -12427456 -12075697 -12551663 -13868109 -15878422 -18313482 
936.063 -20842232 -23171454 -25069862 -26418182 -27211294 -27534030 
936.425 -27521872 -27313952 -27033398 -26755776 -26510148 -26289362 
936.786 -26065596 -25803154 -25470066 -25044028 -24512174 -23874180 
937.148 -23144062 -22355440 -21562322 -20831620 -20240472 -19852604 
937.509 -19702224 -19778910 -20022392 -20325346 -20544694 -20537994 
937.871 -20176362 -19375198 -18117000 -16463697 -14562073 -12615910 
938.232 -10882718 -9610202 -8988316 -9122790 -9994887 -11462691 -13269007 
938.654 -15114789 -16695080 -17770552 -18233330 -18114360 -17578560 
939.015 -16859956 -16222870 -15880402 -15951345 -16456584 -17324886 
939.377 -18429032 -19615170 -20752090 -21742442 -22528246 -23085658 
939.738 -23403216 -23465564 -23246838 -22710860 -21826896 -20587230 
940.100 -19023060 -17209010 -15256401 -13308341 -11506255 -9978211 -8824516 
940.521 -8098551 -7808261 -7915284 -8347727 -9003245 -9767777 -10537854 
940.943 -11225338 -11780573 -12198587 -12516350 -12798749 -13117134 
941.304 -13529207 -14055747 -14676990 -15335761 -15962301 -16488230 
941.666 -16871716 -17106546 -17218182 -17250376 -17244136 -17227386 
942.027 -17204932 -17161142 -17067332 -16893230 -16611280 -16200494 
942.389 -15651140 -14967688 -14180709 -13350370 -12579088 -11997350 
942.750 -11732199 -11880625 -12457239 -13371127 -14415811 -15329365 
943.112 -15855709 -15823122 -15213819 -14168618 -12949577 -11832069 
943.473 -11044129 -10680255 -10691086 -10917551 -11177354 -11351116 
943.835 -11425578 -11492638 -11689787 -12118813 -12769343 -13498019 
944.196 -14061714 -14230605 -13866409 -13011482 -11878980 -10818506 
944.557 -10193591 -10264271 -11135599 -12719985 -14787042 -17022634 
944.919 -19143018 -20935922 -22284182 -23160084 -23587314 -23613330 
945.280 -23288984 -22678186 -21861400 -20934346 -20006224 -19166608 
945.642 -18461932 -17885416 -17388524 -16913434 -16437154 -16004073 
946.003 -15736533 -15805008 -16354516 -17447860 -18998134 -20773126 
946.365 -22402046 -23483992 -23698394 -22879660 -21097270 -18640642 
946.726 -15971754 -13564086 -11824072 -10993477 -11109020 -12034156 
947.088 -13518544 -15298625 -17138910 -18894314 -20513218 -22006026 
947.449 -23408398 -24746290 -26018006 -27193182 -28220610 -29037374 
947.811 -29582846 -29797230 -29631376 -29059778 -28092606 -26787304 
948.172 -25240780 -23584176 -21944886 -20419056 -19064096 -17893938 
948.533 -16901738 -16086649 -15469979 -15097028 -15019064 -15263438 
948.895 -15815072 -16611535 -17566978 -18593282 -19636548 -20684738 
949.256 -21751992 -22848978 -23952546 -24992760 -25877300 -26521526 
949.618 -26892054 -27024182 -27009860 -26952128 -26904512 -26835492 
949.979 -26622322 -26098046 -25101792 -23560984 -21525022 -19170664 
950.341 -16743416 -14510035 -12701386 -11456431 -10826132 -10773709 
950.702 -11202413 -11966310 -12897216 -13832903 -14621922 -15164323 
951.064 -15430968 -15473369 -15409639 -15395280 -15583347 -16065544 
951.425 -16850840 -17849550 -18902848 -19801544 -20343148 -20386082 
951.786 -19866944 -18830610 -17421090 -15877560 -14474431 -13473351 
952.148 -13075403 -13353583 -14240514 -15530631 -16948138 -18184304 
952.509 -18979516 -19183886 -18756486 -17758910 -16308948 -14554447 
952.871 -12639823 -10708705 -8929568 -7483614 -6564225 -6340604 -6896212 
953.293 -8195130 -10060096 -12220301 -14338462 -16107403 -17326030 -17918802 
953.714 -17953744 -17598224 -17079724 -16603658 -16315937 -16274512 
954.076 -16441813 -16702766 -16900082 -16895364 -16603658 -16039360 
954.437 -15314939 -14628490 -14195235 -14175449 -14626824 -15468189 
954.799 -16501499 -17453334 -18081244 -18226912 -17869168 -17116804 
955.160 -16173456 -15264846 -14560374 -14149631 -14020908 -14088883 
955.521 -14222845 -14297041 -14221692 -13959019 -13533832 -13023186 
955.883 -12538948 -12186152 -12040957 -12119296 -12373937 -12708561 
956.244 -13021353 -13253966 -13420378 -13611356 -13954141 -14560695 
956.606 -15455143 -16542295 -17610634 -18415282 -18744936 -18510292 
956.967 -17774782 -16733978 -15643917 -14721001 -14103478 -13812682 
957.329 -13785559 -13924332 -14156398 -14457349 -14836966 -15300097 
957.690 -15804527 -16238989 -16455339 -16303875 -15702276 -14674395 
958.052 -13354516 -11945584 -10648798 -9627475 -8960891 -8656204 -8678939 
958.473 -8991335 -9571569 -10412261 -11496575 -12766383 -14100431 -15333522 
958.895 -16269917 -16743798 -16670179 -16067013 -15059776 -13843333 
959.256 -12648030 -11663080 -11005817 -10705051 -10707734 -10906113 
959.618 -11174126 -11413218 -11565527 -11629146 -11643145 -11665789 
959.979 -11736553 -11847545 -11923663 -11835487 -11427225 -10557129 -9159484 
960.401 -7272165 -5051873 -2729173 -578631 1157023 2334792 2924360 3014335 
960.883 2762304 2349450 1901877 1453734 941861 246089 -752153 -2100217 
961.365 -3731942 -5458710 -7012980 -8149705 -8706545 -8682577 -8231805 
961.787 -7629527 -7166059 -7054059 -7375150 -8049506 -8872176 -9576787 
962.208 -9949552 -9881995 -9410355 -8681830 -7909362 -7290737 -6943204 
962.630 -6891484 -7066773 -7350913 -7614583 -7773113 -7805104 -7753226 
963.052 -7697371 -7726471 -7905198 -8248224 -8715151 -9215412 -9637165 
963.473 -9863145 -9808629 -9446668 -8821399 -8048041 -7290183 -6738080 
963.895 -6540465 -6768028 -7374368 -8202056 -8999286 -9484599 -9443264 
964.317 -8774058 -7553369 -6018682 -4549315 -3548565 -3335551 -4072501 
964.738 -5695670 -7930282 -10331963 -12434475 -13823178 -14247889 -13681996 
965.160 -12306241 -10448038 -8462644 -6686466 -5349084 -4558266 -4320586 
965.582 -4561512 -5155746 -5938352 -6738831 -7381600 -7707559 -7612011 
966.004 -7062926 -6128139 -4964616 -3811203 -2923165 -2499186 -2637463 
966.425 -3286491 -4259595 -5265356 -6012146 -6274834 -5959432 -5130926 
966.847 -3991548 -2821653 -1875110 -1334904 -1249408 -1539855 -2028657 
967.269 -2512396 -2826295 -2878238 -2673589 -2292348 -1854292 -1463414 
967.690 -1183689 -1025777 -959263 -934467 -907487 -857225 -783840 -705546 
968.172 -649041 -648412 -742826 -978471 -1407041 -2068132 -2971049 -4072895 
968.654 -5279006 -6447075 -7426356 -8110226 -8458874 -8517004 -8384942 
969.076 -8180759 -7977227 -7766994 -7452967 -6890473 -5943254 -4553315 
969.498 -2785440 -832886 1022958 2513318 3433499 3728696 3506478 3023144 
969.979 2596875 2508019 2932999 3872558 5157868 6479849 7499189 7909142 
970.461 7530778 6372710 4638733 2689350 927384 -261382 -641134 -177230 
970.943 957037 2444505 3921303 5067313 5717742 5873784 5677724 5319881 
971.425 4967727 4691047 4450494 4136140 3646358 2962823 2191105 1540313 
971.907 1252182 1522557 2400723 3757104 5289090 6627957 7407977 7379969 
972.389 6483179 4850306 2780244 644803 -1152362 -2291953 -2595734 -2045278 
972.871 -779209 952454 2840172 4613147 6065531 7087670 7662955 7833126 
973.353 7665046 7217590 6542342 5688668 4724308 3760646 2940072 2411451 
973.835 2292187 2612275 3291085 4133029 4890213 5300862 5170039 4425789 
974.317 3128057 1458322 -336081 -1969850 -3202003 -3879712 -3964922 -3549912 
974.799 -2838376 -2108757 -1620936 -1571418 -2025986 -2903319 -3985704 
975.221 -4984630 -5640988 -5781146 -5389927 -4600659 -3656445 -2807959 
975.642 -2243631 -2045410 -2179776 -2531305 -2950481 -3311515 -3524540 
976.064 -3545837 -3366129 -2993656 -2448581 -1763750 -995629 -219457 480377 
976.546 1025349 1370197 1508958 1474546 1321073 1114699 920145 791265 772544 
977.088 885016 1113537 1389875 1596213 1586735 1220084 424322 -769518 
977.570 -2209018 -3670770 -4907024 -5731314 -6078936 -6006689 -5659009 
977.992 -5191173 -4728698 -4330231 -4010786 -3789952 -3729445 -3939377 
978.413 -4544921 -5608739 -7076096 -8745905 -10333808 -11528325 -12111079 
978.835 -12030224 -11402760 -10456027 -9417228 -8442984 -7562324 -6712241 
979.257 -5810931 -4843888 -3907559 -3201509 -2939028 -3276987 -4229081 
979.678 -5657832 -7300023 -8855813 -10083373 -10827845 -11055338 -10824646 
980.100 -10256699 -9486836 -8648571 -7862606 -7216931 -6765288 -6509849 
980.522 -6400552 -6340376 -6219703 -5961197 -5549139 -5048401 -4581906 
980.943 -4297621 -4305003 -4642294 -5266076 -6077498 -6957160 -7806959 
981.365 -8581168 -9279862 -9933587 -10575141 -11224208 -11880142 -12529323 
981.787 -13154102 -13739463 -14271487 -14732500 -15101029 -15355400 
982.148 -15482482 -15484272 -15374716 -15166082 -14852528 -14397830 
982.510 -13741839 -12828957 -11637662 -10211489 -8661108 -7151522 -5844015 
982.931 -4860894 -4257299 -4018468 -4089505 -4414893 -4973100 -5780819 
983.353 -6871394 -8253652 -9870205 -11580593 -13182582 -14436740 -15146980 
983.775 -15203422 -14611478 -13486135 -12030385 -10494679 -9110363 -8079557 
984.197 -7533506 -7514683 -7977032 -8789839 -9769138 -10690827 -11351375 
984.618 -11600273 -11361252 -10649541 -9560678 -8251312 -6891744 -5653646 
985.040 -4678910 -4057501 -3834227 -4003564 -4521444 -5313637 -6297433 
985.462 -7395542 -8538934 -9673297 -10745427 -11690496 -12434250 -12895607 
985.883 -13011803 -12768860 -12220526 -11490153 -10734856 -10119306 -9753490 
986.305 -9664483 -9793079 -10024611 -10235406 -10333290 -10292132 -10144134 
986.727 -9955576 -9787377 -9677121 -9632239 -9644554 -9710561 -9841572 
987.148 -10054754 -10351862 -10693705 -10993444 -11124780 -10971992 
987.510 -10468319 -9635999 -8587016 -7507128 -6600940 -6021296 -5843296 
987.932 -6041490 -6520979 -7151848 -7829349 -8503553 -9184043 -9919143 
988.353 -10760522 -11724201 -12766833 -13779460 -14605455 -15091332 
988.715 -15110981 -14611767 -13626738 -12272743 -10717530 -9135411 -7684773 
989.136 -6464801 -5518060 -4843200 -4418764 -4223863 -4249555 -4494292 
989.558 -4947975 -5576585 -6320424 -7095556 -7817145 -8418969 -8855846 
989.980 -9105594 -9157213 -9001720 -8637819 -8088794 -7427627 -6779054 
990.401 -6320097 -6238745 -6667313 -7645610 -9080415 -10767277 -12413320 
990.823 -13733492 -14524647 -14703609 -14324035 -13538649 -12551405 
991.185 -11546426 -10677346 -10054204 -9742248 -9775165 -10144426 -10792940 
991.606 -11601918 -12411420 -13058973 -13414371 -13434578 -13176603 
991.968 -12788003 -12445938 -12308302 -12456435 -12868942 -13435702 
992.329 -13998964 -14416388 -14584726 -14468085 -14086093 -13493362 
992.691 -12752999 -11921761 -11051171 -10186859 -9377281 -8674880 -8127625 
993.112 -7777279 -7655312 -7782518 -8175003 -8840620 -9770726 -10924175 
993.534 -12218980 -13537493 -14735895 -15693041 -16338274 -16671773 
993.895 -16756997 -16692499 -16569024 -16431509 -16276013 -16067108 
994.257 -15780820 -15441745 -15139781 -15003860 -15163875 -15680704 
994.618 -16512122 -17501870 -18432938 -19077384 -19270962 -18971142 
994.980 -18262052 -17326444 -16367886 -15568513 -15028826 -14763375 
995.341 -14726639 -14854001 -15099525 -15453896 -15941061 -16595175 
995.703 -17430798 -18420044 -19483368 -20500606 -21347934 -21915588 
996.064 -22144812 -22036954 -21648136 -21063814 -20366766 -19615520 
996.426 -18824772 -17974092 -17030346 -15979579 -14854289 -13746397 
996.787 -12784367 -12113979 -11847352 -12024681 -12602875 -13463200 
997.148 -14451516 -15406825 -16217699 -16838888 -17293938 -17653682 
997.510 -18011348 -18454214 -19039140 -19791574 -20701544 -21729458 
997.871 -22802704 -23824438 -24688258 -25285828 -25541678 -25431506 
998.233 -24993792 -24320856 -23540114 -22784656 -22148998 -21679500 
998.594 -21364874 -21156478 -20988838 -20810050 -20596458 -20350260 
998.956 -20088486 -19828106 -19574534 -19319390 -19044436 -18726752 
999.317 -18344454 -17873716 -17288682 -16566919 -15700135 -14714596 
999.679 -13682285 -12733017 -12026647 -11708688 -11870114 -12494329 
1000.040 -13446785 -14484814 -15338608 -15764013 -15615758 -14892615 
1000.402 -13733460 -12382729 -11105790 -10153974 -9691378 -9775812 -10370011 
1000.823 -11369128 -12640500 -14047984 -15488876 -16893326 -18220718 
1001.185 -19450608 -20563624 -21527482 -22293874 -22794842 -22960248 
1001.546 -22741738 -22132690 -21188542 -20025556 -18816522 -17742562 
1001.908 -16963626 -16584333 -16622698 -17009732 -17601948 -18233108 
1002.269 -18743190 -19033018 -19087976 -18974948 -18814554 -18732908 
1002.630 -18826454 -19116132 -19538014 -19949928 -20185188 -20094908 
1002.992 -19602344 -18732908 -17610888 -16425574 -15364546 -14583700 
1003.353 -14159446 -14085419 -14290373 -14673691 -15139269 -15610964 
1003.715 -16044598 -16413322 -16692625 -16854824 -16869166 -16717751 
1004.076 -16411919 -16002221 -15574235 -15224826 -15048958 -15109989 
1004.438 -15430680 -15992768 -16744435 -17609266 -18490256 -19291024 
1004.799 -19919010 -20305900 -20430088 -20327274 -20091998 -19846654 
1005.161 -19716694 -19774922 -20014482 -20344918 -20630520 -20744160 
1005.522 -20619620 -20287496 -19864760 -19509250 -19341892 -19405046 
1005.884 -19638130 -19917174 -20104178 -20122810 -19992682 -19822754 
1006.245 -19752440 -19879352 -20202772 -20609540 -20909810 -20909526 
1006.606 -20505316 -19722142 -18717072 -17706872 -16914964 -16486252 
1006.968 -16454445 -16754668 -17266172 -17868278 -18468378 -19019796 
1007.329 -19498036 -19869604 -20080324 -20058590 -19749150 -19152054 
1007.691 -18346582 -17484556 -16737485 -16259033 -16120780 -16296981 
1008.052 -16679330 -17132858 -17550878 -17891936 -18189548 -18524134 
1008.414 -18977644 -19587520 -20333946 -21150264 -21963376 -22721332 
1008.775 -23417596 -24078768 -24738026 -25398724 -26017946 -26509712 
1009.137 -26782694 -26775186 -26482498 -25955838 -25277856 -24520786 
1009.498 -23709596 -22818956 -21795040 -20602524 -19265416 -17886976 
1009.859 -16629107 -15682749 -15194112 -15230616 -15765516 -16703308 
1010.221 -17915402 -19283926 -20733134 -22213102 -23679130 -25069924 
1010.582 -26289612 -27233856 -27830174 -28073970 -28049184 -27908420 
1010.944 -27833406 -27957292 -28328494 -28889118 -29505798 -30005046 
1011.305 -30231894 -30095668 -29570342 -28688490 -27512012 -26118982 
1011.667 -24591332 -23022312 -21533190 -20256632 -19322624 -18823534 
1012.028 -18775684 -19108332 -19674010 -20305016 -20846968 -21217888 
1012.390 -21421712 -21531612 -21640002 -21803108 -22003758 -22145222 
1012.751 -22078810 -21650754 -20772494 -19452890 -17818098 -16072091 
1013.113 -14471578 -13256956 -12591062 -12547285 -13089227 -14094016 
1013.474 -15373661 -16731651 -17998252 -19052206 -19846496 -20398666 
1013.835 -20779442 -21080984 -21401746 -21819492 -22373722 -23062692 
1014.197 -23839744 -24623488 -25300270 -25752008 -25878458 -25619744 
1014.558 -24985034 -24061056 -23010246 -22024768 -21300016 -20978990 
1014.920 -21110936 -21644386 -22439774 -23321676 -24113218 -24697962 
1015.281 -25043590 -25199698 -25268980 -25367626 -25584696 -25944694 
1015.643 -26402840 -26851596 -27162088 -27205226 -26894826 -26211730 
1016.004 -25210392 -24009360 -22761296 -21636946 -20779064 -20284810 
1016.366 -20195150 -20487174 -21078712 -21836476 -22608900 -23233678 
1016.727 -23570462 -23530258 -23079216 -22250942 -21133504 -19866088 
1017.089 -18605694 -17505180 -16703052 -16293086 -16323915 -16791776 
1017.450 -17641178 -18762738 -19999104 -21177686 -22119494 -22690324 
1017.811 -22835712 -22596318 -22102964 -21537540 -21100996 -20945870 
1018.173 -21151492 -21711998 -22549448 -23534776 -24513488 -25341530 
1018.534 -25879268 -26008114 -25645824 -24755054 -23371914 -21613114 
1018.896 -19684048 -17828338 -16276205 -15195519 -14632558 -14513303 
1019.257 -14669687 -14917620 -15104485 -15163459 -15117860 -15050814 
1019.619 -15053183 -15178369 -15432215 -15784176 -16199250 -16661059 
1019.980 -17175984 -17749114 -18351092 -18905576 -19293752 -19402734 
1020.342 -19189084 -18718564 -18170226 -17768770 -17719658 -18100854 
1020.703 -18825026 -19645004 -20253470 -20383932 -19907236 -18885940 
1021.064 -17552182 -16232414 -15214971 -14694416 -14711072 -15170882 
1021.426 -15887015 -16656213 -17320268 -17782732 -18024032 -18075364 
1021.787 -17994722 -17836192 -17639936 -17426150 -17196972 -16943708 
1022.149 -16655287 -16326724 -15964216 -15586927 -15220666 -14892199 
1022.510 -14618718 -14405683 -14251801 -14160664 -14153288 -14274053 
1022.872 -14577132 -15109381 -15880818 -16849438 -17916418 -18951158 
1023.233 -19834434 -20479366 -20860390 -21004340 -20969990 -20814534 
1023.595 -20574148 -20258720 -19860992 -19373580 -18801420 -18162632 
1023.956 -17482712 -16785686 -16092781 -15436565 -14872444 -14480392 
1024.318 -14357056 -14569923 -15117541 -15896279 -16720524 -17362962 
1024.680 -17634464 -17470966 -16963370 -16341435 -15871745 -15776826 
1025.042 -16120877 -16786292 -17503842 -17976444 -18004800 -17575348 
1025.403 -16885038 -16284438 -16166912 -16797514 -18233902 -20271242 
1025.765 -22521482 -24484084 -25716784 -25972692 -25240938 -23751726 
1026.127 -21880902 -20069378 -18669750 -17886340 -17742274 -18096436 
1026.489 -18692316 -19233814 -19489008 -19323512 -18744206 -17875878 
1026.851 -16933448 -16149003 -15708221 -15722472 -16191525 -17010814 
1027.212 -17981402 -18866906 -19425452 -19463726 -18898534 -17779138 
1027.574 -16298385 -14736216 -13426417 -12649735 -12555527 -13131310 
1027.936 -14201039 -15490282 -16695080 -17604526 -18149572 -18421538 
1028.298 -18613726 -18953698 -19607856 -20615322 -21879674 -23199976 
1028.660 -24349396 -25118774 -25387694 -25138724 -24446938 -23442272 
1029.021 -22269858 -21059836 -19892708 -18802244 -17782320 -16808544 
1029.383 -15861746 -14951106 -14123236 -13465513 -13082926 -13064889 
1029.745 -13459731 -14243720 -15320472 -16532950 -17719594 -18751250 
1030.107 -19567724 -20188128 -20691688 -21180242 -21733840 -22394084 
1030.469 -23153392 -23969134 -24777650 -25513748 -26118110 -26531344 
1030.831 -26699382 -26574888 -26129152 -25368598 -24343380 -23144942 
1031.192 -21879674 -20656492 -19560060 -18642896 -17939882 -17479528 
1031.554 -17296134 -17431848 -17916576 -18746714 -19862734 -21154364 
1031.916 -22471492 -23658420 -24600600 -25234152 -25552956 -25587570 
1032.278 -25381066 -24967640 -24368034 -23603350 -22708626 -21741654 
1032.640 -20781464 -19901696 -19152784 -18547978 -18066148 -17669588 
1033.001 -17331062 -17051340 -16861646 -16807300 -16921242 -17206462 
1033.363 -17631314 -18145156 -18699870 -19274322 -19877230 -20531232 
1033.725 -21244898 -21987506 -22678942 -23215932 -23498964 -23484680 
1034.087 -23212540 -22812292 -22468658 -22364156 -22636514 -23320198 
1034.449 -24334860 -25489408 -26544902 -27253712 -27424736 -26978286 
1034.811 -25954372 -24507226 -22849860 -21225272 -19832474 -18786284 
1035.172 -18116330 -17778310 -17697550 -17811642 -18102984 -18596552 
1035.534 -19330926 -20311876 -21474380 -22669412 -23707240 -24396540 
1035.896 -24627150 -24411452 -23886630 -23260594 -22733972 -22439710 
1036.258 -22389522 -22482818 -22546932 -22419258 -21994058 -21261020 
1036.620 -20294232 -19222338 -18179316 -17266044 -16552566 -16078986 
1036.981 -15872480 -15956424 -16337732 -16986312 -17807126 -18647754 
1037.343 -19309598 -19598258 -19396492 -18700918 -17648464 -16476203 
1037.705 -15492904 -14984558 -15141413 -16025597 -17543782 -19477476 
1038.067 -21520198 -23384316 -24855478 -25850078 -26425756 -26748704 
1038.429 -27022156 -27392882 -27904722 -28464374 -28881212 -28917298 
1038.791 -28391846 -27247644 -25576448 -23583296 -21521680 -19619732 
1039.152 -18004290 -16704487 -15678531 -14874909 -14280914 -13946024 
1039.514 -13953243 -14373532 -15202974 -16339265 -17584448 -18715580 
1039.876 -19549954 -19998882 -20094782 -19960656 -19753170 -19586380 
1040.238 -19505068 -19476906 -19432994 -19307698 -19081348 -18785904 
1040.600 -18488320 -18249248 -18092560 -17995962 -17911426 -17798890 
1040.961 -17661158 -17553772 -17572866 -17813964 -18323456 -19070630 
1041.323 -19940814 -20772052 -21384082 -21644290 -21499764 -20986598 
1041.685 -20213652 -19331022 -18494258 -17814378 -17348318 -17090810 
1042.047 -16993608 -16988670 -17019448 -17062458 -17130692 -17261998 
1042.409 -17493658 -17836034 -18253474 -18666194 -18967020 -19068822 
1042.771 -18935648 -18611630 -18209152 -17889646 -17810338 -18067736 
1043.132 -18677686 -19562532 -20580468 -21546936 -22293624 -22698438 
1043.494 -22701142 -22313234 -21608320 -20710990 -19765200 -18926768 
1043.856 -18331810 -18062620 -18133714 -18477046 -18963244 -19422188 
1044.218 -19706278 -19736008 -19527782 -19195172 -18921976 -18918264 
1044.580 -19344110 -20278958 -21686088 -23423278 -25250408 -26877198 
1044.941 -28032784 -28490314 -28139842 -27011696 -25285858 -23245708 
1045.303 -21218772 -19513526 -18317008 -17669556 -17451614 -17445852 
1045.665 -17392186 -17084154 -16436549 -15494119 -14409048 -13370387 
1046.027 -12554497 -12058391 -11889168 -11976850 -12216048 -12499899 
1046.389 -12745566 -12909373 -12976880 -12955462 -12866176 -12746081 
1046.750 -12649574 -12642398 -12801033 -13190361 -13851357 -14790661 
1047.112 -15979994 -17360860 -18847870 -20342390 -21723282 -22850142 
1047.474 -23584584 -23796020 -23402776 -22404060 -20901190 -19091210 
1047.836 -17224042 -15574235 -14359107 -13710313 -13664915 -14176346 
1048.198 -15142980 -16431604 -17906434 -19414332 -20788224 -21864646 
1048.560 -22484642 -22542466 -22018624 -21001182 -19671098 -18258494 
1048.921 -16998164 -16049674 -15478484 -15252754 -15280649 -15449515 
1049.283 -15669869 -15900176 -16137000 -16395550 -16682614 -16975382 
1049.645 -17217768 -17331412 -17227512 -16836656 -16122090 -15096740 
1050.007 -13827253 -12439949 -11111538 -10026327 -9359479 -9222061 -9627443 
1050.429 -10481289 -11602886 -12779896 -13810338 -14575274 -15053375 
1050.791 -15308670 -15439474 -15525131 -15580022 -15544857 -15309789 
1051.153 -14769844 -13883160 -12696206 -11340077 -9982161 -8788638 -7863517 
1051.575 -7234594 -6864251 -6688065 -6654620 -6755827 -7028173 -7531552 
1051.997 -8307031 -9340216 -10540668 -11753227 -12807661 -13552427 -13917786 
1052.419 -13932643 -13722802 -13464517 -13340827 -13496927 -13994248 
1052.781 -14807409 -15830599 -16919364 -17911108 -18666290 -19094474 
1053.143 -19149868 -18836352 -18197872 -17319472 -16318489 -15343534 
1053.504 -14571525 -14163904 -14243432 -14850991 -15920779 -17273846 
1053.866 -18646548 -19768050 -20398064 -20410424 -19819652 -18776922 
1054.228 -17514886 -16276492 -15263598 -14572615 -14196293 -14041471 
1054.590 -13982729 -13899142 -13714904 -13416169 -13039391 -12649800 
1054.952 -12308817 -12057457 -11899388 -11804854 -11718137 -11580658 
1055.313 -11345435 -10990763 -10528443 -10001978 -9478796 -9028851 -8717847 
1055.736 -8590426 -8663869 -8931126 -9364635 -9923613 -10555027 -11203575 
1056.158 -11814399 -12337289 -12740932 -13017558 -13189686 -13301496 
1056.520 -13410644 -13564663 -13780745 -14035857 -14270782 -14413343 
1056.881 -14403118 -14225956 -13926932 -13610778 -13405664 -13432971 
1057.243 -13771724 -14432734 -15361156 -16451607 -17587726 -18657466 
1057.605 -19581218 -20318294 -20855748 -21197662 -21352162 -21323678 
1057.967 -21113622 -20724860 -20171966 -19486156 -18723260 -17965158 
1058.329 -17305878 -16847558 -16672602 -16817118 -17250218 -17864718 
1058.690 -18495020 -18934570 -19005174 -18601506 -17727104 -16496299 
1059.052 -15107877 -13790535 -12721433 -12000122 -11623242 -11511450 
1059.414 -11545007 -11620629 -11687723 -11754129 -11871307 -12099511 
1059.776 -12479681 -13013089 -13666392 -14388855 -15138213 -15891008 
1060.138 -16641831 -17390850 -18126280 -18816078 -19416738 -19888118 
1060.500 -20218396 -20433754 -20594974 -20769336 -21000204 -21280644 
1060.861 -21547630 -21695670 -21614848 -21242122 -20586978 -19744622 
1061.223 -18863004 -18115408 -17637106 -17486624 -17636406 -17986774 
1061.585 -18405246 -18764928 -18992202 -19075196 -19057722 -19006474 
1061.947 -18980816 -19000384 -19035208 -19011232 -18838352 -18447862 
1062.309 -17814886 -16978028 -16031729 -15115173 -14368211 -13909668 
1062.670 -13812746 -14087344 -14681763 -15491881 -16393030 -17251364 
1063.032 -17958164 -18451038 -18716882 -18793582 -18754202 -18694666 
1063.394 -18703836 -18850852 -19176054 -19684396 -20349756 -21116334 
1063.756 -21908720 -22623934 -23138312 -23324752 -23057916 -22254528 
1064.118 -20904696 -19097488 -17019736 -14930970 -13131760 -11870372 
1064.479 -11306343 -11464789 -12237503 -13405278 -14699670 -15887493 
1064.841 -16798438 -17367068 -17618558 -17637200 -17521632 -17353728 
1065.203 -17189360 -17057170 -16975382 -16967162 -17063636 -17301992 
1065.565 -17712946 -18306938 -19067712 -19950308 -20889096 -21794694 
1065.927 -22568322 -23110258 -23325004 -23150062 -22573922 -21657594 
1066.289 -20529114 -19372726 -18387238 -17718228 -17429144 -17468992 
1066.650 -17695896 -17907452 -17915784 -17608694 -16972292 -16090961 
1067.012 -15104837 -14163647 -13367271 -12755540 -12315549 -12017881 
1067.374 -11850415 -11842160 -12051946 -12542071 -13332794 -14374878 
1067.736 -15537919 -16644701 -17521060 -18036650 -18153990 -17926020 
1068.098 -17473766 -16926724 -16386680 -15891392 -15413636 -14882850 
1068.459 -14225956 -13406371 -12441108 -11400404 -10380817 -9482038 -8766005 
1068.882 -8244225 -7874287 -7580982 -7276139 -6888157 -6386872 -5790595 
1069.304 -5166879 -4613445 -4249752 -4185306 -4495505 -5208394 -6288388 
1069.726 -7638936 -9107800 -10531516 -11760644 -12699423 -13334787 -13735643 
1070.148 -14031462 -14357600 -14820827 -15450346 -16188683 -16899732 
1070.510 -17417398 -17597908 -17358314 -16710289 -15751455 -14642266 
1070.872 -13545201 -12601363 -11901484 -11477794 -11321063 -11391980 
1071.233 -11637113 -11987326 -12364792 -12688450 -12878528 -12882999 
1071.595 -12693695 -12360734 -11981943 -11688303 -11611564 -11841000 
1071.957 -12412741 -13295038 -14403278 -15604411 -16741917 -17654826 
1072.319 -18173532 -18151892 -17486338 -16145363 -14203605 -11860345 
1072.681 -9434315 -7279398 -5740012 -5046174 -5243914 -6178023 -7518624 
1073.103 -8860878 -9787313 -10013279 -9449910 -8226441 -6640328 -5086064 
1073.525 -3964101 -3555236 -3989742 -5207608 -6994396 -9011619 -10886822 
1073.947 -12314389 -13092218 -13188882 -12732051 -11980106 -11223949 
1074.309 -10711840 -10586232 -10843455 -11354861 -11917667 -12346596 
1074.671 -12522691 -12444715 -12217272 -12017687 -12019202 -12323504 
1075.032 -12926870 -13712335 -14486705 -15029178 -15178017 -14869050 
1075.394 -14161658 -13210449 -12232317 -11438940 -10967631 -10862844 
1075.756 -11061927 -11433743 -11814528 -12074988 -12154385 -12068350 
1076.118 -11889523 -11711687 -11613209 -11626887 -11743809 -11932077 
1076.480 -12167884 -12454728 -12827703 -13332280 -13995114 -14793511 
1076.842 -15646571 -16421936 -16982552 -17224900 -17113746 -16696611 
1077.203 -16092302 -15459204 -14939293 -14637845 -14593184 -14776089 
1077.565 -15098212 -15436660 -15664404 -15665235 -15370463 -14772534 
1077.927 -13935114 -12978874 -12062871 -11349502 -10947955 -10894028 
1078.289 -11127525 -11516645 -11880689 -12052042 -11926339 -11480730 
1078.651 -10778815 -9937829 -9093653 -8346979 -7746196 -7285817 -6927747 
1079.073 -6629070 -6369828 -6163421 -6050182 -6073969 -6252103 -6555348 
1079.495 -6903615 -7187699 -7294321 -7156737 -6781240 -6261444 -5748710 
1079.917 -5419542 -5417153 -5794420 -6495910 -7362217 -8187717 -8759251 
1080.339 -8934534 -8681213 -8085900 -7329443 -6640785 -6260595 -6367935 
1080.761 -7059046 -8318733 -10023640 -11947195 -13796280 -15287111 -16171062 
1081.183 -16313288 -15724007 -14564668 -13105045 -11648146 -10471844 
1081.545 -9734958 -9465732 -9574421 -9918852 -10360144 -10821220 -11305277 
1081.967 -11874242 -12600461 -13513533 -14568930 -15645325 -16577538 
1082.329 -17184646 -17331220 -16949826 -16055327 -14736407 -13147480 
1082.691 -11489895 -9966553 -8771786 -8038772 -7801134 -7975145 -8370056 
1083.113 -8745093 -8857826 -8561319 -7839372 -6813370 -5685696 -4679270 
1083.535 -3968106 -3623851 -3621978 -3868678 -4257135 -4698118 -5149459 
1083.957 -5612533 -6114320 -6687347 -7356776 -8137315 -9029111 -10012469 
1084.379 -11034794 -12010403 -12819403 -13336297 -13479421 -13243714 
1084.741 -12724715 -12086814 -11525551 -11181520 -11089802 -11169023 
1085.103 -11263211 -11213682 -10929636 -10435390 -9854885 -9351437 -9035536 
1085.525 -8915902 -8882889 -8769545 -8415719 -7761103 -6877917 -5961295 
1085.947 -5248432 -4932512 -5099556 -5694035 -6547841 -7438864 -8186904 
1086.369 -8691768 -8966278 -9110234 -9276618 -9611595 -10206602 -11083923 
1086.792 -12189084 -13413407 -14614169 -15660889 -16454224 -16941416 
1087.153 -17117248 -17004760 -16630318 -16001934 -15104133 -13912844 
1087.515 -12424912 -10688661 -8816042 -6963714 -5311084 -3995455 -3083218 
1087.937 -2556834 -2335193 -2308366 -2377540 -2484460 -2600839 -2709350 
1088.359 -2782214 -2770526 -2623894 -2322439 -1904867 -1471670 -1155601 
1088.781 -1078894 -1290672 -1746260 -2313409 -2833537 -3165164 -3237786 
1089.204 -3060714 -2699044 -2229424 -1701871 -1132369 -517708 134246 778120 
1089.686 1339751 1742032 1947239 1985549 1953962 1980457 2159370 2511419 
1090.168 2957752 3352619 3520073 3329747 2737796 1793532 613280 -663102 
1090.651 -1905922 -3033405 -4005961 -4821639 -5503240 -6089097 -6622380 
1091.073 -7132748 -7616895 -8015156 -8210314 -8033144 -7326381 -6004989 
1091.495 -4115172 -1846538 492452 2546179 4036969 4807990 4864949 4338064 
1091.978 3429291 2329895 1167255 12359 -1099221 -2123562 -2976610 -3551128 
1092.460 -3748071 -3523127 -2913884 -2031691 -1019959 11729 1011400 1991208 
1092.942 2985809 4001754 4977983 5788889 6271111 6299719 5839596 4974799 
1093.425 3877673 2761504 1807606 1103073 640323 340618 115222 -90115 -258467 
1093.968 -310619 -130131 379185 1252216 2434375 3787285 5108581 6170712 
1094.450 6791360 6858779 6370424 5428773 4231720 3020641 2013644 1376812 
1094.932 1173369 1368037 1847202 2470029 3104329 3651637 4064260 4330836 
1095.415 4465624 4494784 4454879 4392184 4357978 4405806 4571457 4859118 
1095.897 5235899 5644122 6024070 6339188 6594684 6832019 7105352 7444143 
1096.380 7829212 8186530 8418251 8432643 8193283 7736277 7167329 6620757 
1096.862 6213497 6011203 6003543 6116035 6235412 6257833 6109146 5766526 
1097.344 5257027 4647942 4026936 3480224 3085742 2893405 2919223 3144177 
1097.827 3522846 3999079 4523911 5075325 5658925 6298610 7013886 7801481 
1098.309 8625016 9426716 10142622 10731208 11185871 11527826 11781253 
1098.731 11942963 11957711 11726818 11129164 10067875 8519137 6554821 
1099.154 4342616 2095640 47351 -1614499 -2778428 -3402195 -3503900 -3133387 
1099.636 -2356615 -1240950 135042 1667686 3232129 4671856 5817801 6527542 
1100.118 6700801 6318815 5454038 4275219 3008563 1885204 1100615 744297 
1100.601 784095 1071782 1407925 1596579 1520329 1184100 713663 314821 190396 
1101.144 492584 1259028 2412551 3781469 5165680 6386698 7318535 7913832 
1101.626 8187138 8197572 8017741 7722010 7369118 6990516 6589773 6140835 
1102.108 5600285 4922049 4086769 3121883 2117082 1204932 538131 249239 
1102.591 402864 983238 1896419 3009097 4171700 5260011 6196356 6943311 
1103.073 7504887 7916228 8241064 8558370 8950585 9481337 10162768 10936596 
1103.556 11671845 12211218 12412193 12222975 11721065 11127396 10752605 
1103.978 10904963 11826160 13595150 16114209 19121766 22289440 25282756 
1104.400 27838726 29823254 31213322 32074024 32506072 32618784 32499392 
1104.822 32205254 31772864 31217310 30540836 29739330 28810860 27766100 
1105.244 26637628 25475890 24345322 23305782 22390636 21598584 20889492 
1105.666 20200684 19460776 18617184 17648770 16568797 15418371 14255131 
1106.088 13143492 12137750 11277438 10578028 10026607 9581997 9186335 
1106.510 8787245 8353427 7893283 7451423 7094137 6875846 6812127 6863660 
1106.993 6948732 6966745 6836260 6528416 6069462 5525309 4962566 4424283 
1107.475 3912443 3402041 2867555 2314239 1789972 1378673 1162073 1190346 
1107.958 1458688 1913858 2476427 3076165 3681075 4295196 4940715 5624351 
1108.440 6310880 6918027 7340371 7475221 7269205 6733779 5947409 5026316 
1108.923 4103861 3303237 2713356 2395825 2377434 2648344 3152454 3783240 
1109.405 4395363 4814523 4895374 4561947 3844644 2881764 1894522 1128419 
1109.887 760196 861377 1366707 2114818 2892537 3522345 3921604 4117274 
1110.370 4228877 4410560 4793349 5417265 6210371 6994826 7557480 7701807 
1110.852 7328678 6479714 5345340 4223122 3423013 3212835 3713992 4872153 
1111.335 6456475 8136899 9559404 10425004 10581627 10032032 8926807 7494065 
1111.817 5997496 4662812 3630887 2964758 2650811 2631343 2825532 3157093 
1112.300 3561730 3983596 4376553 4694363 4888337 4914844 4738410 4345728 
1112.782 3755299 3029183 2271070 1609648 1188585 1121543 1461613 2179050 
1113.264 3162534 4238580 5210848 5927389 6306174 6359362 6171854 5866127 
1113.747 5541519 5229326 4879524 4383481 3629718 2559144 1218090 -234889 
1114.229 -1552137 -2490983 -2869746 -2636343 -1880718 -811687 313395 1281159 
1114.712 1956625 2321967 2447870 2451002 2432876 2448670 2505686 2584276 
1115.194 2671047 2783979 2974299 3302569 3802593 4451699 5160282 5794329 
1115.677 6224085 6354083 6162713 5697598 5055044 4331037 3589325 2838505 
1116.159 2038477 1124865 47152 -1199979 -2564245 -3945024 -5227087 -6303247 
1116.641 -7113094 -7654856 -7982335 -8180238 -8337553 -8519083 -8738143 
1117.063 -8951413 -9062730 -8958359 -8530357 -7721035 -6548820 -5120186 
1117.486 -3612580 -2231434 -1183325 -608411 -554012 -959428 -1676556 
1117.908 -2499680 -3214961 -3669259 -3792252 -3621616 -3279848 -2948210 
1118.330 -2803350 -2958149 -3436450 -4158428 -4973165 -5699071 -6201477 
1118.752 -6430132 -6439469 -6357878 -6346351 -6533056 -6964953 -7603481 
1119.174 -8348085 -9092031 -9761557 -10351797 -10916647 -11537651 -12270778 
1119.596 -13112311 -13986130 -14772822 -15341935 -15596868 -15505406 
1119.958 -15094724 -14433792 -13599892 -12668434 -11704043 -10770283 
1120.320 -9950426 -9340216 -9033103 -9092064 -9512057 -10205631 -11008370 
1120.742 -11735940 -12222459 -12383888 -12247328 -11948904 -11689884 
1121.104 -11661467 -11997092 -12709270 -13687486 -14716773 -15561193 
1121.466 -16028471 -16040159 -15666483 -15116069 -14677695 -14607729 
1121.827 -15071330 -16063597 -17415710 -18820266 -19938694 -20503514 
1122.189 -20379000 -19610072 -18389778 -17004314 -15720716 -14742749 
1122.551 -14168330 -13991360 -14132441 -14472893 -14891654 -15265358 
1122.913 -15485391 -15467325 -15158212 -14564027 -13761099 -12903037 
1123.275 -12178967 -11780025 -11846321 -12420533 -13442577 -14764880 
1123.636 -16210677 -17604526 -18825946 -19824748 -20602524 -21186112 
1123.998 -21593756 -21814418 -21809472 -21530604 -20948932 -20081810 
1124.360 -19008060 -17865194 -16812528 -16014772 -15591817 -15588525 
1124.722 -15966356 -16611472 -17372162 -18086266 -18636486 -18966480 
1125.084 -19080714 -19022776 -18846472 -18587980 -18255570 -17843508 
1125.446 -17358186 -16839590 -16374428 -16072696 -16026076 -16271321 
1125.807 -16757697 -17353696 -17872604 -18146744 -18071996 -17648240 
1126.169 -16975224 -16228808 -15605754 -15256817 -15267598 -15631037 
1126.531 -16263342 -17019768 -17741034 -18288928 -18571218 -18571124 
1126.893 -18347344 -18023238 -17739444 -17623074 -17741958 -18083310 
1127.255 -18561694 -19054076 -19455172 -19702952 -19799488 -19784388 
1127.616 -19697474 -19539122 -19261294 -18790598 -18083436 -17173436 
1127.978 -16196888 -15351081 -14845547 -14809106 -15231128 -15954219 
1128.340 -16730791 -17327368 -17597716 -17551832 -17335296 -17172736 
1128.702 -17256330 -17683872 -18422268 -19338154 -20245944 -20978040 
1129.064 -21437008 -21590698 -21460472 -21087014 -20514134 -19782898 
1129.426 -18940152 -18052034 -17191462 -16423915 -15786061 -15270893 
1129.787 -14838438 -14443791 -14072236 -13759591 -13586405 -13639132 
1130.149 -13973810 -14573672 -15347468 -16144374 -16813324 -17244454 
1130.511 -17396134 -17300020 -17038150 -16713254 -16414503 -16217284 
1130.873 -16177511 -16332245 -16698077 -17255630 -17941378 -18640294 
1131.235 -19219454 -19568708 -19643040 -19493728 -19260154 -19125898 
1131.596 -19234416 -19639968 -20267162 -20943376 -21440320 -21567652 
1131.958 -21243226 -20514388 -19540548 -18528644 -17676428 -17096098 
1132.320 -16800926 -16713222 -16713956 -16683284 -16546952 -16297873 
1132.682 -15989862 -15712375 -15550868 -15563847 -15757656 -16088789 
1133.044 -16475661 -16833056 -17099666 -17257478 -17337620 -17404220 
1133.406 -17526406 -17741860 -18038684 -18351504 -18588076 -18653088 
1133.767 -18490636 -18102380 -17548588 -16923408 -16322926 -15822068 
1134.129 -15453065 -15211260 -15069665 -14999411 -14979949 -15002772 
1134.491 -15064960 -15159075 -15266189 -15357766 -15398926 -15362595 
1134.853 -15238422 -15039260 -14800364 -14575786 -14428760 -14410939 
1135.215 -14548936 -14825310 -15176513 -15494375 -15657341 -15577081 
1135.576 -15229048 -14682244 -14081634 -13619224 -13452503 -13648733 
1135.938 -14148381 -14783647 -15323639 -15559115 -15391347 -14862646 
1136.300 -14151877 -13494422 -13123177 -13172586 -13645264 -14420619 
1136.662 -15311101 -16131220 -16745105 -17109572 -17259772 -17281008 
1137.024 -17260122 -17262860 -17316224 -17414660 -17534170 -17646300 
1137.385 -17725862 -17748286 -17688930 -17524880 -17241014 -16843414 
1137.747 -16369035 -15889699 -15492520 -15266958 -15274155 -15524428 
1138.109 -15967442 -16496938 -16981310 -17280404 -17292918 -16982362 
1138.471 -16390286 -15630430 -14865655 -14282293 -14030789 -14204503 
1138.833 -14811956 -15779989 -16964580 -18184430 -19272168 -20088898 
1139.195 -20561982 -20691592 -20544758 -20232660 -19884604 -19627682 
1139.556 -19551382 -19697126 -20048748 -20537994 -21052924 -21461134 
1139.918 -21646466 -21520134 -21048094 -20255556 -19224302 -18070598 
1140.280 -16918374 -15881680 -15033627 -14404785 -13986483 -13748901 
1140.642 -13657755 -13692656 -13853379 -14151684 -14595299 -15167522 
1141.004 -15812580 -16440090 -16946384 -17237766 -17271808 -17073894 
1141.365 -16741917 -16411759 -16227882 -16299693 -16667532 -17301102 
1141.727 -18110326 -18981990 -19792904 -20437484 -20837146 -20927146 
1142.089 -20665182 -20033910 -19055122 -17800478 -16400337 -15035868 
1142.451 -13891120 -13133529 -12868524 -13117004 -13819807 -14854801 
1142.813 -16076496 -17327336 -18472982 -19410022 -20060962 -20386208 
1143.175 -20383710 -20095226 -19600380 -19012024 -18453070 -18019964 
1143.536 -17768866 -17698570 -17759800 -17870090 -17943762 -17911998 
1143.898 -17725926 -17362548 -16818520 -16112704 -15288230 -14422574 
1144.260 -13627733 -13025115 -12728641 -12804153 -13245065 -13968998 
1144.622 -14841673 -15724806 -16503125 -17122632 -17584256 -17919756 
1144.984 -18159234 -18309132 -18350806 -18263416 -18052384 -17771696 
1145.345 -17511798 -17377830 -17436018 -17676014 -17993738 -18221320 
1145.707 -18187640 -17778692 -17001606 -15994908 -15005972 -14299446 
1146.069 -14102163 -14528172 -15545017 -16978762 -18557314 -19999706 
1146.431 -21057912 -21599368 -21624682 -21257108 -20689572 -20127556 
1146.793 -19741296 -19611814 -19729234 -20002522 -20305646 -20507812 
1147.155 -20519318 -20313108 -19920402 -19412874 -18870966 -18368244 
1147.516 -17951996 -17644806 -17455148 -17385884 -17442384 -17635294 
1147.878 -17975014 -18464694 -19091368 -19818924 -20581006 -21283484 
1148.240 -21822990 -22095468 -22035190 -21638144 -20981010 -20208908 
1148.602 -19508966 -19067680 -18999784 -19319802 -19924642 -20636208 
1148.964 -21240322 -21562606 -21521776 -21133662 -20494190 -19726606 
1149.325 -18942056 -18195330 -17486084 -16781510 -16055582 -15320824 
1149.687 -14643899 -14124422 -13872121 -13960655 -14397477 -15113029 
1150.049 -15975650 -16831876 -17533566 -17989064 -18181698 -18172260 
1150.411 -18072154 -18009218 -18085598 -18335084 -18713994 -19110582 
1150.773 -19393608 -19447632 -19226142 -18766228 -18176234 -17588458 
1151.135 -17106006 -16773095 -16563250 -16407516 -16236851 -16027290 
1151.496 -15812516 -15671788 -15680129 -15873214 -16217157 -16623272 
1151.858 -16977772 -17198660 -17270470 -17248656 -17228022 -17294638 
1152.220 -17485510 -17768006 -18053720 -18233966 -18228564 -18003306 
1152.582 -17574998 -16988318 -16293949 -15530375 -14726383 -13922567 
1152.944 -13185057 -12607252 -12298285 -12336709 -12743699 -13458991 
1153.305 -14358145 -15273388 -16042968 -16562389 -16794102 -16774530 
1153.667 -16586214 -16337892 -16130518 -16042011 -16124677 -16394977 
1154.029 -16830728 -17364680 -17895116 -18292804 -18430652 -18225386 
1154.391 -17657658 -16789130 -15743468 -14689963 -13791144 -13164260 
1154.753 -12866273 -12880136 -13130603 -13502259 -13880497 -14170125 
1155.115 -14317720 -14322241 -14229067 -14113389 -14047342 -14077047 
1155.476 -14195780 -14343527 -14421196 -14338719 -14056100 -13613990 
1155.838 -13127227 -12752805 -12635961 -12843047 -13337390 -13977404 
1156.200 -14575914 -14944095 -14966056 -14630861 -14023635 -13284883 
1156.562 -12553916 -11936493 -11476762 -11173609 -11005753 -10957389 
1156.924 -11028559 -11225112 -11539103 -11927080 -12305339 -12571492 
1157.285 -12622090 -12395127 -11890200 -11174933 -10366356 -9603039 -9020770 
1157.708 -8713170 -8723692 -9040404 -9606572 -10328598 -11093581 -11793117 
1158.130 -12323311 -12605643 -12596180 -12290458 -11729232 -10996029 
1158.491 -10216505 -9527811 -9057343 -8890907 -9038846 -9427182 -9907970 
1158.914 -10313941 -10496652 -10392754 -10047761 -9610882 -9275808 -9203993 
1159.336 -9467579 -10008551 -10660146 -11198635 -11443554 -11306052 
1159.698 -10822901 -10122543 -9377379 -8726225 -8223319 -7836117 -7475700 
1160.120 -7057971 -6548755 -5992016 -5492181 -5178567 -5144286 -5418102 
1160.542 -5951131 -6642188 -7363487 -8002438 -8491433 -8806496 -8962059 
1160.964 -8989744 -8920934 -8768505 -8522202 -8149705 -7612695 -6885809 
1161.386 -5981754 -4965337 -3963116 -3144407 -2667464 -2645663 -3087594 
1161.808 -3886115 -4819280 -5617210 -6037635 -5917564 -5233995 -4096857 
1162.230 -2722982 -1353964 -216609 527681 809124 637170 88742 -721358 
1162.713 -1649226 -2551630 -3311712 -3848710 -4144349 -4240565 -4229966 
1163.135 -4215299 -4277706 -4442902 -4670781 -4865546 -4909383 -4709623 
1163.557 -4217760 -3447396 -2460212 -1351420 -219821 844081 1756137 2447503 
1164.039 2860951 2960288 2743997 2254716 1580682 831930 128115 -434865 
1164.522 -803154 -961577 -925474 -722813 -385906 53846 557340 1068162 
1165.004 1521825 1854090 2026060 2043604 1962450 1872991 1862609 1990243 
1165.487 2257380 2611042 2957118 3198882 3262807 3111872 2749799 2210221 
1165.969 1546265 817622 96662 -532766 -983959 -1170636 -1031099 -546632 
1166.451 252886 1297178 2498755 3770439 5050048 6296391 7476603 8554923 
1166.934 9481947 10205304 10696601 10974756 11123385 11270705 11568386 
1167.356 12125245 12961226 13981779 14998253 15772611 16078552 15786011 
1167.778 14889439 13523806 11915343 10350073 9093515 8321947 8108980 8411190 
1168.260 9106101 10026980 11027500 12012345 12946172 13842465 14729061 
1168.683 15610155 16443001 17132900 17558506 17622442 17286446 16608521 
1169.105 15734266 14883884 14283003 14106796 14445134 15273860 16470119 
1169.527 17837984 19174572 20294276 21069762 21456596 21489180 21272062 
1169.949 20945194 20664750 20554818 20682298 21048996 21597782 22238484 
1170.371 22876046 23446660 23924956 24321808 24663712 24973072 25252274 
1170.793 25485624 25653010 25751442 25807524 25879472 26034558 26323068 
1171.215 26754396 27286450 27834380 28294018 28584140 28663170 28548152 
1171.637 28303108 28028864 27833852 27808594 28018900 28488000 29195264 
1172.060 30072780 31018402 31904642 32596532 32990806 33032670 32741244 
1172.482 32206110 31580974 31043956 30746248 30792910 31207946 31942300 
1172.904 32888900 33925220 34943480 35873008 36693208 37421048 38088292 
1173.326 38713816 39286524 39761172 40079264 40192432 40097248 39848400 
1173.748 39559768 39364260 39371260 39628768 40098304 40666656 41178880 
1174.170 41506832 41583504 41438152 41177784 40960684 40931116 41169336 
1174.592 41680292 42400472 43236328 44094588 44914312 45662588 46320248 
1175.014 46865472 47260952 47461712 47437280 47191836 46780032 46294928 
1175.437 45856940 45573524 45512992 45697152 46102072 46673544 47340128 
1175.859 48029940 48667144 49173164 49478472 49527192 49299712 48825432 
1176.281 48192736 47533344 46993528 46719148 46815644 47339424 48297744 
1176.703 49654512 51335452 53227748 55193716 57059892 58641028 59784880 
1177.125 60396740 60487376 60177584 59691088 59285000 59178820 59502720 
1177.547 60247196 61274784 62354536 63253916 63787168 63875056 63556360 
1177.969 62969720 62304008 61734908 61402740 61378348 61669484 62239036 
1178.391 63028596 63975484 65017596 66099180 67159952 68132368 68951528 
1178.813 69560344 69930928 70080800 70084232 70065584 70172080 70555616 
1179.236 71319304 72490080 74002216 75712272 77421488 78914168 80020480 
1179.658 80631464 80728576 80378648 79723712 78946032 78222304 77709008 
1180.080 77501096 77626432 78050400 78694240 79457536 80238528 80961952 
1180.502 81578736 82068896 82435176 82697120 82888048 83052816 83252768 
1180.924 83552880 84004472 84622736 85362496 86112456 86704760 86975576 
1181.346 86811096 86208088 85290192 84300920 83537576 83248224 83582280 
1181.768 84527888 85930768 87533520 89075208 90361776 91303464 91927224 
1182.190 92338632 92672080 93031152 93470928 93991376 94558528 95126640 
1182.613 95662736 96156408 96618200 97072936 97552208 98092560 98728232 
1183.035 99486776 100378968 101387392 102457264 103497400 104403776 
1183.396 105071384 105424600 105433304 105110040 104500704 103660960 
1183.758 102645072 101492816 100237120 98923464 97619784 96432032 95497816 
1184.180 94950880 94902632 95400024 96408368 97804392 99401208 100995872 
1184.603 102398456 103496224 104274936 104822920 105290552 105845488 
1184.964 106611488 107614592 108769784 109895696 110783944 111245072 
1185.326 111186864 110641224 109760440 108763400 107865216 107226424 
1185.688 106892464 106792928 106761528 106604376 106141112 105256024 
1186.050 103925224 102208696 100234368 98159600 96161208 94397120 92987280 
1186.472 92009448 91482792 91370568 91582568 92000520 92490304 92926536 
1186.894 93222448 93331080 93250536 93007960 92642472 92184192 91643936 
1187.316 91017440 90298496 89499712 88672888 87909256 87335120 87087072 
1187.738 87264296 87902040 88940184 90233360 91559328 92678272 93399072 
1188.160 93612272 93333672 92692464 91907488 91208904 90786032 90739152 
1188.583 91054376 91622088 92279784 92884920 93350760 93683672 93967720 
1189.005 94336800 94912696 95758768 96856672 98112200 99388792 100549968 
1189.427 101516176 102279688 102903288 103479608 104093832 104777536 
1189.789 105494048 106145424 106613224 106809152 106707008 106362224 
1190.150 105893640 105453576 105169304 105117928 105313312 105723024 
1190.512 106298816 107010808 107864064 108890856 110122016 111551296 
1190.874 113108752 114665424 116064048 117154824 117853680 118159944 
1191.236 118153984 117955480 117687808 117433760 117215096 117003400 
1191.598 116746408 116402592 115959184 115435104 114862648 114264960 
1191.959 113635808 112940520 112130600 111175608 110082528 108907712 
1192.321 107736272 106665792 105772688 105091464 104617344 104315584 
1192.683 104141664 104047384 103985872 103901392 103715104 103336040 
1193.045 102672896 101665888 100319520 98718128 97019288 95402176 94037120 
1193.467 93022824 92362080 91965760 91690304 91389056 90944752 90306040 
1193.889 89482616 88531248 87526592 86549400 85673840 84957648 84444496 
1194.311 84151888 84060960 84108568 84194760 84208592 84049784 83667520 
1194.733 83068056 82303160 81433072 80490824 79455112 78260552 76828608 
1195.156 75124952 73201832 71218608 69407264 67997840 67164512 66950536 
1195.578 67261864 67889672 68592912 69152776 69417992 69327264 68878176 
1196.000 68096752 67007676 65632336 64004012 62189136 60312288 58536972 
1196.422 57029780 55922276 55254932 54964868 54895644 54859252 54677104 
1196.844 54236820 53520552 52597100 51594740 50649868 49881952 49353948 
1197.266 49066276 48961488 48947948 48921992 48786724 48478568 47970028 
1197.688 47269668 46410280 45435732 44383684 43275276 42117112 40907780 
1198.110 39650840 38365200 37088480 35869728 34762244 33806008 33023160 
1198.532 32415412 31970620 31667002 31478860 31378872 31332218 31296070 
1198.955 31224218 31068298 30792520 30381930 29845614 29212984 28525434 
1199.377 27829046 27163540 26566926 26078220 25735270 25576988 25628724 
1199.799 25886858 26304938 26790518 27221216 27457886 27389452 26959326 
1200.221 26183610 25149706 24002126 22913454 22031586 21463418 21244606 
1200.643 21339052 21647548 22037060 22378320 22560464 22521586 22249610 
1201.065 21776394 21158776 20465304 19763538 19105942 18534014 18073532 
1201.487 17731114 17488336 17297170 17087854 16776105 16296910 15632378 
1201.909 14832179 14008572 13311348 12886470 12814697 13084583 13582774 
1202.332 14139554 14565385 14721006 14559492 14130072 13556109 12985567 
1202.754 12560258 12371350 12456962 12809101 13388841 14133460 14956720 
1203.176 15757870 16414646 16806032 16847536 16514860 15869068 15041266 
1203.598 14213395 13549716 13149025 13019606 13081203 13200018 13237352 
1204.020 13107326 12793846 12352020 11872333 11450290 11143340 10954877 
1204.442 10838374 10719898 10527037 10204864 9732182 9116523 8385584 7575046 
1204.925 6725264 5880871 5088030 4401622 3878743 3567375 3501100 3684551 
1205.407 4093559 4676343 5370197 6115127 6861472 7578687 8244441 8832487 
1205.889 9304663 9604726 9670855 9460341 8968783 8248020 7395574 6541602 
1206.372 5801884 5245523 4885388 4683343 4582273 4543264 4571691 4717006 
1206.854 5044417 5589377 6323958 7144390 7905531 8455345 8702523 8644281 
1207.337 8364709 7990369 7638708 7373600 7185418 7011865 6782004 6464782 
1207.819 6088312 5733018 5486451 5406999 5486618 5655434 5803294 5831838 
1208.302 5687426 5375833 4949596 4483368 4045062 3677266 3406148 3253393 
1208.784 3246583 3421310 3803329 4386427 5115689 5891081 6589672 7087300 
1209.266 7299294 7189225 6769080 6084112 5198910 4188327 3129459 2114585 
1209.749 1244672 611753 286538 287963 576384 1058961 1626676 2187675 2694518 
1210.292 3154857 3611609 4109480 4660970 5232277 5753062 6151387 6379233 
1210.774 6439358 6377552 6262169 6142515 6022726 5852928 5552727 5042272 
1211.256 4281543 3294289 2168993 1036309 21305 -781160 -1341676 -1697283 
1211.739 -1938514 -2170842 -2476520 -2885776 -3356989 -3782365 -4010524 
1212.161 -3904932 -3379083 -2440905 -1195684 163679 1408689 2341921 2822396 
1212.643 2809157 2353914 1584074 655056 -280620 -1094891 -1706458 -2070143 
1213.126 -2172128 -2023281 -1657775 -1132237 -517344 101932 645101 1050093 
1213.608 1273284 1294087 1106328 712103 120558 -642887 -1523610 -2436720 
1214.091 -3262616 -3871075 -4162137 -4087141 -3675698 -3024258 -2279428 
1214.513 -1587165 -1058699 -756552 -687053 -819294 -1103517 -1494157 
1214.935 -1949235 -2427659 -2883274 -3252619 -3460446 -3436515 -3125755 
1215.357 -2510815 -1620177 -532038 640787 1765386 2702386 3343404 3618759 
1215.839 3514929 3074129 2387596 1573267 741343 -16566 -650695 -1151007 
1216.322 -1535166 -1831394 -2065494 -2258629 -2429175 -2601202 -2806214 
1216.744 -3071243 -3405417 -3783022 -4145760 -4414434 -4525543 -4466417 
1217.166 -4293488 -4119931 -4074077 -4252213 -4664683 -5222602 -5754007 
1217.588 -6075701 -6042274 -5606220 -4830486 -3869236 -2910527 -2108922 
1218.010 -1560028 -1278481 -1219639 -1308874 -1478571 -1683157 -1900380 
1218.432 -2125705 -2360899 -2609337 -2875605 -3167335 -3492527 -3853177 
1218.854 -4236332 -4613150 -4946042 -5201977 -5371076 -5473434 -5553425 
1219.277 -5657439 -5812794 -6013944 -6228032 -6414069 -6554630 -6673415 
1219.699 -6836887 -7127403 -7602341 -8264381 -9044655 -9821521 -10447521 
1220.121 -10807291 -10842550 -10561624 -10020304 -9295430 -8456144 -7547769 
1220.543 -6603583 -5657636 -4755311 -3959176 -3331310 -2914740 -2722686 
1220.965 -2737701 -2926259 -3254723 -3702901 -4254674 -4879111 -5514854 
1221.387 -6058645 -6390072 -6421513 -6138659 -5637914 -5107546 -4796341 
1221.809 -4912758 -5556336 -6670739 -8057539 -9424621 -10472297 -11004945 
1222.231 -10963043 -10439434 -9617040 -8716840 -7914958 -7302304 -6893734 
1222.654 -6650998 -6527344 -6497804 -6573135 -6786752 -7169057 -7720026 
1223.076 -8394562 -9103128 -9740337 -10198349 -10400163 -10314847 -9957065 
1223.498 -9379227 -8653215 -7860718 -7072086 -6343608 -5718299 -5224796 
1223.920 -4884484 -4712671 -4715523 -4882911 -5178699 -5539717 -5872325 
1224.342 -6074427 -6064821 -5805340 -5326926 -4727551 -4157838 -3766631 
1224.764 -3663871 -3880106 -4357393 -4963699 -5540077 -5966132 -6189031 
1225.186 -6245375 -6233225 -6275847 -6462320 -6816730 -7290085 -7786684 
1225.608 -8202804 -8468688 -8580616 -8600984 -8636390 -8789839 -9133952 
1226.031 -9678741 -10372406 -11111377 -11775833 -12263659 -12508977 
1226.392 -12502088 -12284274 -11937879 -11556299 -11232022 -11037410 
1226.754 -11012407 -11169218 -11494703 -11959734 -12520180 -13120573 
1227.116 -13695416 -14163518 -14443055 -14464880 -14191580 -13638586 
1227.478 -12882033 -12053332 -11297272 -10747786 -10482292 -10499789 
1227.840 -10722960 -11026557 -11285197 -11400662 -11336009 -11111183 
1228.201 -10786444 -10429859 -10099106 -9835158 -9663932 -9610882 -9707483 
1228.624 -9982808 -10450723 -11088284 -11831134 -12571170 -13187725 
1228.985 -13581138 -13690473 -13511574 -13085948 -12482256 -11769996 
1229.347 -11013183 -10272232 -9608225 -9097807 -8825262 -8860683 -9240713 
1229.769 -9943950 -10892961 -11965569 -13039617 -14029538 -14907022 
1230.131 -15703587 -16485294 -17314504 -18210772 -19132778 -19978632 
1230.493 -20620220 -20922000 -20784528 -20168676 -19103006 -17684922 
1230.855 -16066918 -14452670 -13048716 -12040183 -11554751 -11621371 
1231.217 -12162149 -12998972 -13910534 -14662768 -15080387 -15089219 
1231.578 -14717670 -14080126 -13328456 -12623023 -12084655 -11789151 
1231.940 -11771963 -12035253 -12556460 -13284721 -14143473 -15018776 
1232.302 -15773153 -16279491 -16439579 -16226668 -15693359 -14970602 
1232.664 -14226181 -13624393 -13293913 -13289092 -13590033 -14109604 
1233.026 -14729233 -15319225 -15773280 -16036358 -16108712 -16046610 
1233.387 -15940199 -15893148 -15981367 -16227659 -16587554 -16961968 
1233.749 -17224742 -17262764 -17025756 -16542742 -15921641 -15304192 
1234.111 -14834084 -14602795 -14625222 -14843178 -15150980 -15437524 
1234.473 -15612850 -15638836 -15530024 -15346028 -15166307 -15076227 
1234.835 -15147461 -15419360 -15892094 -16518597 -17215634 -17867928 
1235.197 -18363798 -18627916 -18641628 -18455358 -18168892 -17900520 
1235.558 -17730346 -17670606 -17651296 -17552532 -17244136 -16650090 
1235.920 -15789768 -14787394 -13838519 -13137225 -12826062 -12928671 
1236.282 -13344940 -13868302 -14269180 -14359941 -14058313 -13418065 
1236.644 -12614623 -11894907 -11481828 -11529583 -12062710 -12980643 
1237.006 -14081858 -15139429 -15974244 -16495215 -16728144 -16789066 
1237.367 -16839238 -17009284 -17361210 -17862332 -18404768 -18834100 
1237.729 -19004096 -18826454 -18283718 -17434236 -16383490 -15266893 
1238.091 -14211558 -13323604 -12686294 -12349977 -12334680 -12625405 
1238.453 -13173485 -13893173 -14673435 -15404683 -15989127 -16369227 
1238.815 -16536683 -16527910 -16409462 -16254501 -16127231 -16061904 
1239.177 -16059509 -16090034 -16107116 -16059222 -15905766 -15630174 
1239.538 -15241269 -14773143 -14273508 -13798719 -13400042 -13116554 
1239.900 -12977363 -12999229 -13188529 -13536561 -14014909 -14564604 
1240.262 -15093059 -15494023 -15660154 -15521839 -15075586 -14397124 
1240.624 -13627412 -12929604 -12458205 -12301056 -12465289 -12881905 
1240.986 -13442480 -14034446 -14574217 -15026906 -15392530 -15684508 
1241.347 -15904265 -16028823 -16015410 -15823506 -15433718 -14866456 
1241.709 -14178848 -13457514 -12788100 -12239758 -11851737 -11626920 
1242.071 -11536585 -11526873 -11535585 -11499447 -11376293 -11162048 
1242.433 -10902623 -10689405 -10633828 -10837735 -11341852 -12098802 
1242.795 -12963695 -13741164 -14230894 -14299093 -13932675 -13246286 
1243.156 -12451251 -11773672 -11408989 -11452138 -11887685 -12606383 
1243.518 -13455008 -14285403 -14980557 -15481362 -15775325 -15883660 
1243.880 -15843218 -15699783 -15500003 -15283048 -15077922 -14894376 
1244.242 -14721834 -14536631 -14317784 -14063190 -13799811 -13576577 
1244.604 -13447556 -13448294 -13575357 -13783858 -14002140 -14166662 
1244.966 -14243784 -14248402 -14232049 -14264082 -14395009 -14637011 
1245.327 -14960038 -15307678 -15620490 -15853504 -15989127 -16029717 
1245.689 -15986765 -15868839 -15681408 -15430329 -15128677 -14799499 
1246.051 -14468021 -14148477 -13835855 -13508169 -13141341 -12731891 
1246.413 -12313455 -11958155 -11758677 -11785281 -12058618 -12527971 
1246.775 -13090481 -13616205 -14002332 -14210820 -14274758 -14279952 
1247.136 -14321022 -14463631 -14710016 -14999763 -15227577 -15291301 
1247.498 -15119173 -14697267 -14070599 -13335750 -12615492 -12026195 
1247.860 -11668047 -11596176 -11811787 -12258795 -12838479 -13432778 
1248.222 -13933798 -14286813 -14505131 -14671801 -14901163 -15303936 
1248.584 -15935216 -16769843 -17702894 -18585536 -19280090 -19690382 
1248.946 -19796512 -19642882 -19314542 -18893522 -18438940 -17978986 
1249.307 -17520042 -17067268 -16637782 -16258841 -15957637 -15743148 
1249.669 -15596421 -15473688 -15325271 -15118629 -14852175 -14556850 
1250.031 -14280465 -14066590 -13930975 -13856492 -13800549 -13718949 
1250.393 -13583547 -13398403 -13198107 -13038588 -12975400 -13044890 
1250.755 -13256055 -13585088 -13981734 -14374013 -14687689 -14851599 
1251.116 -14812373 -14548583 -14076854 -13455619 -12769954 -12124645 
1251.478 -11614081 -11299240 -11201864 -11299918 -11542296 -11862216 
1251.840 -12200392 -12511167 -12762972 -12937226 -13020131 -13001706 
1252.202 -12879782 -12669141 -12408716 -12159185 -12001733 -12011499 
1252.564 -12235344 -12672231 -13263447 -13898532 -14433663 -14739450 
1252.926 -14725486 -14372891 -13737248 -12938320 -12121583 -11406763 
1253.287 -10866269 -10500954 -10256893 -10055855 -9844196 -9623943 -9465213 
1253.709 -9478083 -9774970 -10417567 -11381038 -12546352 -13727425 -14737945 
1254.132 -15426683 -15731899 -15685914 -15397455 -15002452 -14621986 
1254.493 -14337628 -14174839 -14118745 -14132890 -14183242 -14244779 
1254.855 -14302588 -14344136 -14350740 -14295727 -14151877 -13899463 
1255.217 -13538296 -13093086 -12616361 -12178065 -11858991 -11742488 
1255.579 -11892392 -12343246 -13081319 -14038906 -15087587 -16056923 
1255.941 -16778226 -17105558 -16967608 -16386202 -15479316 -14426869 
1256.302 -13427478 -12659229 -12222717 -12133054 -12319285 -12660710 
1256.664 -13011706 -13244904 -13284593 -13111121 -12766575 -12335389 
1257.026 -11933140 -11670628 -11630759 -11851866 -12312425 -12933818 
1257.388 -13591510 -14155949 -14511829 -14594690 -14407670 -14019785 
1257.750 -13546454 -13111829 -12829729 -12768957 -12946714 -13332441 
1258.112 -13865093 -14469880 -15072738 -15617740 -16066598 -16399762 
1258.473 -16616000 -16729897 -16770162 -16772458 -16775837 -16807620 
1258.835 -16873756 -16951612 -16995200 -16948998 -16766975 -16438272 
1259.197 -15997496 -15524397 -15114277 -14854545 -14786850 -14889766 
1259.559 -15080418 -15245300 -15286407 -15154820 -14878496 -14551243 
1259.921 -14306660 -14258053 -14462668 -14894728 -15456710 -16004680 
1260.282 -16399985 -16562102 -16481658 -16217094 -15854526 -15477493 
1260.644 -15135077 -14840424 -14589211 -14382796 -14244939 -14224096 
1261.006 -14371064 -14715620 -15239670 -15874781 -16507784 -17013012 
1261.368 -17293458 -17295528 -17027158 -16542647 -15926687 -15260016 
1261.730 -14603725 -13994344 -13445275 -12960704 -12546899 -12217659 
1262.092 -11994578 -11900291 -11948097 -12136470 -12444232 -12831981 
1262.453 -13243007 -13613604 -13880786 -13986996 -13893430 -13583354 
1262.815 -13065918 -12373519 -11562171 -10705277 -9882157 -9182259 -8691605 
1263.237 -8480906 -8599262 -9054747 -9808175 -10764400 -11793988 -12750907 
1263.659 -13499689 -13956740 -14103125 -13992290 -13728227 -13446946 
1264.021 -13276752 -13303296 -13564021 -14041311 -14681443 -15407529 
1264.383 -16146736 -16838346 -17433726 -17896164 -18191264 -18281970 
1264.745 -18135304 -17727644 -17058858 -16158741 -15092388 -13950098 
1265.107 -12827799 -11820332 -10997192 -10398965 -10041350 -9920632 
1265.469 -10024255 -10335102 -10831271 -11476438 -12209702 -12949737 
1265.830 -13592217 -14035024 -14206748 -14084392 -13708579 -13172843 
1266.192 -12609602 -12146683 -11884461 -11879723 -12136019 -12613336 
1266.554 -13237994 -13924108 -14575562 -15101060 -15428155 -15504447 
1266.916 -15312380 -14871707 -14240162 -13499239 -12739806 -12051237 
1267.278 -11500899 -11136406 -10986337 -11062185 -11359606 -11850254 
1267.639 -12474110 -13126392 -13668030 -13958152 -13878347 -13385938 
1268.001 -12531254 -11461368 -10371500 -9461517 -8882369 -8686442 -8826626 
1268.423 -9173889 -9574097 -9880505 -9998189 -9897703 -9601354 -9164968 
1268.845 -8654580 -8137673 -7669147 -7291649 -7035248 -6910529 -6908442 
1269.268 -7000363 -7150675 -7327032 -7517940 -7738059 -8025631 -8424168 
1269.690 -8960988 -9630230 -10386834 -11155105 -11841161 -12361765 -12649735 
1270.112 -12655979 -12349076 -11709043 -10735988 -9464564 -7986954 -6456869 
1270.534 -5064711 -4020635 -3480563 -3500744 -4010524 -4827963 -5702865 
1270.956 -6381550 -6699191 -6608772 -6201085 -5657897 -5214614 -5081348 
1271.378 -5382334 -6138855 -7258414 -8568076 -9839208 -10861423 -11482699 
1271.800 -11639726 -11367675 -10774970 -10002885 -9170482 -8356470 -7585834 
1272.222 -6842138 -6092658 -5313932 -4509311 -3712396 -2975097 -2351375 
1272.645 -1885304 -1599644 -1500200 -1580034 -1824597 -2209908 -2696739 
1273.067 -3230880 -3739071 -4146548 -4399379 -4479207 -4415418 -4274622 
1273.489 -4143627 -4092327 -4156328 -4329247 -4575644 -4851850 -5128667 
1273.911 -5400922 -5676801 -5956328 -6213726 -6385697 -6389876 -6154078 
1274.333 -5643539 -4882813 -3948505 -2948474 -1975820 -1090661 -308666 
1274.755 381374 993632 1515807 1905405 2098303 2042372 1727561 1202939 
1275.238 567293 -59372 -566520 -894889 -1042007 -1055890 -1003728 -948254 
1275.720 -923920 -931789 -949378 -948452 -911488 -836458 -735581 -623499 
1276.202 -507912 -381238 -221047 3677 318999 736166 1240851 1793932 2332227 
1276.745 2785480 3099124 3248653 3255763 3182994 3121283 3151153 3313487 
1277.228 3587454 3894322 4117408 4143432 3912243 3435169 2800519 2134996 
1277.710 1574065 1208786 1064840 1108986 1276175 1505167 1762292 2051660 
1278.192 2401323 2839072 3372254 3980788 4626174 5273225 5902433 6516005 
1278.675 7125864 7735029 8322690 8845439 9251012 9510191 9638162 9704872 
1279.157 9810227 10057599 10511998 11171965 11968746 12788421 13518303 
1279.579 14070858 14414340 14567406 14581215 14508921 14386803 14227911 
1280.001 14029174 13785172 13501554 13196602 12895687 12619811 12376634 
1280.424 12161192 11963671 11780776 11624299 11521021 11506527 11616301 
1280.846 11873423 12287118 12852715 13556075 14374576 15274854 16212359 
1281.268 17123078 17931484 18566554 18972694 19134474 19085064 18908594 
1281.690 18717180 18631536 18758764 19162972 19861304 20817706 21954626 
1282.112 23154986 24284348 25221160 25869766 26196246 26238410 26107600 
1282.534 25953192 25921324 26110976 26532374 27107426 27696768 28167962 
1282.956 28440666 28531770 28543800 28633332 28934624 29495422 30246032 
1283.378 31015272 31591020 31789370 31541672 30917028 30114756 29382736 
1283.801 28964128 29015276 29563126 30512578 31684070 32885824 33949584 
1284.223 34784464 35377132 35775672 36054996 36288892 36528356 36790348 
1284.645 37065312 37328208 37555528 37732912 37860908 37951476 38022684 
1285.067 38091148 38168056 38262128 38382716 38545048 38772500 39089908 
1285.489 39516144 40053172 40682044 41363760 42052792 42716884 43348420 
1285.911 43971636 44632576 45383420 46255708 47245324 48305448 49359852 
1286.333 50317804 51093012 51626388 51886520 51871848 51605564 51136216 
1286.755 50534684 49885224 49285164 48818760 48539072 48457120 48540404 
1287.177 48729672 48967720 49233092 49554860 50006108 50663716 51572320 
1287.600 52703852 53959364 55183068 56220904 56972124 57413832 57609728 
1288.022 57680564 57766844 57972484 58346268 58875916 59511652 60190560 
1288.444 60861156 61493124 62064660 62552752 62927856 63156644 63219956 
1288.866 63128212 62930956 62703892 62532164 62486208 62597372 62858120 
1289.288 63226320 63645504 64053968 64399196 64646072 64775592 64790672 
1289.710 64716600 64600968 64500092 64462960 64512396 64630076 64759328 
1290.132 64825372 64775712 64608924 64397320 64267560 64376524 64843336 
1290.554 65700480 66872612 68197960 69479696 70540184 71286072 71713552 
1290.977 71898104 71945328 71957496 71996408 72074864 72172784 72261408 
1291.399 72327704 72384152 72466744 72620328 72886728 73289576 73832752 
1291.821 74499592 75257520 76056680 76829632 77502240 77995000 78247184 
1292.243 78237504 77999440 77624288 77242736 77006088 77033696 77386328 
1292.665 78045520 78923064 79880360 80767720 81473880 81941280 82182712 
1293.087 82265152 82288456 82345008 82489616 82727992 83016832 83284592 
1293.509 83453480 83473008 83330352 83056144 82708912 82363752 82092400 
1293.931 81947320 81964888 82160568 82530768 83049008 83662776 84292752 
1294.354 84830936 85170448 85223904 84955384 84398616 83659808 82896592 
1294.776 82265712 81897944 81853736 82115008 82595248 83173104 83728504 
1295.198 84160528 84411968 84463048 84322568 84014072 83568056 83017312 
1295.620 82392992 81728656 81055664 80397904 79768824 79167432 78580224 
1296.042 77985408 77361576 76694440 75982080 75236912 74487592 73777256 
1296.464 73154424 72668696 72356624 72229168 72265400 72413976 72609440 
1296.886 72786136 72907696 72980432 73058368 73223680 73564048 74139320 
1297.308 74952920 75942736 76988280 77949288 78683672 79090232 79127560 
1297.730 78815352 78226824 77467032 76662144 75927536 75358872 75023960 
1298.153 74949456 75122472 75490376 75976912 76490704 76951568 77313712 
1298.575 77575328 77783664 78019984 78382656 78948928 79750504 80755152 
1298.997 81872456 82967656 83894840 84546968 84875416 84910424 84741848 
1299.419 84497256 84291704 84190176 84195528 84254536 84290056 84237952 
1299.841 84086936 83889656 83756232 83810728 84161416 84857408 85868016 
1300.263 87081248 88327144 89427488 90221496 90623040 90644224 90410528 
1300.685 90133736 90078888 90512216 91611080 93423104 95821848 98536744 
1301.107 101175648 103331072 104702424 105148624 104741856 103716536 
1301.469 102405792 101109568 100024160 99214536 98624768 98131512 97604440 
1301.891 96962576 96184368 95302264 94369448 93437032 92531384 91654000 
1302.313 90790728 89923056 89033384 88102896 87108088 86018568 84800240 
1302.736 83430360 81905384 80251280 78517656 76775928 75104936 73577944 
1303.158 72266456 71227744 70498520 70083296 69937976 69960584 69989232 
1303.580 69846632 69367688 68453792 67105456 65422424 63573464 61730556 
1304.002 60032108 58532688 57201236 55945080 54662184 53288616 51830480 
1304.424 50367252 49031924 47972988 47299448 47061796 47232024 47716700 
1304.846 48366148 49010668 49497224 49704444 49581376 49156764 48546668 
1305.268 47925292 47499412 47466072 47948864 48976768 50463856 52239368 
1305.690 54065628 55695724 56924600 57590320 57603376 56941940 55645968 
1306.113 53809392 51572468 49118288 46634440 44305888 42283004 40649188 
1306.535 39419260 38533788 37883720 37324196 36716460 35960860 35010748 
1306.957 33888644 32677152 31504686 30501560 29777442 29388586 29321336 
1307.379 29492904 29769882 30012170 30090890 29926576 29498010 28834584 
1307.801 27998648 27063872 26103132 25170560 24303024 23520248 22827502 
1308.223 22219024 21681680 21200454 20762370 20361986 20002838 19696480 
1308.645 19456410 19291880 19206294 19196528 19259148 19394840 19609048 
1309.067 19905528 20275738 20690152 21095326 21426206 21631492 21690214 
1309.490 21627070 21502760 21395680 21362892 21415658 21509792 21565432 
1309.912 21496146 21246312 20817218 20267302 19690930 19176374 18781946 
1310.334 18510676 18317570 18124934 17855834 17455186 16897794 16192514 
1310.756 15375184 14505735 13656145 12911695 12355566 12046069 12001138 
1311.178 12179764 12491471 12808281 13011617 13029234 12853432 12540716 
1311.600 12185114 11883571 11692097 11616914 11615926 11626715 11584721 
1312.022 11442771 11173733 10759602 10186037 9445035 8549077 7549051 6542477 
1312.505 5667788 5054138 4781892 4848530 5175035 5635193 6103904 6499693 
1312.987 6785134 6959337 7028871 6981089 6775710 6361144 5705521 4834156 
1313.469 3846884 2909015 2187242 1803880 1784949 2060216 2491590 2928596 
1313.952 3259636 3419907 3397766 3210031 2879295 2417982 1832129 1139083 
1314.434 382866 -351608 -945840 -1285056 -1283800 -926300 -274627 537501 
1314.917 1344970 1995469 2367307 2402356 2106594 1549956 846404 139350 
1315.399 -427847 -757842 -816086 -648313 -358097 -82992 58982 8813 -220186 
1315.942 -547923 -861094 -1045213 -1030438 -803849 -410403 67963 527549 
1316.424 863834 993101 850986 405053 -339590 -1329652 -2462123 -3598483 
1316.907 -4582103 -5299333 -5714931 -5886969 -5929331 -5964466 -6071617 
1317.329 -6259877 -6481450 -6663528 -6755958 -6757556 -6726335 -6750771 
1317.751 -6915159 -7249290 -7711400 -8191521 -8557420 -8693132 -8541339 
1318.173 -8123690 -7536469 -6926280 -6445084 -6236491 -6403295 -6996222 
1318.595 -8013433 -9392359 -11007658 -12654048 -14087504 -15065729 -15424573 
1319.017 -15149476 -14379046 -13354773 -12317835 -11465951 -10902914 
1319.379 -10637579 -10608932 -10718596 -10870341 -10990310 -11047392 
1319.741 -11046390 -11013377 -10974965 -10945952 -10921557 -10882783 
1320.103 -10805028 -10670719 -10477084 -10237897 -9978049 -9724557 -9503661 
1320.525 -9335417 -9237469 -9233512 -9356203 -9649674 -10161127 -10917422 
1320.947 -11904707 -13049327 -14226501 -15267917 -16008290 -16332882 
1321.309 -16201196 -15667345 -14858579 -13944130 -13066143 -12304340 
1321.671 -11656177 -11054046 -10402201 -9627929 -8721191 -7743625 -6812228 
1322.093 -6052992 -5573575 -5424450 -5596636 -6034465 -6665682 -7425347 
1322.515 -8269420 -9181902 -10163588 -11220689 -12352135 -13539838 -14741372 
1322.937 -15892031 -16896320 -17641560 -18018850 -17939342 -17373404 
1323.299 -16370343 -15069313 -13663471 -12369397 -11375939 -10787833 
1323.661 -10619699 -10799404 -11212972 -11736489 -12283243 -12817923 
1324.022 -13344330 -13879053 -14422606 -14939133 -15364611 -15627330 
1324.384 -15678115 -15517299 -15199071 -14817272 -14465169 -14212360 
1324.746 -14077400 -14031398 -14016866 -13982986 -13910630 -13820610 
1325.108 -13760585 -13778048 -13893943 -14087504 -14302107 -14469367 
1325.470 -14545347 -14527915 -14461163 -14407542 -14417093 -14489109 
1325.832 -14563515 -14530383 -14278541 -13741935 -12936166 -11962507 
1326.193 -10985885 -10187118 -9692480 -9547875 -9698669 -10019495 -10340570 
1326.615 -10503897 -10403818 -9993981 -9295073 -8378604 -7358764 -6366008 
1327.038 -5540241 -5017319 -4896279 -5229674 -6002440 -7136757 -8498484 
1327.460 -9931060 -11298789 -12500221 -13491114 -14274790 -14882113 
1327.822 -15347308 -15693264 -15928317 -16052740 -16068961 -15987914 
1328.183 -15825806 -15596229 -15301601 -14930681 -14465329 -13895580 
1328.545 -13233365 -12523142 -11835035 -11251749 -10854184 -10695676 
1328.907 -10793555 -11122583 -11623790 -12210217 -12783885 -13261680 
1329.269 -13582775 -13731052 -13738757 -13686812 -13679074 -13811687 
1329.631 -14146264 -14682436 -15355911 -16052676 -16655574 -17071888 
1329.992 -17268272 -17272952 -17158466 -17006100 -16871048 -16772840 
1330.354 -16694538 -16604615 -16475916 -16302310 -16098335 -15888166 
1330.716 -15689014 -15503200 -15317625 -15115877 -14888901 -14643899 
1331.078 -14399913 -14181798 -14006536 -13878956 -13792685 -13738853 
1331.440 -13710634 -13702062 -13700810 -13675960 -13572049 -13323701 
1331.802 -12871805 -12196526 -11334751 -10385216 -9481682 -8745190 -8254465 
1332.224 -8009399 -7938286 -7921661 -7850501 -7666510 -7390069 -7110845 
1332.646 -6962051 -7073097 -7518917 -8306673 -9371379 -10605633 -11877659 
1333.068 -13067911 -14086382 -14871195 -15397391 -15670573 -15724102 
1333.430 -15608598 -15386581 -15122085 -14865047 -14648416 -14481802 
1333.792 -14356158 -14251255 -14147932 -14036949 -13922119 -13818267 
1334.153 -13744599 -13719046 -13751758 -13845195 -13996269 -14199341 
1334.515 -14448696 -14736952 -15053311 -15380633 -15696395 -15978046 
1334.877 -16207868 -16382309 -16514290 -16632712 -16770450 -16951262 
1335.239 -17172288 -17396866 -17553422 -17553454 -17325840 -16841630 
1335.601 -16140830 -15326070 -14550409 -13964313 -13670438 -13701452 
1335.962 -14010642 -14499011 -15054303 -15608215 -16158996 -16773606 
1336.324 -17546710 -18556868 -19802874 -21171690 -22412430 -23203274 
1336.686 -23278338 -22541680 -21133410 -19356184 -17565452 -16031792 
1337.048 -14912562 -14245933 -13971179 -13964826 -14079132 -14193664 
1337.410 -14232594 -14187571 -14107230 -14076309 -14176956 -14457605 
1337.771 -14916563 -15502624 -16138053 -16752373 -17322560 -17888024 
1338.133 -18542326 -19390914 -20509394 -21885818 -23394614 -24775774 
1338.495 -25712848 -25968166 -25509998 -24554010 -23456962 -22573136 
1338.857 -22112536 -22133696 -22553946 -23208268 -23890864 -24427112 
1339.219 -24729482 -24798524 -24698118 -24498770 -24246692 -23951544 
1339.581 -23611196 -23243602 -22903454 -22683250 -22696268 -23041386 
1339.942 -23794452 -24993042 -26634444 -28659552 -30937892 -33257316 
1340.304 -35284476 -36620348 -36897552 -35904564 -33721400 -30706720 
1340.666 -27382398 -24220026 -21558286 -19550492 -18179092 -17319058 
1341.028 -16789544 -16421139 -16082754 -15715059 -15317529 -14918228 
1341.390 -14538874 -14178046 -13813645 -13426096 -13022446 -12651248 
1341.751 -12387269 -12312296 -12477491 -12879685 -13455812 -14099404 
1342.113 -14694512 -15135685 -15359813 -15348331 -15119589 -14714628 
1342.475 -14187828 -13599764 -13007011 -12464001 -12014722 -11686239 
1342.837 -11488798 -11416445 -11455882 -11593595 -11824782 -12150422 
1343.199 -12571879 -13078875 -13642664 -14213033 -14734358 -15157123 
1343.561 -15456550 -15639028 -15736533 -15789799 -15825646 -15848361 
1343.922 -15837051 -15761042 -15597411 -15349930 -15054079 -14772118 
1344.284 -14568513 -14493531 -14565213 -14765264 -15044478 -15338768 
1344.646 -15591433 -15759060 -15821429 -15779478 -15650054 -15459459 
1345.008 -15237846 -15017752 -14827007 -14688906 -14618686 -14621570 
1345.370 -14695057 -14831426 -15024922 -15276458 -15597155 -16003594 
1345.731 -16511612 -17122218 -17811356 -18521246 -19168920 -19656594 
1346.093 -19889100 -19803918 -19381948 -18658196 -17710052 -16648112 
1346.455 -15587374 -14620417 -13814768 -13203572 -12796143 -12589904 
1346.817 -12578477 -12752966 -13095497 -13574555 -14138855 -14720201 
1347.179 -15250195 -15666930 -15927996 -16013557 -15917361 -15637334 
1347.541 -15169378 -14512982 -13686684 -12746627 -11805370 -11012666 
1347.902 -10532293 -10496361 -10949215 -11824621 -12944109 -14076951 
1348.264 -14979213 -15480882 -15534978 -15221530 -14715493 -14220376 
1348.626 -13918749 -13906170 -14184653 -14674235 -15261839 -15837274 
1348.988 -16329499 -16720174 -17030472 -17300720 -17564720 -17839978 
1349.350 -18122242 -18395622 -18643216 -18856180 -19034066 -19177450 
1349.711 -19279520 -19319740 -19264020 -19076972 -18731544 -18226088 
1350.073 -17590272 -16889246 -16209209 -15633978 -15230520 -15023257 
1350.435 -14989968 -15064673 -15162819 -15202014 -15126660 -14925815 
1350.797 -14630284 -14300953 -13999766 -13775833 -13646903 -13600566 
1351.159 -13601048 -13605865 -13577734 -13487548 -13317756 -13060227 
1351.521 -12716960 -12306692 -11873049 -11488733 -11240966 -11217944 
1351.882 -11475374 -12010629 -12751840 -13570091 -14319483 -14867801 
1352.244 -15149668 -15179937 -15046718 -14865848 -14740155 -14714916 
1352.606 -14761485 -14790148 -14689996 -14382635 -13852673 -13166928 
1352.968 -12451218 -11863667 -11534682 -11530584 -11838678 -12374452 
1353.330 -13007686 -13597098 -14038328 -14275592 -14313328 -14200142 
1353.691 -14012567 -13825295 -13688803 -13624136 -13620989 -13652168 
1354.053 -13689253 -13721100 -13761581 -13850458 -14037558 -14371288 
1354.415 -14880320 -15564614 -16391531 -17299572 -18209882 -19024170 
1354.777 -19641394 -19971668 -19943978 -19526832 -18733924 -17625176 
1355.139 -16294396 -14863159 -13470877 -12247167 -11310184 -10740836 
1355.500 -10567185 -10762590 -11251459 -11934656 -12701515 -13464003 
1355.862 -14170029 -14807569 -15402379 -16005032 -16670274 -17429938 
1356.224 -18276126 -19147774 -19943440 -20529208 -20779538 -20616238 
1356.586 -20028722 -19088578 -17930886 -16737390 -15679458 -14891719 
1356.948 -14451003 -14364012 -14579118 -15002516 -15527721 -16042553 
1357.310 -16448800 -16676014 -16680319 -16454032 -16023904 -15450250 
1357.671 -14811348 -14190682 -13665332 -13285686 -13072702 -13014825 
1358.033 -13076367 -13204728 -13344683 -13453467 -13504251 -13494872 
1358.395 -13446592 -13405021 -13428570 -13573912 -13879406 -14341411 
1358.757 -14904813 -15464543 -15900016 -16101114 -16009184 -15639059 
1359.119 -15078275 -14457829 -13901292 -13494936 -13254320 -13134171 
1359.480 -13053154 -12940185 -12765321 -12554335 -12373519 -12303375 
1359.842 -12401406 -12676124 -13082348 -13532900 -13932643 -14195973 
1360.204 -14274694 -14163775 -13899238 -13549376 -13207461 -12991480 
1360.566 -13020195 -13408491 -14249460 -15597379 -17450436 -19718626 
1360.928 -22204884 -24537038 -26225922 -26842750 -26241800 -24672700 
1361.290 -22605314 -20497256 -18621660 -17097978 -15956743 -15186881 
1361.651 -14774872 -14704474 -14949249 -15457637 -16151654 -16943200 
1362.013 -17744216 -18496796 -19185818 -19837760 -20503672 -21229722 
1362.375 -22026090 -22848224 -23597388 -24153650 -24445466 -24503908 
1362.737 -24491756 -24653166 -25275888 -26603530 -28777218 -31741590 
1363.099 -35137540 -38219560 -39959960 -39629480 -37281232 -33716280 
1363.460 -29874472 -26434768 -23691178 -21647728 -20172820 -19072438 
1363.822 -18158248 -17277984 -16352922 -15382712 -14434081 -13604516 
1364.184 -12989229 -12652149 -12606448 -12818052 -13214724 -13710474 
1364.546 -14212168 -14640247 -14943295 -15099877 -15125925 -15068257 
1364.908 -14998258 -14987695 -15092388 -15335314 -15697643 -16122984 
1365.270 -16532503 -16854028 -17034328 -17054940 -16929082 -16692244 
1365.631 -16385341 -16040159 -15676966 -15302944 -14920020 -14531055 
1365.993 -14143282 -13767102 -13414210 -13094082 -12816315 -12594313 
1366.355 -12446550 -12397735 -12470118 -12672907 -12993055 -13393328 
1366.717 -13822182 -14226533 -14576524 -14874813 -15158435 -15479187 
1367.079 -15882351 -16377874 -16927966 -17446966 -17825444 -17969290 
1367.440 -17823758 -17402086 -16780268 -16084224 -15442672 -14957189 
1367.802 -14681700 -14615227 -14719496 -14944992 -15261103 -15668975 
1368.164 -16201038 -16899380 -17789188 -18846442 -19982366 -21026628 
1368.526 -21768254 -22014184 -21671244 -20812006 -19662326 -18514102 
1368.888 -17593452 -17017282 -16776443 -16776666 -16879686 -16954862 
1369.250 -16916558 -16733278 -16429465 -16059861 -15686169 -15350058 
1369.611 -15072322 -14861493 -14728080 -14695377 -14796713 -15058784 
1369.973 -15485135 -16040862 -16658125 -17241112 -17696502 -17955524 
1370.335 -17980958 -17772300 -17352996 -16759483 -16029684 -15207581 
1370.697 -14350131 -13524774 -12812293 -12285756 -11986230 -11908640 
1371.059 -11995384 -12154577 -12280731 -12299606 -12192950 -12009243 
1371.420 -11845031 -11818720 -12034962 -12547446 -13350853 -14380424 
1371.782 -15538687 -16711628 -17801306 -18742746 -19497972 -20055234 
1372.144 -20416812 -20591212 -20587706 -20415674 -20086778 -19617704 
1372.506 -19037110 -18391810 -17744056 -17174742 -16765222 -16574796 
1372.868 -16625632 -16887938 -17286996 -17717432 -18088394 -18357000 
1373.229 -18559758 -18810842 -19290740 -20213590 -21780166 -24143526 
1373.591 -27326740 -31135478 -34991600 -37988136 -39260524 -38480432 
1373.953 -36067096 -32813046 -29448740 -26394484 -23833470 -21806984 
1374.315 -20284112 -19226872 -18612518 -18443418 -18753726 -19600538 
1374.677 -21047904 -23144312 -25885512 -29166680 -32693762 -35977100 
1375.039 -38351532 -39151932 -38040320 -35177416 -31176710 -26788050 
1375.400 -22693186 -19340404 -16924524 -15469692 -14851599 -14857107 
1375.762 -15214907 -15671916 -16032815 -16186481 -16118674 -15880723 
1376.124 -15552050 -15194975 -14840039 -14481032 -14096806 -13677726 
1376.486 -13250592 -12882259 -12673518 -12722109 -13090160 -13779782 
1376.848 -14723692 -15795199 -16831016 -17681074 -18222242 -18386540 
1377.209 -18170260 -17630680 -16877198 -16049003 -15311868 -14820314 
1377.571 -14693359 -14998995 -15732188 -16811730 -18078512 -19333366 
1377.933 -20352980 -20946470 -21019240 -20595132 -19809016 -18839970 
1378.295 -17866148 -17008966 -16326595 -15832100 -15505565 -15310844 
1378.657 -15198878 -15117573 -15013559 -14843370 -14590205 -14275207 
1379.019 -13963736 -13748387 -13735547 -14003680 -14576780 -15409575 
1379.380 -16395327 -17388174 -18225864 -18781268 -18980942 -18820458 
1379.742 -18352364 -17666026 -16861198 -16025852 -15243668 -14589531 
1380.104 -14125417 -13897890 -13918716 -14155758 -14528653 -14931386 
1380.466 -15252658 -15404331 -15351465 -15117060 -14776986 -14428375 
1380.828 -14168457 -14060687 -14116501 -14295118 -14516251 -14688009 
1381.189 -14727536 -14596356 -14310570 -13944419 -13604613 -13407849 
1381.551 -13442673 -13735161 -14238013 -14834340 -15376667 -15710874 
1381.913 -15729407 -15397775 -14761357 -13929274 -13042382 -12246201 
1382.275 -11646984 -11305471 -11233992 -11405181 -11762288 -12230513 
1382.637 -12734207 -13200968 -13580849 -13860247 -14067841 -14269789 
1382.999 -14548551 -14978861 -15590922 -16354134 -17173818 -17923924 
1383.360 -18473078 -18726434 -18653850 -18289150 -17715778 -17031078 
1383.722 -16330296 -15682718 -15131589 -14705979 -14426324 -14305249 
1384.084 -14339103 -14497409 -14713570 -14889445 -14926231 -14743262 
1384.446 -14313071 -13671080 -12912300 -12161151 -11531520 -11107146 
1384.808 -10916647 -10939523 -11119936 -11392884 -11698141 -11988776 
1385.169 -12235892 -12421693 -12537596 -12585880 -12584013 -12568177 
1385.531 -12587586 -12700324 -12951892 -13361745 -13914449 -14565405 
1385.893 -15254449 -15929114 -16569311 -17196622 -17869582 -18656736 
1386.255 -19608394 -20717308 -21899994 -22987274 -23776040 -24107388 
1386.617 -23929562 -23329524 -22495276 -21658632 -21011096 -20685210 
1386.979 -20741032 -21181000 -21985238 -23150784 -24728982 -26828296 
1387.340 -29584518 -33052772 -36923696 -40268740 -41730400 -40486304 
1387.702 -37046048 -32652150 -28334516 -24573330 -21526346 -19197516 
1388.064 -17528220 -16453872 -15892893 -15749667 -15911356 -16263820 
1388.426 -16701203 -17122124 -17443784 -17600550 -17549892 -17285594 
1388.788 -16836592 -16263885 -15642671 -15058111 -14588891 -14294541 
1389.149 -14218324 -14378597 -14769075 -15355303 -16075633 -16840482 
1389.511 -17533470 -18041164 -18270786 -18180492 -17795390 -17207226 
1389.873 -16553460 -15975395 -15601375 -15508794 -15713589 -16173871 
1390.235 -16807842 -17516636 -18193074 -18745602 -19096694 -19190320 
1390.597 -19003684 -18551568 -17890538 -17104890 -16301831 -15584369 
1390.958 -15026714 -14663216 -14476386 -14408086 -14377699 -14317527 
1391.320 -14192414 -14011155 -13818651 -13679717 -13651077 -13754454 
1391.682 -13967136 -14224545 -14447445 -14561976 -14535413 -14389751 
1392.044 -14203188 -14082211 -14127694 -14401387 -14897161 -15539614 
1392.406 -16198643 -16739367 -17052042 -17094538 -16899986 -16564941 
1392.768 -16212273 -15949301 -15847627 -15920747 -16132817 -16414121 
1393.129 -16692625 -16910248 -17031746 -17047356 -16965760 -16810296 
1393.491 -16615013 -16430965 -16324457 -16370535 -16652832 -17243084 
1393.853 -18187704 -19503264 -21185766 -23234526 -25679368 -28614728 
1394.215 -32191816 -36570704 -41801876 -47468992 -52298772 -54397548 
1394.577 -52614348 -47816440 -41935864 -36455864 -31946384 -28453760 
1394.938 -25851452 -23971642 -22676266 -21857998 -21437008 -21357618 
1395.300 -21592022 -22143646 -23044560 -24344070 -26085564 -28253304 
1395.662 -30712492 -33142332 -34999916 -35711604 -34943388 -32831262 
1396.024 -29890246 -26756462 -23942794 -21730530 -20238100 -19435308 
1396.386 -19191526 -19304780 -19554294 -19754848 -19785366 -19620016 
1396.748 -19306618 -18930194 -18559312 -18219668 -17885132 -17504798 
1397.109 -17041590 -16516939 -16025279 -15734041 -15835678 -16493078 
1397.471 -17800256 -19736294 -22136374 -24654638 -26836178 -28206358 
1397.833 -28470486 -27659962 -26101758 -24244686 -22455696 -20976716 
1398.195 -19901316 -19222370 -18882800 -18811888 -18955536 -19289284 
1398.557 -19826238 -20609728 -21706576 -23198908 -25191788 -27822560 
1398.918 -31276834 -35763824 -41426148 -48129452 -54982664 -60153524 
1399.280 -61648984 -58884508 -53177568 -46419672 -39926352 -34228996 
1399.642 -29464252 -25616808 -22619782 -20419656 -18945514 -18093640 
1400.004 -17720008 -17656418 -17739890 -17820674 -17796472 -17615630 
1400.366 -17277920 -16827190 -16337829 -15896950 -15576601 -15422271 
1400.728 -15433655 -15563719 -15723111 -15808394 -15736852 -15468189 
1401.089 -15025210 -14486769 -13972783 -13600599 -13459474 -13590323 
1401.451 -13981157 -14581842 -15322936 -16137797 -16962924 -17742912 
1401.813 -18427792 -18967336 -19320056 -19461698 -19394560 -19150502 
1402.175 -18784442 -18358906 -17919504 -17485988 -17053028 -16607581 
1402.537 -16151302 -15718032 -15370367 -15186784 -15224313 -15490282 
1402.898 -15926145 -16419735 -16834204 -17041050 -16970508 -16625822 
1403.260 -16085820 -15471769 -14924726 -14566174 -14468214 -14650755 
1403.622 -15076706 -15668944 -16320277 -16923888 -17391802 -17664372 
1403.984 -17725320 -17596762 -17330520 -16986280 -16622538 -16289864 
1404.346 -16035113 -15925441 -16061712 -16577251 -17642704 -19431408 
1404.708 -22091784 -25684866 -30110074 -34959836 -39368276 -42202120 
1405.069 -42556000 -40436076 -36741056 -32649570 -28995966 -26116642 
1405.431 -24049300 -22658938 -21757318 -21150578 -20677818 -20224406 
1405.793 -19726606 -19179034 -18624138 -18141182 -17815618 -17720008 
1406.155 -17879152 -18254078 -18738494 -19185788 -19456850 -19451244 
1406.517 -19151134 -18620328 -17985344 -17375186 -16880322 -16521530 
1406.878 -16252618 -15988424 -15650854 -15209724 -14694352 -14180740 
1407.240 -13750763 -13464067 -13329356 -13309273 -13337197 -13352170 
1407.602 -13319877 -13240886 -13140761 -13052897 -13000805 -12990386 
1407.964 -13016080 -13071673 -13159985 -13293270 -13484175 -13732144 
1408.326 -14011283 -14272803 -14455298 -14501735 -14382796 -14103767 
1408.688 -13704566 -13242397 -12783821 -12389394 -12102347 -11951160 
1409.049 -11944552 -12072120 -12302827 -12590000 -12880232 -13123434 
1409.411 -13294266 -13401295 -13488512 -13616847 -13842595 -14186866 
1409.773 -14620417 -15058559 -15384343 -15492265 -15319833 -14881921 
1410.135 -14264113 -13601402 -13025018 -12630876 -12462841 -12507915 
1410.497 -12712681 -13000838 -13298283 -13537814 -13671914 -13677983 
1410.858 -13561131 -13358050 -13133464 -12978842 -12986559 -13229380 
1411.220 -13738981 -14487602 -15387349 -16298480 -17083452 -17632206 
1411.582 -17906530 -17948276 -17862968 -17772078 -17761040 -17853142 
1411.944 -17993832 -18071996 -17947386 -17510908 -16718579 -15613905 
1412.306 -14311052 -12970737 -11759482 -10805222 -10195371 -9958522 
1412.667 -10069808 -10457354 -11022454 -11661758 -12276061 -12792540 
1413.029 -13164967 -13371351 -13411094 -13297383 -13052928 -12703735 
1413.391 -12282600 -11829973 -11393852 -11034180 -10812235 -10776942 
1413.753 -10954127 -11331523 -11857315 -12440851 -12976687 -13360202 
1414.115 -13511349 -13400364 -13052028 -12542650 -11971822 -11449977 
1414.477 -11065319 -10864913 -10852277 -10987177 -11201928 -11414508 
1414.838 -11555460 -11576818 -11460400 -11218299 -10887727 -10520876 
1415.200 -10168507 -9875776 -9674108 -9581033 -9608549 -9768329 -10077222 
1415.622 -10562109 -11253526 -12178258 -13342788 -14717734 -16213549 
1415.984 -17664880 -18862400 -19584386 -19691078 -19189972 -18242196 
1416.346 -17094346 -15980281 -15075266 -14448599 -14079228 -13881300 
1416.708 -13751918 -13607567 -13421535 -13236869 -13161560 -13341855 
1417.070 -13919005 -15011447 -16678277 -18900216 -21520010 -24216736 
1417.431 -26512174 -27863798 -27935732 -26771540 -24765256 -22410856 
1417.793 -20129706 -18186146 -16690202 -15673226 -15111812 -14959046 
1418.155 -15162019 -15675431 -16468547 -17522586 -18829562 -20386872 
1418.517 -22197106 -24279560 -26676076 -29455458 -32709592 -36515604 
1418.879 -40889116 -45754848 -50915604 -56141632 -61304808 -66508652 
1419.240 -72136256 -78739424 -86541656 -94185288 -97269752 -91207560 
1419.602 -78155000 -64238736 -52772416 -44046160 -37446592 -32356974 
1419.964 -28336502 -25118118 -22516324 -20395062 -18652070 -17205984 
1420.326 -15997943 -14990192 -14159446 -13486038 -12945685 -12510619 
1420.688 -12154835 -11866697 -11656113 -11552944 -11592111 -11794246 
1421.050 -12149294 -12611855 -13109418 -13558144 -13893847 -14081858 
1421.411 -14124487 -14050614 -13904019 -13726076 -13542889 -13363897 
1421.773 -13180975 -12972507 -12706663 -12352103 -11886847 -11311444 
1422.135 -10657527 -9990094 -9398001 -8961702 -8733337 -8710735 -8839320 
1422.557 -9026060 -9180636 -9258294 -9280024 -9331201 -9524536 -9959267 
1422.979 -10670654 -11615886 -12686744 -13766653 -14777146 -15723400 
1423.341 -16694348 -17837052 -19296286 -21152596 -23373390 -25797532 
1423.703 -28182294 -30272192 -31918154 -33110004 -33934760 -34462952 
1424.065 -34663712 -34378684 -33418078 -31675026 -29240844 -26381888 
1424.427 -23447420 -20742486 -18458788 -16692530 -15441106 -14640695 
1424.788 -14192061 -13991456 -13943232 -13965243 -13991745 -13954366 
1425.150 -13779685 -13402580 -12777933 -11908512 -10851211 -9717203 -8637819 
1425.572 -7731972 -7084343 -6721572 -6617485 -6708620 -6924193 -7202364 
1425.994 -7502829 -7806504 -8100730 -8369568 -8591596 -8743469 -8813541 
1426.417 -8812276 -8775487 -8754445 -8799645 -8945992 -9197829 -9529690 
1426.839 -9894173 -10242039 -10530125 -10731041 -10832725 -10830722 
1427.200 -10722960 -10507325 -10183234 -9756697 -9243697 -8672021 -8075623 
1427.623 -7491756 -6958725 -6513994 -6200987 -6071486 -6176782 -6559558 
1428.045 -7228174 -8137965 -9170839 -10152712 -10890054 -11210582 -11035892 
1428.467 -10405597 -9478699 -8470800 -7607843 -7060252 -6899571 -7102793 
1428.889 -7566069 -8151656 -8714664 -9150822 -9413792 -9514099 -9511052 
1429.311 -9499187 -9603784 -9959235 -10712939 -12016785 -14013497 -16827732 
1429.733 -20520612 -25031078 -29977864 -34527464 -37499568 -37885420 
1430.095 -35656060 -31786274 -27543702 -23762016 -20778116 -18592744 
1430.457 -17040380 -15917040 -15041181 -14296977 -13643691 -13112986 
1430.819 -12774330 -12699906 -12919087 -13398243 -14038231 -14708638 
1431.180 -15282248 -15672332 -15861683 -15896630 -15866539 -15860949 
1431.542 -15944798 -16132243 -16388722 -16644349 -16823684 -16872098 
1431.904 -16768346 -16531037 -16208060 -15860084 -15533892 -15251570 
1432.266 -15005301 -14767314 -14499876 -14170414 -13761838 -13278713 
1432.628 -12751615 -12233476 -11799470 -11529842 -11496962 -11753485 
1432.990 -12311748 -13130860 -14103285 -15074466 -15855005 -16276587 
1433.351 -16251054 -15790150 -15001908 -14042819 -13088264 -12285659 
1433.713 -11739004 -11509159 -11602628 -11976045 -12539045 -13178982 
1434.075 -13772367 -14209057 -14423695 -14389239 -14128496 -13698177 
1434.437 -13180492 -12659004 -12202453 -11862054 -11662629 -11606919 
1434.799 -11675660 -11831521 -12020652 -12181222 -12265399 -12253963 
1435.160 -12176841 -12110596 -12173233 -12485862 -13131117 -14119002 
1435.522 -15362468 -16685165 -17845224 -18627312 -18908876 -18723134 
1435.884 -18245372 -17747650 -17512690 -17755602 -18633374 -20246260 
1436.246 -22683658 -26040288 -30459086 -36160088 -43406984 -52536116 
1436.608 -63827188 -77068240 -90419920 -98910248 -96569344 -84098288 
1436.969 -68812720 -55859436 -46150092 -38938420 -33395406 -28965158 
1437.331 -25346218 -22377908 -19982902 -18127010 -16763277 -15825646 
1437.693 -15217051 -14826238 -14542079 -14281299 -14002493 -13700103 
1438.055 -13394580 -13113726 -12880426 -12700710 -12563348 -12442075 
1438.417 -12307465 -12133699 -11908705 -11641404 -11364383 -11130819 
1438.779 -10997967 -11019643 -11224466 -11606983 -12121164 -12689254 
1439.140 -13219449 -13621118 -13835149 -13844649 -13679588 -13404637 
1439.502 -13107006 -12875021 -12770405 -12821591 -13012381 -13291921 
1439.864 -13583835 -13811783 -13919904 -13882647 -13711565 -13445821 
1440.226 -13137997 -12830533 -12546803 -12288043 -12042052 -11798921 
1440.588 -11565849 -11371355 -11262953 -11288167 -11475341 -11821751 
1440.949 -12289943 -12818309 -13333533 -13776186 -14109604 -14321439 
1441.311 -14417798 -14410426 -14306916 -14106621 -13805909 -13405343 
1441.673 -12916224 -12364631 -11786538 -11221237 -10707960 -10279189 
1442.035 -9961599 -9779278 -9751773 -9894950 -10214337 -10697907 -11308764 
1442.457 -11983683 -12645906 -13210963 -13612705 -13818651 -13836305 
1442.819 -13710570 -13509261 -13307281 -13158795 -13089807 -13094147 
1443.181 -13145680 -13215785 -13292563 -13390179 -13545844 -13800967 
1443.542 -14176988 -14657321 -15181761 -15662583 -16005319 -16150504 
1443.904 -16091185 -15880371 -15605498 -15361955 -15214459 -15175330 
1444.266 -15208957 -15254513 -15261007 -15208061 -15117060 -15034331 
1444.628 -15007669 -15056480 -15162115 -15273707 -15336817 -15317018 
1444.990 -15221018 -15093380 -15002356 -15010966 -15152676 -15427259 
1445.352 -15807850 -16259097 -16749792 -17258624 -17763554 -18225418 
1445.713 -18584996 -18766070 -18700252 -18363766 -17798380 -17118396 
1446.075 -16474832 -16029334 -15893947 -16097985 -16577953 -17195380 
1446.437 -17779298 -18162982 -18242862 -17992148 -17464156 -16763723 
1446.799 -16026173 -15383256 -14931770 -14731891 -14796137 -15095908 
1447.161 -15568705 -16137734 -16732480 -17306482 -17861474 -18456246 
1447.522 -19212606 -20297994 -21927906 -24350272 -27819422 -32493658 
1447.884 -38202540 -44148268 -48694400 -50166276 -48167264 -43837440 
1448.246 -38745204 -33967184 -29992150 -26889626 -24564594 -22854606 
1448.608 -21580484 -20574054 -19705390 -18904276 -18157452 -17495346 
1448.970 -16961586 -16588256 -16373917 -16283289 -16256640 -16237490 
1449.332 -16187470 -16095240 -15973095 -15845677 -15737301 -15663989 
1449.693 -15634809 -15655359 -15731741 -15871074 -16075986 -16340733 
1450.055 -16646614 -16968692 -17283110 -17575092 -17842266 -18086838 
1450.417 -18303412 -18469076 -18538136 -18453136 -18166638 -17656832 
1450.779 -16942370 -16078731 -15153508 -14263120 -13498822 -12937966 
1451.141 -12627947 -12585880 -12795692 -13213278 -13767070 -14372026 
1451.502 -14958085 -15490954 -16002350 -16589308 -17404440 -18602520 
1451.864 -20285028 -22426590 -24822432 -27058832 -28589228 -28982360 
1452.226 -28114780 -26252030 -23870260 -21471920 -19409420 -17839628 
1452.588 -16779024 -16142523 -15806189 -15643278 -15562216 -15509146 
1452.950 -15457893 -15398926 -15325175 -15232760 -15126085 -15023417 
1453.312 -14952995 -14938685 -14985102 -15066433 -15133829 -15131108 
1453.673 -15026362 -14829537 -14600105 -14424625 -14393053 -14567777 
1454.035 -14963944 -15555567 -16294682 -17140278 -18067672 -19067808 
1454.397 -20126542 -21192392 -22163072 -22895282 -23239426 -23116826 
1454.759 -22571596 -21792708 -21052386 -20665370 -20918998 -22021272 
1455.121 -24085006 -27057992 -30658372 -34235580 -36899012 -37893284 
1455.482 -37023868 -34754440 -31847830 -29000368 -26630112 -24952218 
1455.844 -24030710 -23823654 -24223284 -25081840 -26265162 -27673206 
1456.206 -29289134 -31196540 -33581756 -36750432 -41148780 -47377468 
1456.568 -56248856 -68784688 -86148808 -109179664 -136617184 -160885312 
1456.930 -167460224 -151046272 -124338016 -99909448 -81230440 -67557224 
1457.292 -57468664 -49878396 -44052568 -39542252 -36084536 -33502716 
1457.653 -31707030 -30656642 -30336528 -30768644 -32005486 -34141988 
1458.015 -37305804 -41631968 -47164484 -53519344 -59523712 -63086360 
1458.377 -62308420 -57351844 -50311576 -43306528 -37352560 -32695852 
1458.739 -29256488 -26907034 -25616652 -25424694 -26406364 -28612092 
1459.101 -31972364 -36173352 -40476224 -43808384 -45047192 -43648848 
1459.462 -40010484 -35167272 -30174650 -25692986 -22045238 -19297556 
1459.824 -17388206 -16211955 -15637238 -15519601 -15699081 -16026875 
1460.186 -16373726 -16644478 -16793912 -16817214 -16738059 -16585320 
1460.548 -16377268 -16112097 -15777338 -15367201 -14903276 -14440876 
1460.910 -14066044 -13861755 -13879888 -14116372 -14508529 -14949826 
1461.271 -15321624 -15537216 -15556494 -15397327 -15118533 -14802413 
1461.633 -14525800 -14342982 -14284313 -14352984 -14530415 -14777498 
1461.995 -15042269 -15261743 -15370847 -15321016 -15088580 -14687818 
1462.357 -14168330 -13612608 -13117004 -12768988 -12641948 -12774716 
1462.719 -13168664 -13781098 -14530671 -15300833 -15951889 -16360452 
1463.081 -16435878 -16151046 -15549109 -14737336 -13855882 -13030131 
1463.442 -12351137 -11846740 -11491928 -11230860 -11011373 -10804091 
1463.804 -10608124 -10440501 -10322224 -10267507 -10288864 -10413911 
1464.166 -10704244 -11254688 -12189245 -13624425 -15642768 -18281876 
1464.528 -21560210 -25525962 -30299048 -36146612 -43449228 -52458336 
1464.890 -62652260 -71590304 -75273120 -71831408 -63659296 -54353056 
1465.251 -45903244 -38879168 -33194150 -28623384 -24992760 -22164048 
1465.613 -20036946 -18519722 -17507980 -16881756 -16513461 -16292607 
1465.975 -16126910 -15955018 -15743626 -15471834 -15122437 -14675997 
1466.337 -14113742 -13433645 -12666020 -11888846 -11212616 -10765079 
1466.699 -10652129 -10916064 -11520904 -12354003 -13268203 -14111561 
1467.061 -14783007 -15254161 -15563143 -15786219 -15999857 -16253352 
1467.422 -16552821 -16869422 -17156620 -17372448 -17486592 -17482520 
1467.784 -17353060 -17095206 -16713414 -16225263 -15669070 -15097124 
1468.146 -14562714 -14103671 -13725819 -13404476 -13100577 -12789998 
1468.508 -12484960 -12242399 -12139982 -12250130 -12597499 -13143269 
1468.870 -13787517 -14406580 -14897609 -15205533 -15339823 -15356647 
1469.231 -15328341 -15304480 -15299042 -15292228 -15253010 -15159363 
1469.593 -15013975 -14838630 -14661742 -14498883 -14346668 -14188212 
1469.955 -14008204 -13806134 -13600117 -13415656 -13270421 -13160596 
1470.317 -13062638 -12946618 -12800100 -12643460 -12532349 -12538755 
1470.679 -12718731 -13092925 -13635183 -14288929 -14992945 -15718510 
1471.041 -16484082 -17354588 -18413344 -19737750 -21367776 -23295076 
1471.402 -25450100 -27716882 -29971864 -32114368 -34129212 -36112984 
1471.764 -38294836 -41025256 -44782228 -50118984 -57401288 -65925516 
1472.126 -72736616 -73980072 -69027104 -60972996 -52749264 -45617056 
1472.488 -39768768 -35048180 -31296690 -28376792 -26188146 -24659238 
1472.850 -23722992 -23325944 -23432006 -24030678 -25137600 -26798612 
1473.211 -29108648 -32214798 -36337272 -41750868 -48517948 -55883416 
1473.573 -61507052 -62321740 -57898548 -50904164 -43934504 -38003164 
1473.935 -33213366 -29400406 -26386564 -24076762 -22408938 -21310616 
1474.297 -20674690 -20345012 -20142264 -19888308 -19464868 -18831118 
1474.659 -18026798 -17144006 -16296437 -15587790 -15082883 -14809715 
1475.021 -14756553 -14884003 -15132677 -15441521 -15763855 -16074069 
1475.382 -16376534 -16703753 -17113426 -17673786 -18457994 -19537412 
1475.744 -20979620 -22860956 -25277700 -28363074 -32276910 -37175364 
1476.106 -43139576 -49942548 -56808432 -62282528 -64613432 -62870628 
1476.468 -57659248 -50645556 -43427132 -37001812 -31767458 -27726986 
1476.830 -24742222 -22618744 -21163674 -20213590 -19638288 -19342334 
1477.191 -19252102 -19309280 -19456090 -19621852 -19732780 -19716474 
1477.553 -19522048 -19139214 -18604458 -17995422 -17403072 -16913722 
1477.915 -16578082 -16399635 -16339265 -16333234 -16318170 -16247319 
1478.277 -16106924 -15912345 -15698984 -15502720 -15350410 -15250547 
1478.639 -15194783 -15163683 -15136837 -15100325 -15049471 -14987503 
1479.000 -14922294 -14862293 -14813653 -14781501 -14772822 -14797065 
1479.362 -14867545 -14996402 -15187425 -15430169 -15697259 -15951376 
1479.724 -16154302 -16282044 -16335370 -16341753 -16342264 -16374109 
1480.086 -16453648 -16567364 -16678788 -16748866 -16762670 -16744308 
1480.448 -16756549 -16874648 -17162638 -17642006 -18286576 -19037902 
1480.810 -19843108 -20688340 -21615320 -22704570 -24035194 -25618368 
1481.171 -27346372 -28949752 -30049602 -30326054 -29671018 -28282456 
1481.533 -26545464 -24878070 -23554048 -22662432 -22139994 -21830584 
1481.895 -21555732 -21176518 -20644012 -19997078 -19336284 -18766768 
1482.257 -18369768 -18176614 -18176042 -18330572 -18594266 -18921692 
1482.619 -19258982 -19546820 -19720526 -19723186 -19533324 -19179320 
1482.980 -18744014 -18332986 -18048506 -17945288 -18011506 -18173880 
1483.342 -18330000 -18394638 -18326190 -18144360 -17911076 -17702322 
1483.704 -17566438 -17508554 -17489076 -17450342 -17342110 -17151842 
1484.066 -16913498 -16702861 -16611090 -16712075 -17043024 -17584830 
1484.428 -18265388 -18966100 -19558350 -19927554 -19999706 -19764094 
1484.790 -19271500 -18620964 -17921982 -17275946 -16747847 -16360166 
1485.151 -16107116 -15973447 -15952399 -16049132 -16269725 -16601553 
1485.513 -16996380 -17381044 -17678558 -17850886 -17930378 -18030866 
1485.875 -18318788 -18947606 -20004166 -21441644 -23069446 -24559896 
1486.237 -25565734 -25840682 -25335434 -24219556 -22807954 -21449182 
1486.599 -20400054 -19814810 -19741836 -20163490 -21040832 -22353268 
1486.960 -24124970 -26428220 -29383374 -33139232 -37794980 -43281460 
1487.322 -49073780 -53871792 -55920120 -54157476 -49299696 -43130396 
1487.684 -37178224 -32159324 -28198192 -25210016 -23035668 -21514836 
1488.046 -20499122 -19849978 -19441898 -19167336 -18954236 -18763182 
1488.408 -18585980 -18439290 -18360938 -18407372 -18647660 -19168478 
1488.770 -20060424 -21401400 -23232076 -25525432 -28158134 -30879694 
1489.131 -33366472 -35290644 -36448736 -36853416 -36734356 -36441544 
1489.493 -36306096 -36617124 -37587272 -39362676 -41981892 -45257304 
1489.855 -48601588 -50928448 -51205476 -49227904 -45781240 -41916372 
1490.217 -38389872 -35562620 -33526734 -32306470 -31916984 -32405070 
1490.579 -33873380 -36465064 -40313316 -45312532 -50807968 -55290116 
1490.940 -56815004 -54557340 -49532416 -43559208 -37918032 -33169530 
1491.302 -29392942 -26457558 -24203542 -22480080 -21169166 -20185630 
1491.664 -19468288 -18964546 -18611188 -18333750 -18049110 -17685272 
1492.026 -17211016 -16648846 -16075633 -15590219 -15288197 -15221050 
1492.388 -15380249 -15699752 -16083425 -16439419 -16700150 -16841312 
1492.750 -16871112 -16816416 -16707292 -16573105 -16443854 -16349889 
1493.111 -16321681 -16375672 -16500734 -16646838 -16733978 -16678788 
1493.473 -16422894 -15968656 -15384695 -14793511 -14319996 -14057704 
1493.835 -14032906 -14202194 -14472092 -14742493 -14951491 -15088739 
1494.197 -15194271 -15328213 -15544281 -15862513 -16267205 -16719408 
1494.559 -17180506 -17625842 -18046728 -18440496 -18795422 -19084772 
1494.920 -19275876 -19345980 -19304876 -19201194 -19120570 -19157540 
1495.282 -19386892 -19846464 -20529114 -21399224 -22417936 -23572032 
1495.644 -24882576 -26401374 -28194840 -30330472 -32877128 -35937352 
1496.006 -39678264 -44405600 -50627212 -58952324 -69516912 -80309672 
1496.368 -86003224 -82831456 -73757384 -63746340 -55074384 -48058828 
1496.729 -42405344 -37778336 -33969816 -30849666 -28322286 -26308420 
1497.091 -24710794 -23420234 -22326294 -21342636 -20417538 -19539818 
1497.453 -18730972 -18033568 -17496396 -17160090 -17054972 -17193086 
1497.815 -17565388 -18137942 -18855516 -19652002 -20461066 -21242248 
1498.177 -21995222 -22770760 -23662752 -24800184 -26329874 -28404260 
1498.539 -31189508 -34873128 -39680140 -45761976 -52941752 -60199508 
1498.900 -65224992 -65646044 -61373996 -54678828 -47801872 -41812444 
1499.262 -36913224 -32948360 -29730618 -27108456 -24968330 -23230758 
1499.624 -21825260 -20686758 -19758362 -19002890 -18407024 -17975394 
1499.986 -17716224 -17622884 -17659058 -17764730 -17864272 -17891872 
1500.348 -17816032 -17647318 -17436846 -17252448 -17157766 -17181462 
1500.709 -17307532 -17479972 -17629088 -17698474 -17668124 -17562620 
1501.071 -17443818 -17389098 -17460176 -17690776 -18078448 -18598108 
1501.433 -19220690 -19936258 -20759164 -21718552 -22829898 -24062028 
1501.795 -25302178 -26369476 -27046910 -27166040 -26690440 -25729400 
1502.157 -24485994 -23160366 -21906200 -20796434 -19838012 -19005968 
1502.519 -18270312 -17619734 -17061246 -16607549 -16256001 -15975075 
1502.880 -15711671 -15410567 -15047134 -14650755 -14309352 -14142608 
1503.242 -14251737 -14684742 -15401132 -16281119 -17146362 -17829292 
1503.604 -18216554 -18281176 -18085122 -17756492 -17449642 -17290498 
1503.966 -17361306 -17678750 -18202480 -18846886 -19508458 -20093138 
1504.328 -20531264 -20802500 -20939712 -21028300 -21177434 -21498630 
1504.689 -22076448 -22945320 -24093282 -25476472 -27053290 -28803762 
1505.051 -30748518 -32947008 -35480460 -38443860 -41951988 -46151584 
1505.413 -51304116 -57865144 -66535032 -78000208 -91370664 -101278384 
1505.775 -100741304 -91284632 -79852056 -70069672 -62469456 -56665260 
1506.137 -52268396 -49085672 -47028000 -46101708 -46393708 -48042688 
1506.499 -51255860 -56283784 -63431368 -72936856 -84901200 -99290952 
1506.860 -115779224 -133731184 -151764416 -166566320 -171725872 -161242448 
1507.222 -138720352 -115379504 -97755960 -85822920 -77592856 -71450632 
1507.584 -66483632 -62258984 -58602788 -55436304 -52686760 -50272560 
1507.946 -48099848 -46103044 -44289968 -42750892 -41652920 -41212460 
1508.308 -41638864 -43127460 -45795164 -49591448 -54014860 -57898316 
1508.669 -59692920 -58354948 -54278348 -48819520 -43280620 -38374040 
1509.031 -34367908 -31330076 -29230964 -28034864 -27698542 -28170338 
1509.393 -29398116 -31340248 -33981124 -37275968 -41081808 -45037248 
1509.755 -48386332 -50113136 -49398920 -46231452 -41502072 -36446052 
1510.117 -32037772 -28728654 -26626372 -25614714 -25467130 -25894128 
1510.479 -26575730 -27211544 -27535958 -27398046 -26776120 -25757348 
1510.840 -24482142 -23099984 -21749092 -20539640 -19570354 -18919280 
1511.202 -18624932 -18677812 -19009234 -19512134 -20056280 -20534044 
1511.564 -20889160 -21126402 -21308280 -21535428 -21930458 -22612800 
1511.926 -23709468 -25364596 -27755894 -31097540 -35591772 -41307224 
1512.288 -47782368 -53623584 -56701176 -55548220 -50859784 -44694680 
1512.649 -38793176 -33887016 -30079128 -27209706 -25054130 -23426920 
1513.011 -22200854 -21307020 -20715982 -20411372 -20363888 -20512458 
1513.373 -20768104 -21028742 -21196240 -21209306 -21051786 -20753668 
1513.735 -20373626 -19988566 -19679616 -19516442 -19555942 -19824686 
1514.097 -20307860 -20940312 -21615320 -22208190 -22600030 -22731266 
1514.458 -22631860 -22438924 -22356730 -22623902 -23460512 -25021882 
1514.820 -27373596 -30433600 -33927408 -37274480 -39691964 -40510364 
1515.182 -39537620 -37176552 -34114508 -30981612 -28143570 -25758846 
1515.544 -23851662 -22369222 -21236852 -20383268 -19766974 -19393672 
1515.906 -19322782 -19650070 -20490336 -21936854 -24036510 -26755962 
1516.268 -29983460 -33534006 -37193952 -40812936 -44332544 -47762420 
1516.629 -51066132 -54008164 -56076032 -56665084 -55465964 -52825612 
1516.991 -49568304 -46581352 -44440000 -43442992 -43748140 -45464984 
1517.353 -48685244 -53347564 -59013700 -64450564 -67869448 -68055032 
1517.715 -65183388 -60370324 -54704828 -48889248 -43299960 -38153408 
1518.077 -33608528 -29749522 -26613688 -24185584 -22392572 -21132020 
1518.438 -20283070 -19728822 -19357958 -19077924 -18821694 -18545312 
1518.800 -18237842 -17920616 -17646650 -17483444 -17498242 -17736708 
1519.162 -18202480 -18850788 -19592082 -20321806 -20938416 -21381970 
1519.524 -21654566 -21830394 -22043254 -22458938 -23261032 -24614566 
1519.886 -26669596 -29562200 -33431732 -38362332 -44213124 -50356988 
1520.248 -55343468 -57409968 -55918664 -52009952 -47417008 -43258156 
1520.609 -39996192 -37704188 -36361684 -35980088 -36602260 -38302300 
1520.971 -41155408 -45282172 -50834880 -58042620 -67224704 -78212816 
1521.333 -88726472 -92998240 -87612224 -77554608 -68317472 -61154304 
1521.695 -55480748 -50649832 -46309072 -42333516 -38746600 -35639940 
1522.057 -33095912 -31203478 -30023010 -29585570 -29919476 -31060588 
1522.418 -33081450 -36088164 -40224980 -45574872 -51844752 -57950368 
1522.780 -61778508 -61452064 -57293276 -51417840 -45651180 -40704940 
1523.142 -36639964 -33288314 -30482838 -28135806 -26212136 -24702564 
1523.504 -23595412 -22847406 -22383572 -22109544 -21942242 -21818422 
1523.866 -21703898 -21585528 -21456530 -21308344 -21133756 -20937060 
1524.228 -20746244 -20617282 -20633934 -20882434 -21433664 -22323180 
1524.589 -23540206 -25022570 -26655416 -28293664 -29763168 -30914902 
1524.951 -31683498 -32128892 -32429270 -32822046 -33568232 -34899484 
1525.313 -37050492 -40215916 -44524340 -49753992 -54843708 -57862472 
1525.675 -57300448 -53743780 -49006300 -44402012 -40340368 -36774212 
1526.037 -33573108 -30655964 -28029426 -25782422 -24011898 -22783682 
1526.398 -22085108 -21816656 -21815206 -21902358 -21945674 -21877404 
1526.760 -21715906 -21548196 -21516192 -21779756 -22497918 -23828328 
1527.122 -25907892 -28823822 -32514502 -36662648 -40517428 -42990600 
1527.484 -43218744 -41142572 -37565668 -33516244 -29778450 -26710506 
1527.846 -24371074 -22687244 -21536940 -20819366 -20490586 -20575034 
1528.208 -21158814 -22365666 -24320324 -27109576 -30714530 -34943968 
1528.569 -39275236 -42863124 -44794392 -44523800 -42245108 -38702320 
1528.931 -34750280 -30979638 -27705320 -25043338 -22984762 -21475610 
1529.293 -20437990 -19787900 -19439266 -19313274 -19344744 -19474276 
1529.655 -19649468 -19820888 -19936068 -19949424 -19826586 -19553028 
1530.017 -19139308 -18622456 -18062556 -17526470 -17082910 -16782756 
1530.378 -16646391 -16659560 -16775677 -16930452 -17054780 -17101164 
1530.740 -17058124 -16956902 -16860434 -16848100 -16993258 -17340612 
1531.102 -17907644 -18690982 -19687848 -20913758 -22410132 -24229958 
1531.464 -26399818 -28867262 -31440086 -33724616 -35213688 -35451268 
1531.826 -34295532 -32025274 -29209434 -26431992 -24073878 -22320754 
1532.188 -21182674 -20570388 -20352286 -20398854 -20607264 -20902422 
1532.549 -21242626 -21609426 -22009050 -22481464 -23117768 -24075444 
1532.911 -25570920 -27883998 -31314414 -36112036 -42258968 -49171100 
1533.273 -55510668 -59543764 -60388172 -58683060 -55976224 -53577276 
1533.635 -52294012 -52536936 -54514964 -58335308 -63816912 -70105112 
1533.997 -74966984 -75560384 -70975072 -63216232 -54947720 -47607536 
1534.358 -41543236 -36607132 -32589204 -29342126 -26769484 -24818960 
1534.720 -23432508 -22520192 -21952698 -21580262 -21271086 -20930998 
1535.082 -20533318 -20114238 -19757476 -19554358 -19572950 -19827378 
1535.444 -20263844 -20762386 -21165506 -21339828 -21213250 -20809542 
1535.806 -20229054 -19614378 -19095078 -18752520 -18617250 -18669750 
1536.167 -18862876 -19138358 -19449532 -19761718 -20049002 -20287560 
1536.529 -20446588 -20492010 -20400752 -20171872 -19839090 -19463978 
1536.891 -19127070 -18898724 -18821058 -18900468 -19112740 -19420416 
1537.253 -19791604 -20215708 -20702112 -21268244 -21922992 -22652114 
1537.615 -23416466 -24167282 -24863738 -25503126 -26132430 -26855490 
1537.977 -27807860 -29136966 -30973250 -33397462 -36406748 -39875328 
1538.338 -43563884 -47120164 -50198600 -52598616 -54349220 -55692780 
1538.700 -56982184 -58632260 -61075144 -64844316 -70712688 -79946240 
1539.062 -94271704 -114061904 -132603464 -136344896 -124757672 -109187392 
1539.424 -95774016 -85218984 -76846432 -70079120 -64577252 -60178392 
1539.786 -56840524 -54514728 -53151568 -52686436 -53066480 -54291332 
1540.147 -56483060 -59989780 -65332876 -72722912 -80526632 -84092248 
1540.509 -80535888 -72811400 -64755976 -57852900 -52195124 -47539236 
1540.871 -43642704 -40365792 -37648076 -35461680 -33815540 -32717518 
1541.233 -32157634 -32109078 -32523972 -33347416 -34526972 -36039004 
1541.595 -37901696 -40182872 -43017216 -46613736 -51280356 -57512204 
1541.957 -66068000 -78061280 -94755520 -115508280 -132690536 -133019072 
1542.318 -116728312 -97062088 -81246048 -69743056 -61256036 -54679412 
1542.680 -49318596 -44758588 -40779240 -37276824 -34215456 -31642682 
1543.042 -29664182 -28419158 -28084064 -28820816 -30744042 -33853644 
1543.404 -37957592 -42537284 -46633912 -49094076 -49004048 -46297248 
1543.766 -41791616 -36697244 -32005948 -28229584 -25545240 -23893404 
1544.127 -23115064 -23017506 -23413798 -24137068 -25038554 -26008988 
1544.489 -26971746 -27889342 -28769466 -29666316 -30675632 -31918674 
1544.851 -33544648 -35724452 -38664704 -42591956 -47693848 -53885984 
1545.213 -60246608 -64744904 -65304168 -61959764 -56690268 -51363060 
1545.575 -46771296 -42962868 -39745544 -36894112 -34238088 -31683684 
1545.937 -29207946 -26839542 -24644902 -22694948 -21054470 -19772072 
1546.298 -18862686 -18306876 -18048158 -18008328 -18096722 -18234474 
1546.660 -18369864 -18475872 -18546106 -18583060 -18586678 -18551122 
1547.022 -18467330 -18330572 -18146330 -17932824 -17717720 -17527266 
1547.384 -17382062 -17290626 -17250950 -17255280 -17296102 -17368660 
1547.746 -17469882 -17593644 -17725734 -17838514 -17894734 -17851202 
1548.107 -17667966 -17322242 -16817978 -16191749 -15507004 -14850094 
1548.469 -14309705 -13956099 -13835919 -13958954 -14302555 -14815222 
1548.831 -15434965 -16099837 -16757410 -17377510 -17953680 -18510006 
1549.193 -19101548 -19822028 -20796216 -22159106 -24038704 -26506906 
1549.555 -29527468 -32864042 -36071148 -38577548 -39926924 -40074360 
1549.917 -39440808 -38708748 -38475184 -39139732 -40784040 -43136216 
1550.278 -45469728 -46758412 -46175596 -43601916 -39728280 -35493680 
1550.640 -31595208 -28301766 -25608562 -23390754 -21514964 -19903882 
1551.002 -18553854 -17507822 -16818712 -16500192 -16506474 -16734488 
1551.364 -17060962 -17382890 -17640160 -17829736 -17985662 -18151258 
1551.726 -18348932 -18570966 -18783206 -18945324 -19023918 -19003558 
1552.087 -18883370 -18668164 -18361670 -17967098 -17496490 -16978410 
1552.449 -16460219 -16003339 -15661400 -15469947 -15437555 -15550451 
1552.811 -15782673 -16109319 -16514832 -16986886 -17507534 -18044978 
1553.173 -18548932 -18965590 -19257998 -19427354 -19524518 -19647252 
1553.535 -19924516 -20477344 -21405152 -22764378 -24567036 -26786432 
1553.896 -29376408 -32304838 -35561828 -39204612 -43391604 -48404948 
1554.258 -54688000 -62739132 -72509896 -82039904 -86710392 -83360944 
1554.620 -74577584 -64795712 -56219920 -49199352 -43512240 -38863200 
1554.982 -35017156 -31819102 -29138672 -26866360 -24917774 -23239646 
1555.344 -21820154 -20681326 -19850612 -19334540 -19093174 -19044722 
1555.706 -19080650 -19108204 -19084456 -19025092 -18992488 -19059532 
1556.067 -19276858 -19642408 -20104368 -20581984 -21007938 -21348912 
1556.429 -21616802 -21850466 -22094744 -22377972 -22708280 -23088894 
1556.791 -23539578 -24113782 -24905290 -26024530 -27574270 -29625496 
1557.153 -32216828 -35366948 -39114268 -43597780 -49101328 -56129608 
1557.515 -65413512 -77497872 -91418984 -102926976 -106570400 -102226632 
1557.876 -94614392 -87588696 -82428440 -79239112 -77836520 -78065184 
1558.238 -79949664 -83729048 -90004936 -99821280 -114787704 -136455952 
1558.600 -161719584 -174822144 -160441136 -131785216 -106787720 -89297824 
1558.962 -77416448 -69058592 -62972300 -58512476 -55352832 -53378832 
1559.324 -52550060 -52855128 -54322060 -57024640 -61120712 -66806660 
1559.686 -74275680 -83454568 -93564168 -103001240 -109968608 -113863256 
1560.047 -115652808 -117389352 -121212496 -128702920 -139418512 -147639392 
1560.409 -143832176 -126555112 -105180744 -86599880 -72190664 -61222308 
1560.771 -52796040 -46272648 -41209052 -37335020 -34446268 -32350760 
1561.133 -30863214 -29789990 -28946622 -28161612 -27308942 -26320020 
1561.495 -25189538 -23971046 -22761326 -21676538 -20810934 -20222350 
1561.856 -19912520 -19833614 -19901158 -20022202 -20124076 -20159978 
1562.218 -20115978 -20001194 -19836524 -19643294 -19442974 -19260154 
1562.580 -19122124 -19058896 -19093968 -19230802 -19442498 -19670654 
1562.942 -19842254 -19884194 -19753802 -19455298 -19045228 -18616106 
1563.304 -18272280 -18107274 -18170164 -18458058 -18915188 -19455298 
1563.666 -19977744 -20397778 -20670964 -20798582 -20829882 -20840242 
1564.027 -20914452 -21112012 -21447732 -21886416 -22359562 -22794246 
1564.389 -23153894 -23471308 -23865430 -24534284 -25710194 -27637702 
1564.751 -30499950 -34338304 -38865532 -43326684 -46559984 -47432664 
1565.113 -45644588 -41912216 -37427804 -33134624 -29554648 -26853652 
1565.475 -24974462 -23773120 -23065392 -22674602 -22445754 -22276154 
1565.836 -22123808 -21996766 -21935498 -21986370 -22180234 -22513712 
1566.198 -22945194 -23399544 -23791316 -24034160 -24059834 -23832374 
1566.560 -23347330 -22633086 -21739670 -20731872 -19673598 -18620360 
1566.922 -17624030 -16729452 -15981814 -15427930 -15105381 -15036155 
1567.284 -15212924 -15594214 -16098879 -16618615 -17043184 -17273464 
1567.646 -17253942 -16983286 -16514387 -15936973 -15358565 -14891014 
1568.007 -14622883 -14619743 -14915731 -15510809 -16370919 -17430034 
1568.369 -18606392 -19811232 -20985462 -22126770 -23305974 -24658706 
1568.731 -26354604 -28549144 -31311854 -34540624 -37875368 -40756284 
1569.093 -42578440 -43052296 -42395548 -41238280 -40262732 -39932816 
1569.455 -40493672 -42004784 -44460848 -47846180 -52214136 -57612120 
1569.816 -63768452 -69538088 -72623128 -71274728 -66383204 -60250732 
1570.178 -54403804 -49306352 -44951748 -41203720 -37930604 -35048848 
1570.540 -32497902 -30245644 -28288448 -26635160 -25300896 -24286580 
1570.902 -23555176 -23020208 -22553728 -22023790 -21321594 -20409382 
1571.264 -19331784 -18208134 -17185538 -16391912 -15903018 -15719181 
1571.625 -15780725 -15996249 -16284630 -16587203 -16874458 -17132858 
1571.987 -17345100 -17481468 -17507280 -17396036 -17152732 -16822664 
1572.349 -16492726 -16263342 -16225616 -16435752 -16896418 -17560170 
1572.711 -18341468 -19146856 -19884288 -20486036 -20919030 -21182766 
1573.073 -21306232 -21334308 -21315128 -21279288 -21231140 -21144108 
1573.435 -20972580 -20665686 -20190312 -19548752 -18785998 -17985280 
1573.796 -17242194 -16655765 -16298097 -16203495 -16369451 -16762288 
1574.158 -17329662 -18006390 -18728464 -19433026 -20060708 -20566280 
1574.520 -20918052 -21105792 -21140446 -21054564 -20895664 -20718256 
1574.882 -20583976 -20551616 -20672574 -20987072 -21513008 -22242032 
1575.244 -23137496 -24150734 -25237716 -26389122 -27649950 -29128602 
1575.605 -30980070 -33370648 -36443828 -40289488 -44949448 -50397648 
1575.967 -56626236 -63702932 -71847248 -81520272 -93172040 -105643536 
1576.329 -112933632 -108652112 -97159192 -85772120 -76546464 -69013592 
1576.691 -62521332 -56663984 -51249796 -46204224 -41530288 -37250396 
1577.053 -33422436 -30133692 -27459232 -25469910 -24194110 -23594876 
1577.415 -23563464 -23921660 -24453986 -24916586 -25102482 -24883544 
1577.776 -24234158 -23237258 -22052230 -20871128 -19854188 -19114578 
1578.138 -18701648 -18603440 -18763056 -19095110 -19510738 -19921542 
1578.500 -20257930 -20471274 -20531168 -20426956 -20165260 -19770994 
1578.862 -19282468 -18751124 -18234124 -17779934 -17425036 -17184168 
1579.224 -17049938 -16997272 -16992748 -17006034 -17013746 -17005652 
1579.585 -16983094 -16955212 -16935104 -16936156 -16970858 -17047006 
1579.947 -17167258 -17326030 -17509698 -17695896 -17858644 -17975936 
1580.309 -18032328 -18024286 -17957814 -17844650 -17695992 -17519564 
1580.671 -17320904 -17107598 -16895812 -16713956 -16596388 -16577506 
1581.033 -16675949 -16883096 -17157320 -17431434 -17630234 -17683904 
1581.395 -17552820 -17234646 -16765954 -16210007 -15646921 -15159075 
1581.756 -14812661 -14656585 -14712834 -14973290 -15396303 -15908416 
1582.118 -16417533 -16817882 -17021328 -16975764 -16679680 -16184278 
1582.480 -15584146 -14995506 -14515514 -14206460 -14077881 -14092508 
1582.842 -14183498 -14282517 -14347086 -14369012 -14376930 -14420843 
1583.204 -14555248 -14814902 -15203326 -15687544 -16208284 -16687971 
1583.565 -17048664 -17232066 -17203406 -16959452 -16525902 -15955146 
1583.927 -15314747 -14675356 -14106268 -13657594 -13358243 -13213985 
1584.289 -13212024 -13327718 -13533350 -13807418 -14135263 -14509394 
1584.651 -14924278 -15368896 -15821557 -16249202 -16607454 -16851574 
1585.013 -16946164 -16873246 -16639790 -16278438 -15843920 -15397231 
1585.375 -14999891 -14700374 -14524102 -14475648 -14540637 -14695121 
1585.736 -14910865 -15163459 -15431480 -15693169 -15924675 -16099581 
1586.098 -16193504 -16195865 -16120590 -16011961 -15934769 -15962811 
1586.460 -16149066 -16501149 -16969106 -17452822 -17833998 -18003274 
1586.822 -17907928 -17567774 -17074054 -16551321 -16124867 -15880818 
1587.184 -15841940 -15974948 -16210422 -16478851 -16725976 -16926470 
1587.545 -17073990 -17161206 -17165920 -17050002 -16769940 -16304256 
1587.907 -15671467 -14941598 -14214637 -13604131 -13198622 -13034762 
1588.269 -13094982 -13318720 -13634123 -13979809 -14328685 -14686088 
1588.631 -15075010 -15512343 -15990309 -16466059 -16874204 -17140598 
1588.993 -17207832 -17058604 -16724478 -16287949 -15861139 -15577529 
1589.354 -15554160 -15868327 -16546154 -17552788 -18798436 -20143846 
1589.716 -21435148 -22517046 -23261568 -23597732 -23513810 -23058668 
1590.078 -22318992 -21410610 -20451614 -19544792 -18776194 -18197522 
1590.440 -17824172 -17636692 -17591448 -17633352 -17712788 -17801750 
1590.802 -17894384 -18001176 -18135812 -18302778 -18490510 -18677240 
1591.164 -18839874 -18968446 -19070788 -19167748 -19276920 -19397254 
1591.525 -19497782 -19526578 -19426942 -19166258 -18759374 -18276252 
1591.887 -17823312 -17501106 -17376364 -17451138 -17667998 -17927864 
1592.249 -18133428 -18218970 -18169020 -18019550 -17842204 -17718896 
1592.611 -17707890 -17833044 -18074792 -18381234 -18677938 -18890444 
1592.973 -18963688 -18871600 -18628042 -18283844 -17922490 -17634020 
1593.334 -17499164 -17567902 -17842902 -18277714 -18785554 -19268078 
1593.696 -19628504 -19800754 -19761782 -19533484 -19180620 -18798056 
1594.058 -18507624 -18427792 -18658642 -19259520 -20226494 -21477564 
1594.420 -22846118 -24117354 -25044966 -25432506 -25205952 -24445968 
1594.782 -23360202 -22190024 -21135778 -20284302 -19619890 -19062416 
1595.144 -18527216 -17967606 -17402850 -16908750 -16594538 -16554767 
1595.505 -16828784 -17387474 -18137654 -18955982 -19709380 -20299260 
1595.867 -20676396 -20843304 -20844000 -20747918 -20633050 -20562930 
1596.229 -20579806 -20691846 -20870432 -21051882 -21153734 -21102290 
1596.591 -20846116 -20375996 -19722742 -18949034 -18128408 -17331570 
1596.953 -16616670 -16016815 -15544729 -15195359 -14953699 -14800556 
1597.314 -14719849 -14703033 -14750852 -14872155 -15077538 -15370591 
1597.676 -15737493 -16140193 -16515311 -16793402 -16915890 -16859700 
1598.038 -16652131 -16371045 -16123783 -16005382 -16072985 -16315395 
1598.400 -16659304 -16987142 -17186110 -17188820 -16995200 -16673304 
1598.762 -16334925 -16098496 -16039968 -16178310 -16469631 -16834012 
1599.124 -17179870 -17440092 -17591544 -17651550 -17662938 -17667328 
1599.485 -17686862 -17712246 -17708716 -17633160 -17460686 -17200060 
1599.847 -16902344 -16643170 -16506763 -16550589 -16781352 -17146266 
1600.209 -17544386 -17859756 -17988460 -17879758 -17548206 -17070198 
1600.571 -16551673 -16101465 -15800310 -15679074 -15725955 -15899984 
1600.933 -16156506 -16459327 -16790214 -17143274 -17513040 -17885514 
1601.294 -18236604 -18536676 -18765022 -18916774 -19003494 -19041360 
1601.656 -19036348 -18971586 -18810526 -18504736 -18017418 -17343860 
1602.018 -16524816 -15643727 -14807858 -14133146 -13707712 -13580785 
1602.380 -13754519 -14188918 -14811700 -15532421 -16267363 -16943072 
1602.742 -17511258 -17954190 -18285050 -18545218 -18793676 -19098186 
1603.104 -19510992 -20054888 -20708906 -21409726 -22055034 -22523716 
1603.465 -22716174 -22577100 -22122110 -21429250 -20620442 -19819114 
1603.827 -19114484 -18553344 -18131394 -17809352 -17531434 -17254134 
1604.189 -16961586 -16674260 -16438622 -16311852 -16336488 -16520383 
1604.551 -16830664 -17198404 -17541680 -17777548 -17848118 -17729648 
1604.913 -17432676 -16997272 -16482551 -15960319 -15497060 -15150532 
1605.274 -14957445 -14924278 -15023161 -15194975 -15367073 -15467133 
1605.636 -15452361 -15324087 -15132517 -14960102 -14895912 -15010102 
1605.998 -15323383 -15802355 -16364248 -16910058 -17344498 -17608948 
1606.360 -17697582 -17656386 -17568730 -17525928 -17612130 -17876196 
1606.722 -18324252 -18920200 -19601362 -20294484 -20934282 -21483336 
1607.083 -21929734 -22280782 -22544322 -22712212 -22750070 -22606886 
1607.445 -22233092 -21611820 -20776442 -19811454 -18825818 -17927896 
1607.807 -17203246 -16691031 -16388085 -16255809 -16242500 -16297139 
1608.169 -16385851 -16494099 -16617244 -16749473 -16876786 -16974776 
1608.531 -17018396 -16992016 -16895302 -16743448 -16561497 -16378416 
1608.893 -16223093 -16132945 -16163178 -16386138 -16895556 -17782732 
1609.254 -19107540 -20864432 -22949752 -25145228 -27103102 -28443830 
1609.616 -28859480 -28249300 -26768424 -24760532 -22613052 -20615228 
1609.978 -18945958 -17669048 -16772140 -16207134 -15910812 -15818458 
1610.340 -15860789 -15971562 -16087512 -16154494 -16141884 -16048525 
1610.702 -15905926 -15765451 -15685499 -15708636 -15844367 -16066853 
1611.063 -16321458 -16545549 -16680669 -16693678 -16578782 -16353687 
1611.425 -16048653 -15697738 -15334258 -14986511 -14682949 -14451612 
1611.787 -14315220 -14287711 -14365710 -14526858 -14729041 -14922518 
1612.149 -15063777 -15125733 -15110021 -15045053 -14978413 -14956485 
1612.511 -15012566 -15153732 -15359845 -15589036 -15792355 -15932979 
1612.873 -15993567 -15984433 -15936717 -15895033 -15897300 -15963227 
1613.234 -16084703 -16227977 -16341625 -16373470 -16294012 -16107276 
1613.596 -15857944 -15615983 -15462401 -15456039 -15611699 -15891135 
1613.958 -16213071 -16479107 -16603468 -16551321 -16349986 -16086394 
1614.320 -15870148 -15807787 -15963066 -16337540 -16870952 -17461322 
1614.682 -18002130 -18401688 -18614646 -18645628 -18544520 -18387936 
1615.043 -18262560 -18249342 -18399846 -18730178 -19212416 -19783786 
1615.405 -20353580 -20830578 -21154650 -21313360 -21354464 -21370740 
1615.767 -21482168 -21793842 -22376178 -23258616 -24439768 -25910484 
1616.129 -27677838 -29779906 -32276512 -35225756 -38663008 -42663352 
1616.491 -47208148 -52363772 -58305208 -65482936 -74748064 -87053000 
1616.853 -101183616 -109989960 -106579192 -95530696 -83928216 -74132736 
1617.214 -66082404 -59314440 -53476488 -48348360 -43819284 -39812180 
1617.576 -36265652 -33139936 -30393686 -27996066 -25926746 -24168692 
1617.938 -22709696 -21538170 -20640252 -19997490 -19581186 -19349720 
1618.300 -19241008 -19181412 -19100564 -18944814 -18701044 -18401974 
1618.662 -18121320 -17943698 -17940488 -18139498 -18513468 -18986304 
1619.023 -19458436 -19843932 -20083550 -20160074 -20086810 -19892012 
1619.385 -19600222 -19225762 -18778066 -18273140 -17744660 -17250122 
1619.747 -16854060 -16617915 -16577953 -16735191 -17056118 -17484588 
1620.109 -17961438 -18431318 -18856658 -19219072 -19515586 -19755260 
1620.471 -19954612 -20133282 -20306026 -20477406 -20634122 -20746118 
1620.833 -20767566 -20652386 -20373214 -19933852 -19378780 -18783998 
1621.194 -18248770 -17861920 -17684700 -17735594 -17984932 -18358366 
1621.556 -18746934 -19036760 -19121522 -18935966 -18477300 -17813326 
1621.918 -17071506 -16405027 -15975490 -15903210 -16252842 -17032480 
1622.280 -18211376 -19747440 -21607848 -23776384 -26217782 -28829000 
1622.642 -31411178 -33640884 -35160212 -35721432 -35301276 -34140640 
1623.003 -32646344 -31283156 -30410522 -30252878 -30902314 -32368104 
1623.365 -34647744 -37801752 -42038560 -47666116 -54862952 -63046360 
1623.727 -69934816 -72312368 -69084592 -62289216 -54568060 -47409908 
1624.089 -41315116 -36295276 -32260268 -29115432 -26758798 -25094100 
1624.451 -23999578 -23328896 -22910494 -22575684 -22188954 -21658854 
1624.812 -20963362 -20144858 -19299456 -18538170 -17960388 -17626192 
1625.174 -17539802 -17657564 -17905608 -18209882 -18507816 -18761660 
1625.536 -18955030 -19080460 -19131762 -19101516 -18985414 -18790504 
1625.898 -18539470 -18267928 -18010268 -17790080 -17612034 -17465364 
1626.260 -17335996 -17221302 -17137156 -17117632 -17198404 -17398298 
1626.622 -17706776 -18081848 -18461582 -18781174 -19000036 -19110330 
1626.983 -19140958 -19142320 -19175388 -19294574 -19538994 -19939518 
1627.345 -20524500 -21330586 -22414696 -23858030 -25769150 -28280376 
1627.707 -31532906 -35618512 -40432784 -45502284 -49741492 -51689284 
1628.069 -50433464 -46366164 -40867736 -35261440 -30345366 -26382294 
1628.431 -23352384 -21144078 -19614536 -18634200 -18093100 -17904146 
1628.792 -17990146 -18271646 -18663116 -19057374 -19340340 -19417880 
1629.154 -19231308 -18784348 -18138894 -17401162 -16682487 -16070303 
1629.516 -15613394 -15314939 -15148420 -15076834 -15072930 -15123589 
1629.878 -15230455 -15399374 -15632380 -15921736 -16252011 -16601076 
1630.240 -16945110 -17259516 -17516732 -17691474 -17764668 -17732128 
1630.602 -17610156 -17436750 -17261108 -17123716 -17043884 -17008966 
1630.963 -16982488 -16918310 -16787090 -16592879 -16378321 -16208475 
1631.325 -16150599 -16251309 -16518533 -16924430 -17414470 -17931076 
1631.687 -18422808 -18854406 -19206616 -19467274 -19627492 -19680628 
1632.049 -19624290 -19463124 -19208326 -18873886 -18469966 -18001272 
1632.411 -17471284 -16892020 -16296342 -15742987 -15304895 -15058624 
1632.772 -15053920 -15295299 -15733561 -16277799 -16819922 -17256140 
1633.134 -17522204 -17599148 -17513836 -17320110 -17084154 -16864482 
1633.496 -16697664 -16600311 -16570171 -16595144 -16662207 -16765922 
1633.858 -16912638 -17120276 -17410744 -17800478 -18290008 -18861164 
1634.220 -19479218 -20108764 -20734714 -21377838 -22102270 -23002296 
1634.582 -24191852 -25778612 -27859698 -30529200 -33910768 -38187184 
1634.943 -43591488 -50360944 -58481984 -67272272 -75226616 -80709760 
1635.305 -83238768 -83626104 -83233000 -83162632 -84159216 -86839272 
1635.667 -91718648 -98817568 -106009608 -108109976 -101581824 -89965016 
1636.029 -78393184 -68733480 -60863712 -54273380 -48596552 -43649056 
1636.391 -39353988 -35715512 -32727600 -30345920 -28487430 -27031652 
1636.752 -25856386 -24872344 -24052372 -23432444 -23094832 -23126594 
1637.114 -23600118 -24552600 -25996536 -27935732 -30387724 -33381906 
1637.476 -36892252 -40747052 -44475772 -47211536 -48013024 -46458468 
1637.838 -43061808 -38871956 -34849244 -31514142 -28985986 -27190630 
1638.200 -25960364 -25115366 -24492256 -23970356 -23473098 -22956382 
1638.562 -22398898 -21786280 -21107214 -20361074 -19567502 -18773336 
1638.923 -18041704 -17443306 -17029834 -16814728 -16772904 -16842776 
1639.285 -16947406 -17013904 -16998132 -16891062 -16718198 -16527304 
1639.647 -16379470 -16334796 -16436581 -16709333 -17151682 -17741830 
1640.009 -18441956 -19211940 -20017298 -20827894 -21615824 -22341088 
1640.371 -22937022 -23315582 -23378256 -23049808 -22318206 -21252186 
1640.732 -19996382 -18724150 -17614038 -16798534 -16341817 -16243681 
1641.094 -16446726 -16862188 -17387760 -17935846 -18434622 -18825564 
1641.456 -19065080 -19119588 -18975550 -18650040 -18197776 -17704898 
1641.818 -17266140 -16971082 -16876274 -16998292 -17318516 -17798634 
1642.180 -18396066 -19071930 -19795752 -20532750 -21233412 -21833892 
1642.542 -22256984 -22434110 -22328970 -21946714 -21333960 -20562236 
1642.903 -19719672 -18892190 -18160346 -17598130 -17253880 -17142924 
1643.265 -17234040 -17456706 -17711706 -17904846 -17984550 -17958450 
1643.627 -17896770 -17900490 -18067578 -18441384 -18991408 -19613334 
1643.989 -20169846 -20529588 -20609288 -20401636 -19969454 -19421492 
1644.351 -18867602 -18402134 -18082388 -17927896 -17931330 -18067070 
1644.712 -18300046 -18588774 -18897676 -19204998 -19515840 -19867640 
1645.074 -20328760 -20983724 -21903334 -23130144 -24664372 -26475202 
1645.436 -28513338 -30741882 -33158970 -35802604 -38761660 -42178576 
1645.798 -46255880 -51309712 -57813488 -66391820 -77530528 -90157184 
1646.160 -99373696 -98917688 -89552424 -77478632 -66529260 -57494788 
1646.521 -50079540 -43912492 -38786632 -34588236 -31276126 -28835202 
1646.883 -27225298 -26402216 -26320800 -26955740 -28322346 -30486454 
1647.245 -33568480 -37702244 -42971452 -49254584 -55856056 -61311596 
1647.607 -63699528 -61941724 -56850032 -50411840 -44354984 -39512664 
1647.969 -36171640 -34352476 -34002660 -35100472 -37617844 -41470724 
1648.331 -46304128 -51341568 -55283228 -56659940 -54838596 -50521780 
1648.692 -45173880 -39986616 -35569060 -32045710 -29296754 -27148268 
1649.054 -25434724 -24031370 -22856964 -21872838 -21071672 -20468904 
1649.416 -20085386 -19933314 -19999516 -20236454 -20559610 -20861748 
1649.778 -21047588 -21050746 -20858054 -20506992 -20072194 -19633634 
1650.140 -19247698 -18936156 -18685176 -18465552 -18254968 -18056452 
1650.501 -17899504 -17828784 -17879632 -18063794 -18361098 -18729322 
1650.863 -19116512 -19481404 -19802336 -20075642 -20310328 -20520676 
1651.225 -20724480 -20943502 -21210882 -21573548 -22083188 -22789686 
1651.587 -23725784 -24900222 -26300590 -27907208 -29714868 -31742976 
1651.949 -34045648 -36708660 -39837336 -43566852 -48074076 -53617576 
1652.311 -60668076 -70065384 -83281544 -102501792 -128991168 -156959536 
1652.672 -170885392 -165731712 -153065872 -141792224 -134205032 -129875240 
1653.034 -128128168 -128600912 -131352408 -136973328 -146711088 -162522560 
1653.396 -184581008 -202246192 -193213424 -160349760 -128050760 -104669688 
1653.758 -88248080 -76155560 -66820524 -59486068 -53779764 -49556064 
1654.120 -46754604 -45289696 -45083332 -46049468 -48148132 -51392348 
1654.481 -55863400 -61619920 -68214864 -74041736 -76355408 -73461056 
1654.843 -66792400 -59051564 -51891560 -45750348 -40571660 -36201212 
1655.205 -32504234 -29418428 -26903734 -24908388 -23364598 -22181146 
1655.567 -21265060 -20538784 -19958316 -19509376 -19195140 -19020682 
1655.929 -18981736 -19061686 -19238028 -19485808 -19781728 -20102532 
1656.291 -20417442 -20687834 -20873242 -20939428 -20875422 -20701322 
1656.652 -20468808 -20242496 -20083614 -20028120 -20074566 -20186106 
1657.014 -20302674 -20366448 -20334452 -20196194 -19972966 -19708050 
1657.376 -19445858 -19214158 -19016084 -18831148 -18625280 -18365798 
1657.738 -18038270 -17653936 -17251746 -16885900 -16617149 -16493205 
1658.100 -16535118 -16731683 -17039808 -17395528 -17723444 -17959754 
1658.461 -18062970 -18022092 -17858644 -17622090 -17380056 -17196908 
1658.823 -17124512 -17183818 -17358950 -17595680 -17816254 -17942648 
1659.185 -17915720 -17722934 -17402850 -17039392 -16727826 -16548548 
1659.547 -16536683 -16668776 -16869422 -17037258 -17088070 -16973982 
1659.909 -16703339 -16327744 -15923206 -15555151 -15259056 -15036572 
1660.271 -14866296 -14725037 -14606961 -14530960 -14535574 -14662063 
1660.632 -14932474 -15340815 -15850501 -16409431 -16961044 -17465906 
1660.994 -17910918 -18312212 -18708502 -19150058 -19684934 -20339732 
1661.356 -21106078 -21928002 -22710138 -23326824 -23664760 -23668368 
1661.718 -23360422 -22839580 -22240898 -21707932 -21336990 -21173900 
1662.080 -21211860 -21413260 -21738912 -22177336 -22758434 -23550406 
1662.441 -24640644 -26115768 -28058006 -30558260 -33754448 -37844488 
1662.803 -43083984 -49632708 -57031120 -63560872 -66510780 -64518480 
1663.165 -59037016 -52484616 -46357468 -41108180 -36743248 -33126212 
1663.527 -30108376 -27582820 -25462006 -23672948 -22156304 -20865350 
1663.889 -19769950 -18857388 -18126374 -17579134 -17210572 -17002752 
1664.250 -16921688 -16921498 -16952982 -16965854 -16919298 -16789576 
1664.612 -16573202 -16291460 -15986508 -15717871 -15544185 -15513015 
1664.974 -15648201 -15941061 -16350592 -16811890 -17255344 -17614676 
1665.336 -17844492 -17928214 -17879058 -17736804 -17558228 -17409248 
1665.698 -17344878 -17400686 -17583654 -17870282 -18210486 -18539312 
1666.060 -18796756 -18935140 -18930542 -18782856 -18510704 -18144264 
1666.421 -17718070 -17271010 -16840132 -16459519 -16158357 -15953677 
1666.783 -15848137 -15827563 -15866442 -15933555 -16003530 -16065864 
1667.145 -16124230 -16191812 -16279969 -16388340 -16499650 -16583918 
1667.507 -16606880 -16547399 -16406367 -16214093 -16024288 -15912026 
1667.869 -15962811 -16256640 -16871940 -17876292 -19324398 -21249662 
1668.230 -23642888 -26418992 -29353460 -32090892 -34188784 -35274880 
1668.592 -35246040 -34333004 -33003732 -31738356 -30944216 -30875558 
1668.954 -31643450 -33263240 -35687616 -38868172 -42772420 -47484380 
1669.316 -53245548 -60412620 -69153656 -78391744 -84538584 -83594896 
1669.678 -76124136 -66272168 -56977100 -49127960 -42674196 -37369408 
1670.040 -33039290 -29558640 -26836458 -24794800 -23329272 -22320440 
1670.401 -21644386 -21200312 -20915842 -20750982 -20687392 -20710264 
1670.763 -20799816 -20933902 -21098156 -21302854 -21592780 -22053144 
1671.125 -22794528 -23945052 -25644170 -28038996 -31287838 -35533096 
1671.487 -40849280 -46999632 -53123392 -57634176 -58765724 -56011404 
1671.849 -50583216 -44345592 -38585944 -33840368 -30194742 -27515030 
1672.210 -25622710 -24335832 -23487694 -22923538 -22508144 -22136278 
1672.572 -21724826 -21223000 -20612194 -19903026 -19131002 -18347280 
1672.934 -17610952 -16972292 -16469887 -16128156 -15955178 -15946649 
1673.296 -16086267 -16349731 -16704008 -17110974 -17532674 -17931044 
1673.658 -18276442 -18551470 -18751630 -18885052 -18968224 -19021380 
1674.020 -19063654 -19114198 -19193460 -19321926 -19520496 -19803918 
1674.381 -20176520 -20631594 -21158152 -21752590 -22432380 -23243414 
1674.743 -24261074 -25584196 -27321046 -29589626 -32524586 -36319324 
1675.105 -41257116 -47777916 -56574432 -68550096 -84521928 -104075912 
1675.467 -123214656 -133786080 -129852640 -114659120 -96082144 -79370568 
1675.829 -66161992 -56222364 -48814932 -43187460 -38721932 -34978976 
1676.190 -31672746 -28651890 -25887542 -23430374 -21366514 -19782898 
1676.552 -18712566 -18125134 -17928596 -18001272 -18210390 -18441384 
1676.914 -18621660 -18718626 -18741508 -18725070 -18715452 -18748616 
1677.276 -18837494 -18968794 -19110140 -19225192 -19291216 -19312514 
1677.638 -19319708 -19357040 -19457388 -19624830 -19822406 -19985402 
1678.000 -20037232 -19923598 -19633634 -19203762 -18703520 -18212362 
1678.361 -17801750 -17515236 -17373246 -17379898 -17531498 -17818860 
1678.723 -18221098 -18700314 -19192318 -19616564 -19898532 -19984074 
1679.085 -19862038 -19562468 -19147172 -18683556 -18231678 -17843508 
1679.447 -17568794 -17477746 -17671848 -18266690 -19373360 -21041780 
1679.809 -23213952 -25659412 -27988548 -29750946 -30585746 -30434898 
1680.170 -29583526 -28559320 -27880890 -27947538 -28955736 -30874200 
1680.532 -33410254 -35997928 -37936584 -38579308 -37706404 -35617752 
1680.894 -32941942 -30279054 -28014268 -26312036 -25146698 -24387488 
1681.256 -23851600 -23371318 -22822636 -22159390 -21412344 -20668688 
1681.618 -20033910 -19591418 -19385496 -19407930 -19612098 -19931478 
1681.979 -20309250 -20709948 -21119366 -21536152 -21956258 -22362362 
1682.341 -22727054 -23020176 -23227710 -23363122 -23474228 -23636520 
1682.703 -23936962 -24468768 -25313368 -26546058 -28248802 -30531824 
1683.065 -33550874 -37506408 -42624248 -48964828 -56042220 -62418752 
1683.427 -65909400 -65312268 -61599760 -56861572 -52612852 -49502408 
1683.789 -47735944 -47342648 -48381528 -50942948 -55078964 -60515076 
1684.150 -66320524 -70990744 -73149024 -72652672 -70506088 -68026256 
1684.512 -66101784 -65149488 -65332220 -66687660 -69342088 -73516560 
1684.874 -79807032 -89099472 -101297752 -111379376 -110493016 -99855688 
1685.236 -87458896 -76753200 -67924872 -60536492 -54261712 -48914856 
1685.598 -44391064 -40623536 -37515888 -34962556 -32847054 -31053584 
1685.959 -29486668 -28079498 -26794656 -25615058 -24533062 -23542654 
1686.321 -22639094 -21821762 -21100554 -20498836 -20046090 -19770234 
1686.683 -19685156 -19780778 -20020684 -20345012 -20688182 -20985018 
1687.045 -21188038 -21275406 -21248242 -21127192 -20943658 -20736642 
1687.407 -20545612 -20410170 -20370306 -20456988 -20687106 -21052482 
1687.769 -21516760 -22012798 -22459912 -22796762 -23009744 -23165486 
1688.130 -23407328 -23942702 -24975494 -26646222 -28951520 -31681650 
1688.492 -34353152 -36254132 -36731680 -35488060 -32810096 -29382012 
1688.854 -25978404 -23150218 -21140132 -19964708 -19466798 -19403368 
1689.216 -19496800 -19521890 -19339704 -18921436 -18331462 -17688104 
1689.578 -17119384 -16724829 -16581684 -16746795 -17271998 -18222210 
1689.939 -19672776 -21697120 -24328938 -27515402 -31036926 -34421296 
1690.301 -37018696 -38164792 -37529048 -35314500 -32143540 -28725802 
1690.663 -25576824 -22998996 -21083320 -19789072 -19006824 -18596362 
1691.025 -18415886 -18335084 -18259286 -18124180 -17894926 -17562334 
1691.387 -17137794 -16652195 -16150407 -15690612 -15329972 -15112421 
1691.749 -15063008 -15184033 -15461506 -15873821 -16401900 -17027732 
1692.110 -17726372 -18456566 -19148536 -19706658 -20035936 -20061152 
1692.472 -19764694 -19199736 -18489144 -17787948 -17235984 -16927264 
1692.834 -16876624 -17027446 -17273144 -17505846 -17644042 -17657914 
1693.196 -17569174 -17433312 -17310526 -17237640 -17219678 -17229804 
1693.558 -17227130 -17174392 -17057680 -16892528 -16721003 -16593773 
1693.919 -16555501 -16628405 -16805356 -17052646 -17324854 -17586326 
1694.281 -17824616 -18059632 -18334480 -18700694 -19189878 -19796100 
1694.643 -20468652 -21130884 -21704874 -22145850 -22468282 -22752208 
1695.005 -23129738 -23743100 -24729170 -26194198 -28224490 -30911322 
1695.367 -34390772 -38880436 -44666340 -52095948 -61457416 -72725712 
1695.729 -85353376 -98110744 -109508504 -118425256 -124793712 -128840312 
1696.090 -129240144 -123164696 -110908504 -97047912 -84781056 -74784872 
1696.452 -66666776 -59924064 -54176460 -49182344 -44798548 -40921264 
1696.814 -37494948 -34479692 -31835082 -29535952 -27569358 -25942916 
1697.176 -24701782 -23920154 -23694064 -24130926 -25315024 -27275308 
1697.538 -29921948 -33008002 -36053584 -38404432 -39473968 -38972864 
1697.899 -37076352 -34276304 -31158794 -28178350 -25603532 -23571434 
1698.261 -22110426 -21194948 -20767788 -20755310 -21069148 -21611096 
1698.623 -22288966 -23016878 -23733908 -24413456 -25059478 -25696046 
1698.985 -26347026 -27019916 -27702614 -28382782 -29084136 -29895846 
1699.347 -30991422 -32615148 -35024884 -38455412 -43060040 -48915748 
1699.708 -55968620 -64088440 -73165704 -83125888 -94057528 -106111168 
1700.070 -119003304 -130630256 -136756944 -135066624 -128342096 -120988968 
1700.432 -115341448 -111983416 -111137488 -113135408 -118620664 -128178552 
1700.794 -140990352 -152612192 -155953184 -149120688 -136620960 -122813232 
1701.156 -109514840 -97029816 -85310120 -74387168 -64385972 -55479904 
1701.518 -47785368 -41388468 -36274552 -32334674 -29412234 -27299796 
1701.879 -25778862 -24645684 -23745390 -22979104 -22305144 -21724416 
1702.241 -21255752 -20913852 -20698512 -20597850 -20600754 -20706882 
1702.603 -20928314 -21278374 -21752748 -22308922 -22864446 -23304938 
1702.965 -23512556 -23415274 -23012634 -22388640 -21675560 -21021766 
1703.327 -20536416 -20263020 -20182846 -20232566 -20338088 -20439824 
1703.688 -20518494 -20594434 -20714782 -20927430 -21267772 -21751110 
1704.050 -22380866 -23168220 -24153962 -25423912 -27123366 -29455398 
1704.412 -32670162 -36993744 -42462288 -48583072 -53952828 -56702016 
1704.774 -55778900 -51830460 -46386564 -40749592 -35607800 -31185840 
1705.136 -27539068 -24642898 -22440498 -20866296 -19828420 -19218312 
1705.498 -18920136 -18840034 -18916964 -19129418 -19489260 -20028816 
1705.859 -20787086 -21800238 -23105892 -24750452 -26803532 -29368262 
1706.221 -32589726 -36648032 -41680312 -47642692 -53989144 -59311696 
1706.583 -61712372 -60080448 -55161648 -48754224 -42379440 -36787120 
1706.945 -32176618 -28576820 -25962360 -24302496 -23560638 -23629364 
1707.307 -24299082 -25234902 -26061382 -26438696 -26174360 -25277668 
1707.668 -23938280 -22442668 -21056176 -19982112 -19309630 -19022046 
1708.030 -19024076 -19184740 -19382042 -19527244 -19588344 -19579444 
1708.392 -19543652 -19524550 -19552806 -19635280 -19757982 -19894640 
1708.754 -20017456 -20105442 -20142930 -20117622 -20016128 -19822278 
1709.116 -19523378 -19120126 -18638518 -18131680 -17678306 -17364426 
1709.478 -17252350 -17363248 -17662588 -18075268 -18505180 -18881912 
1709.839 -19193902 -19505512 -19942144 -20654060 -21774808 -23366136 
1710.201 -25380942 -27621814 -29765148 -31383156 -32096152 -31751968 
1710.563 -30493432 -28678348 -26683710 -24802594 -23179276 -21847724 
1710.925 -20784590 -19944960 -19288458 -18787584 -18425284 -18185670 
1711.287 -18044946 -17972312 -17931234 -17890538 -17834348 -17763998 
1711.648 -17695546 -17648528 -17633798 -17644010 -17651964 -17617062 
1712.010 -17504988 -17302152 -17029388 -16738730 -16506061 -16407037 
1712.372 -16488675 -16759451 -17182640 -17695612 -18227104 -18729574 
1712.734 -19189432 -19623752 -20061310 -20518684 -20978390 -21388690 
1713.096 -21673606 -21766332 -21643062 -21336894 -20930304 -20519760 
1713.458 -20189456 -19981764 -19901602 -19941796 -20114840 -20481262 
1713.819 -21161624 -22311660 -24095100 -26619798 -29871690 -33579488 
1714.181 -37126852 -39649292 -40328988 -38954360 -36059192 -32582228 
1714.543 -29322336 -26750260 -25060386 -24247194 -24222220 -24864428 
1714.905 -26076454 -27809756 -30102500 -33105892 -37052348 -42167392 
1715.267 -48409720 -54873380 -59523280 -60307980 -57151688 -51841488 
1715.628 -46158288 -40979368 -36477920 -32586836 -29202740 -26259452 
1715.990 -23766910 -21770460 -20307828 -19381980 -18935554 -18863384 
1716.352 -19031244 -19322084 -19656880 -20008914 -20403500 -20902862 
1716.714 -21585338 -22518904 -23753422 -25311992 -27200900 -29416664 
1717.076 -31965528 -34880372 -38220168 -42104784 -46740620 -52454108 
1717.438 -59759624 -69240000 -80774080 -91487888 -95003328 -88695032 
1717.799 -77868288 -67683944 -59527120 -53095540 -47914524 -43685492 
1718.161 -40308452 -37837168 -36352600 -35943212 -36666764 -38554144 
1718.523 -41641092 -46003752 -51815668 -59199848 -67915128 -76684560 
1718.885 -82450232 -81861400 -74766776 -64576624 -54639588 -46411900 
1719.247 -40042876 -35190832 -31492908 -28656946 -26461610 -24747480 
1719.608 -23389780 -22288526 -21359354 -20538184 -19784134 -19080746 
1719.970 -18437798 -17885862 -17468198 -17222640 -17169836 -17299954 
1720.332 -17572962 -17919916 -18260240 -18524580 -18663624 -18663750 
1720.694 -18544868 -18353094 -18141406 -17953330 -17812278 -17715142 
1721.056 -17637042 -17541330 -17396928 -17188722 -16927424 -16648496 
1721.417 -16407579 -16265161 -16268609 -16441429 -16770545 -17207862 
1721.779 -17674488 -18085122 -18363352 -18456914 -18349980 -18060618 
1722.141 -17636502 -17139928 -16643904 -16216902 -15910078 -15754556 
1722.503 -15751136 -15872544 -16065609 -16268257 -16425414 -16502935 
1722.865 -16502202 -16460061 -16443472 -16527910 -16789482 -17287982 
1723.227 -18059886 -19122316 -20471718 -22081802 -23874872 -25704448 
1723.588 -27333242 -28432192 -28693856 -27955988 -26313876 -24080334 
1723.950 -21665820 -19426404 -17570958 -16190503 -15272044 -14744895 
1724.312 -14514745 -14497729 -14638517 -14909680 -15302048 -15800662 
1724.674 -16363993 -16924588 -17395178 -17696056 -17787694 -17682886 
1725.036 -17447986 -17176526 -16970158 -16901834 -17000872 -17251046 
1725.397 -17601884 -17986426 -18336512 -18602170 -18752170 -18775780 
1725.759 -18678638 -18478538 -18199906 -17866848 -17500852 -17115848 
1726.121 -16717464 -16306905 -15887015 -15467997 -15073730 -14738938 
1726.483 -14504330 -14406548 -14464111 -14670423 -14990608 -15371455 
1726.845 -15747814 -16062224 -16278949 -16388467 -16410068 -16384542 
1727.207 -16367057 -16409431 -16550716 -16808544 -17173722 -17611080 
1727.568 -18066432 -18481428 -18800180 -18985700 -19027122 -18941358 
1727.930 -18768450 -18561092 -18378852 -18271930 -18273964 -18395178 
1728.292 -18617980 -18896250 -19159758 -19332860 -19342430 -19141498 
1728.654 -18724974 -18137210 -17466192 -16819478 -16307959 -16008321 
1729.016 -15948407 -16102232 -16403528 -16766528 -17112408 -17400112 
1729.377 -17632778 -17859596 -18155832 -18614172 -19322910 -20356680 
1729.739 -21780324 -23650138 -26019598 -28927434 -32381914 -36306096 
1730.101 -40450176 -44365964 -47417396 -48967640 -48716464 -46821184 
1730.463 -43786096 -40176048 -36453972 -32903116 -29666998 -26828920 
1730.825 -24433816 -22517046 -21109990 -20217448 -19810314 -19811580 
1731.187 -20107436 -20550478 -20989250 -21303264 -21409570 -21282758 
1731.548 -20950730 -20487680 -19994674 -19582328 -19362838 -19422728 
1731.910 -19815980 -20547570 -21564844 -22745700 -23905008 -24839362 
1732.272 -25355064 -25343780 -24819242 -23919714 -22853820 -21830080 
1732.634 -21016178 -20498332 -20300302 -20411498 -20818892 -21528270 
1732.996 -22568796 -23983212 -25810460 -28080336 -30837320 -34156168 
1733.357 -38205636 -43304944 -49879844 -58159600 -67209176 -73962128 
1733.719 -75289584 -71667960 -65996140 -60345324 -55518832 -51684784 
1734.081 -48813244 -46908516 -45985872 -46066456 -47177864 -49360832 
1734.443 -52724408 -57499172 -64239936 -73992792 -88218112 -107144136 
1734.805 -123953872 -124523768 -108636528 -89591168 -74165304 -62697524 
1735.167 -54111292 -47489516 -42240028 -38009540 -34548272 -31676136 
1735.528 -29256084 -27175658 -25354532 -23744606 -22326862 -21106236 
1735.890 -20098230 -19314352 -18754804 -18401148 -18219128 -18161776 
1736.252 -18182620 -18243498 -18318566 -18396162 -18472380 -18543820 
1736.614 -18602806 -18637120 -18635246 -18594172 -18525214 -18454372 
1736.976 -18414486 -18438590 -18546868 -18742746 -19016020 -19353078 
1737.337 -19745794 -20198282 -20722046 -21322698 -21981050 -22643498 
1737.699 -23211472 -23561736 -23584772 -23216656 -22478066 -21471320 
1738.061 -20361484 -19314004 -18459550 -17871554 -17557306 -17473958 
1738.423 -17544704 -17684700 -17809194 -17852698 -17780284 -17588808 
1738.785 -17307978 -16993258 -16720653 -16566122 -16592976 -16840992 
1739.146 -17320300 -18019644 -18920646 -20016572 -21320774 -22870134 
1739.508 -24720968 -26942350 -29616706 -32857500 -36819936 -41727480 
1739.870 -47847040 -55270948 -63445276 -70345296 -72705784 -68990072 
1740.232 -61363556 -53104600 -45934156 -40208336 -35713468 -32149232 
1740.594 -29303628 -27040652 -25277576 -23960950 -23032966 -22421618 
1740.956 -22037364 -21789114 -21589658 -21369102 -21085782 -20723216 
1741.317 -20290216 -19811834 -19323226 -18858562 -18442878 -18090778 
1741.679 -17804582 -17579072 -17405270 -17275150 -17182036 -17119734 
1742.041 -17081700 -17060356 -17049810 -17049554 -17065834 -17110114 
1742.403 -17191750 -17313104 -17466352 -17641814 -17842490 -18102888 
1742.765 -18503148 -19171870 -20256792 -21902452 -24197494 -27128876 
1743.126 -30498406 -33886220 -36723944 -38454472 -38867232 -38230120 
1743.488 -37174668 -36333708 -36137376 -36726228 -37940320 -39346180 
1743.850 -40327988 -40344840 -39119656 -36790864 -33780140 -30599766 
1744.212 -27661360 -25216488 -23405258 -22261266 -21751204 -21791386 
1744.574 -22264854 -23020302 -23872236 -24626086 -25079306 -25075054 
1744.936 -24555858 -23580472 -22303760 -20912684 -19590150 -18468284 
1745.297 -17627116 -17107184 -16914168 -17036016 -17454702 -18155228 
1745.659 -19120032 -20312698 -21662352 -23032306 -24227640 -25042808 
1746.021 -25309272 -24978090 -24139702 -23006066 -21826236 -20822966 
1746.383 -20143308 -19821932 -19796322 -19936416 -20109714 -20222192 
1746.745 -20268648 -20333756 -20578382 -21187248 -22319498 -24071338 
1747.106 -26424418 -29193014 -31950754 -34112216 -35098608 -34650708 
1747.468 -32983522 -30656734 -28277334 -26262854 -24841898 -24045822 
1747.830 -23762990 -23774564 -23825096 -23701218 -23297402 -22659568 
1748.192 -21954494 -21409380 -21224136 -21554346 -22499146 -24122368 
1748.554 -26479038 -29620544 -33574088 -38197292 -43020396 -47123436 
1748.916 -49285324 -48751260 -45844600 -41769016 -37737420 -34544448 
1749.277 -32518316 -31651832 -31769860 -32557544 -33610644 -34427324 
1749.639 -34562168 -33789484 -32180802 -30045676 -27747626 -25575012 
1750.001 -23672258 -22088540 -20820408 -19842856 -19125232 -18628168 
1750.363 -18302810 -18088966 -17931872 -17803944 -17720836 -17749528 
1750.725 -17996472 -18596742 -19686328 -21400736 -23866402 -27197694 
1751.086 -31439778 -36486480 -42040364 -47584524 -52586312 -56711616 
1751.448 -59900076 -62136644 -63134900 -62229816 -58873516 -53382552 
1751.810 -46939000 -40739604 -35408268 -31073172 -27621968 -24918304 
1752.172 -22842282 -21288184 -20163932 -19374058 -18830958 -18469616 
1752.534 -18268182 -18244290 -18435734 -18862654 -19497876 -20249264 
1752.896 -20984608 -21554158 -21849866 -21818170 -21501562 -20998752 
1753.257 -20427020 -19895368 -19470696 -19178750 -19016686 -18965274 
1753.619 -18994740 -19062258 -19116132 -19095616 -18948306 -18652196 
1753.981 -18228596 -17742624 -17280818 -16928318 -16729420 -16672155 
1754.343 -16691893 -16702892 -16632168 -16446024 -16160848 -15829353 
1754.705 -15514550 -15257840 -15070274 -14933947 -14822332 -14717638 
1755.066 -14623172 -14557619 -14542239 -14583091 -14664593 -14754119 
1755.428 -14818969 -14839239 -14816375 -14769267 -14725453 -14709887 
1755.790 -14739610 -14831074 -15007157 -15300289 -15751328 -16390989 
1756.152 -17224582 -18221702 -19325192 -20470136 -21611980 -22754410 
1756.514 -23958944 -25341750 -27048870 -29246358 -32096430 -35739744 
1756.875 -40194320 -45186452 -49904064 -52899364 -52883728 -49828736 
1757.237 -44995216 -39772968 -34985728 -30911632 -27534652 -24777242 
1757.599 -22557786 -20803638 -19453080 -18441514 -17705886 -17188372 
1757.961 -16845996 -16647251 -16559614 -16544497 -16555181 -16551163 
1758.323 -16522232 -16504688 -16583662 -16862506 -17433090 -18320726 
1758.685 -19456408 -20663348 -21707396 -22367334 -22498014 -22089138 
1759.046 -21253670 -20188794 -19093524 -18134954 -17417078 -16976976 
1759.408 -16806504 -16866714 -17103616 -17450150 -17836702 -18200064 
1759.770 -18490162 -18686190 -18799928 -18871758 -18949542 -19068348 
1760.132 -19228932 -19394272 -19499874 -19482386 -19310042 -18997500 
1760.494 -18606520 -18221766 -17929646 -17784800 -17804392 -17974536 
1760.855 -18268278 -18658324 -19121142 -19633476 -20159028 -20644802 
1761.217 -21037110 -21300300 -21450128 -21566548 -21799074 -22328342 
1761.579 -23330906 -24964108 -27364510 -30677606 -35074036 -40767176 
1761.941 -47815136 -55637952 -62430632 -65422976 -63270600 -57480188 
1762.303 -50569620 -44089148 -38537044 -33955600 -30238198 -27287878 
1762.665 -25039148 -23413798 -22311030 -21592620 -21109044 -20717498 
1763.026 -20319812 -19881028 -19421556 -19001748 -18690792 -18547852 
1763.388 -18596426 -18818426 -19152784 -19512134 -19796162 -19914262 
1763.750 -19815348 -19497244 -19013356 -18450690 -17912952 -17482964 
1764.112 -17199264 -17053092 -16998514 -16980608 -16960598 -16938324 
1764.474 -16950624 -17055514 -17299222 -17694402 -18205974 -18763530 
1764.835 -19275622 -19661978 -19876440 -19910654 -19792144 -19568072 
1765.197 -19294480 -19019796 -18781268 -18604298 -18498638 -18458088 
1765.559 -18456756 -18453136 -18393780 -18229614 -17934034 -17514026 
1765.921 -17013458 -16500384 -16055327 -15743244 -15600608 -15630493 
1766.283 -15806701 -16084416 -16411727 -16743766 -17041496 -17274896 
1766.645 -17425068 -17484460 -17461290 -17379198 -17276520 -17193724 
1767.006 -17161206 -17189742 -17264738 -17350674 -17401640 -17380662 
1767.368 -17268686 -17073798 -16827190 -16581813 -16402379 -16355315 
1767.730 -16511770 -16937494 -17691190 -18827690 -20402680 -22485964 
1768.092 -25171026 -28600520 -32935244 -38236096 -44214200 -49745776 
1768.454 -52903240 -52295336 -48450352 -43161808 -37883388 -33285708 
1768.815 -29492798 -26432710 -24007636 -22116346 -20671152 -19583658 
1769.177 -18763342 -18120272 -17579230 -17092564 -16636027 -16205091 
1769.539 -15803633 -15438099 -15115269 -14846796 -14654471 -14565918 
1769.901 -14607954 -14793094 -15108837 -15514613 -15950995 -16362302 
1770.263 -16706400 -16966460 -17147668 -17267094 -17343254 -17391008 
1770.625 -17427168 -17477776 -17586772 -17820642 -18253316 -18958550 
1770.986 -19997142 -21415624 -23262446 -25610998 -28585878 -32346916 
1771.348 -37026700 -42563328 -48326572 -52929636 -54709268 -52981728 
1771.710 -48674168 -43415228 -38459776 -34358264 -31256236 -29096624 
1772.072 -27746382 -27073622 -26962374 -27330662 -28127360 -29333486 
1772.434 -30950480 -32980360 -35434016 -38332516 -41713004 -45669016 
1772.795 -50297144 -55507576 -60523404 -63314648 -61879636 -57020860 
1773.157 -51373360 -46449120 -42442068 -39110028 -36210084 -33599608 
1773.519 -31226944 -29078590 -27159566 -25467442 -23979134 -22665670 
1773.881 -21507206 -20505694 -19690286 -19100626 -18762358 -18665688 
1774.243 -18754520 -18936696 -19102560 -19167400 -19089910 -18884258 
1774.604 -18605282 -18325586 -18103746 -17959466 -17871714 -17788298 
1774.966 -17652854 -17424718 -17101164 -16721385 -16366387 -16139138 
1775.328 -16155005 -16532090 -17371398 -18756994 -20738442 -23315646 
1775.690 -26379206 -29648832 -32657068 -34756184 -35376020 -34332240 
1776.052 -31950816 -28871290 -25733928 -22999594 -20874790 -19398520 
1776.414 -18493780 -18019964 -17804136 -17677892 -17516636 -17246046 
1776.775 -16856164 -16387893 -15917106 -15524332 -15271212 -15183968 
1777.137 -15242325 -15386390 -15531974 -15604763 -15556813 -15387349 
1777.499 -15138788 -14884611 -14697651 -14620993 -14655977 -14762382 
1777.861 -14879520 -14950178 -14951138 -14902124 -14861781 -14899370 
1778.223 -15073026 -15403947 -15869223 -16404836 -16925672 -17355226 
1778.584 -17637932 -17758782 -17743324 -17653936 -17574044 -17593232 
1778.946 -17795010 -18231392 -18913350 -19796638 -20786896 -21737652 
1779.308 -22481716 -22883306 -22870576 -22469760 -21786846 -20973306 
1779.670 -20164122 -19446490 -18854660 -18375932 -17975744 -17621294 
1780.032 -17299572 -17020436 -16811794 -16706878 -16743861 -16966908 
1780.394 -17435062 -18241846 -19515364 -21411934 -24093846 -27671528 
1780.755 -32099508 -36995848 -41574524 -44694052 -45373632 -43429920 
1781.117 -39575556 -34929844 -30410368 -26587418 -23666172 -21621340 
1781.479 -20313900 -19546092 -19111820 -18826294 -18568744 -18283018 
1781.841 -17974092 -17682790 -17459732 -17338670 -17320554 -17370156 
1782.203 -17424686 -17413928 -17273684 -16969840 -16504338 -15915507 
1782.564 -15264494 -14622691 -14058025 -13616108 -13321034 -13174096 
1782.926 -13163167 -13270132 -13479101 -13777727 -14150979 -14576171 
1783.288 -15020313 -15439123 -15791109 -16048238 -16206974 -16291650 
1783.650 -16349794 -16436931 -16594378 -16839940 -17158402 -17510368 
1784.012 -17840550 -18098280 -18251884 -18293470 -18238288 -18114456 
1784.374 -17954126 -17782860 -17623362 -17504448 -17466988 -17577226 
1784.735 -17926116 -18619472 -19778910 -21521270 -23933764 -26985042 
1785.097 -30409936 -33582400 -35551876 -35580848 -33683136 -30610698 
1785.459 -27240080 -24186964 -21724858 -19886124 -18605950 -17770742 
1785.821 -17260948 -16966876 -16811540 -16755115 -16782946 -16890044 
1786.183 -17060070 -17253052 -17414978 -17488694 -17437290 -17258178 
1786.544 -16981756 -16659720 -16343316 -16074197 -15872864 -15741933 
1786.906 -15675111 -15664980 -15707932 -15801396 -15939655 -16109159 
1787.268 -16287917 -16453138 -16586404 -16680222 -16737038 -16764073 
1787.630 -16766019 -16741661 -16685452 -16594186 -16473364 -16340477 
1787.992 -16219201 -16131954 -16090961 -16093707 -16127964 -16182778 
1788.354 -16261332 -16388787 -16608123 -16962892 -17481310 -18154244 
1788.715 -18930636 -19718404 -20413838 -20922504 -21178538 -21160140 
1789.077 -20885844 -20409920 -19803538 -19149612 -18524516 -17983882 
1789.439 -17563606 -17275182 -17113108 -17063350 -17112982 -17255248 
1789.801 -17488184 -17807762 -18195742 -18609696 -18988746 -19260122 
1790.163 -19366390 -19292452 -19077034 -18806718 -18585980 -18518166 
1790.524 -18672830 -19083980 -19763904 -20726344 -22013050 -23709124 
1790.886 -25937204 -28825622 -32427520 -36617824 -40875788 -44224468 
1791.248 -45564460 -44328896 -40981236 -36611272 -32251898 -28460898 
1791.610 -25410350 -23064292 -21297050 -19980086 -19013356 -18338164 
1791.972 -17933364 -17806680 -17981020 -18487208 -19355930 -20613426 
1792.333 -22279302 -24370634 -26911334 -29943598 -33571820 -37983676 
1792.695 -43467724 -50399300 -58941068 -68267928 -75658960 -77452744 
1793.057 -72938680 -65044440 -56822124 -49608592 -43623076 -38742416 
1793.419 -34783492 -31617638 -29155712 -27299610 -25932802 -24910546 
1793.781 -24085978 -23327170 -22551368 -21737432 -20918240 -20161654 
1794.143 -19541276 -19119080 -18922928 -18943294 -19132272 -19415566 
1794.504 -19698456 -19883688 -19898152 -19704630 -19321578 -18819664 
1794.866 -18317740 -17947418 -17814122 -17971230 -18393050 -18980118 
1795.228 -19574250 -20015622 -20180094 -20024956 -19606430 -19068156 
1795.590 -18597410 -18359954 -18479620 -19006730 -19922870 -21149158 
1795.952 -22567756 -24040898 -25414630 -26549174 -27321326 -27636146 
1796.313 -27446324 -26762100 -25663410 -24282538 -22789372 -21348818 
1796.675 -20083298 -19073324 -18347344 -17896100 -17687752 -17678208 
1797.037 -17815872 -18038526 -18279302 -18462504 -18513404 -18379648 
1797.399 -18039830 -17518164 -16878122 -16215146 -15631326 -15210076 
1797.761 -15007221 -15035868 -15271883 -15661849 -16142426 -16648304 
1798.123 -17117632 -17500120 -17750258 -17833966 -17735054 -17461480 
1798.484 -17050096 -16562931 -16081510 -15690612 -15463488 -15451146 
1798.846 -15666386 -16081126 -16625727 -17208756 -17728596 -18103238 
1799.208 -18302810 -18370468 -18435256 -18689364 -19381090 -20762322 
1799.570 -23054866 -26402590 -30793710 -35911760 -40925784 -44591504 
1799.932 -45680264 -43815216 -39740920 -34762788 -29973690 -25933490 
1800.293 -22843478 -20673964 -19302466 -18578140 -18339658 -18423602 
1800.655 -18662958 -18914522 -19060228 -19021190 -18772892 -18347280 
1801.017 -17834952 -17362006 -17081126 -17132570 -17616806 -18582140 
1801.379 -19998472 -21737432 -23525674 -24990320 -25746450 -25578010 
1801.741 -24567818 -23045534 -21406290 -19931384 -18769052 -17938992 
1802.103 -17387760 -17043884 -16863940 -16861486 -17115562 -17742752 
1802.464 -18859164 -20520012 -22659128 -25007650 -27072344 -28298474 
1802.826 -28295526 -27085234 -25049438 -22715796 -20517452 -18707836 
1803.188 -17405460 -16610643 -16252618 -16210677 -16347243 -16524179 
1803.550 -16627608 -16593931 -16408121 -16102966 -15738003 -15384343 
1803.912 -15097508 -14901612 -14787138 -14719048 -14654471 -14558548 
1804.273 -14420811 -14255039 -14093951 -13973136 -13922119 -13957318 
1804.635 -14082083 -14292681 -14582034 -14942079 -15360804 -15819576 
1804.997 -16293662 -16751673 -17164580 -17509668 -17772426 -17946400 
1805.359 -18028004 -18012906 -17897500 -17683968 -17389066 -17046530 
1805.721 -16707102 -16424393 -16237553 -16163146 -16187087 -16272150 
1806.083 -16369130 -16436931 -16450107 -16401740 -16297683 -16147183 
1806.444 -15956838 -15730685 -15478036 -15220698 -14993297 -14841640 
1806.806 -14806001 -14907919 -15141413 -15474200 -15856219 -16232861 
1807.168 -16562676 -16819922 -16999024 -17112026 -17188564 -17275946 
1807.530 -17433662 -17734960 -18246324 -19007774 -20007014 -21160488 
1807.892 -22306718 -23223690 -23710692 -23650200 -23063758 -22091532 
1808.253 -20939334 -19800818 -18801356 -18002924 -17405810 -16976656 
1808.615 -16671358 -16454287 -16304065 -16209528 -16163593 -16157750 
1808.977 -16183097 -16234968 -16317500 -16442068 -16618488 -16845518 
1809.339 -17101768 -17349208 -17540248 -17637106 -17626066 -17522652 
1809.701 -17364488 -17197066 -17058474 -16965378 -16914774 -16890426 
1810.062 -16877296 -16872196 -16892912 -16978856 -17196524 -17633574 
1810.424 -18393748 -19598734 -21367334 -23795204 -26900434 -30567092 
1810.786 -34429252 -37813536 -39915952 -40109016 -38362332 -35246256 
1811.148 -31607468 -28142606 -25228650 -22995666 -21390264 -20278008 
1811.510 -19502694 -18936250 -18492542 -18129044 -17833458 -17599850 
1811.872 -17417268 -17273304 -17168594 -17134418 -17233882 -17553422 
1812.233 -18166508 -19097138 -20284240 -21574304 -22734852 -23506748 
1812.595 -23710504 -23301766 -22396192 -21206182 -19980276 -18918296 
1812.957 -18127676 -17630932 -17376078 -17274800 -17229774 -17172034 
1813.319 -17071090 -16933194 -16787442 -16667724 -16595718 -16571447 
1813.681 -16573839 -16567430 -16514035 -16379470 -16143830 -15807435 
1814.042 -15394449 -14951491 -14541790 -14238815 -14101521 -14160119 
1814.404 -14398310 -14753062 -15120837 -15386710 -15466590 -15328213 
1814.766 -15012918 -14620640 -14290212 -14145912 -14258406 -14625543 
1815.128 -15173986 -15784431 -16327010 -16710673 -16898296 -16913976 
1815.490 -16820848 -16699513 -16617052 -16609685 -16684337 -16824480 
1815.852 -17003742 -17193276 -17369552 -17514376 -17613912 -17660650 
1816.213 -17656194 -17614612 -17558706 -17515394 -17502698 -17519692 
1816.575 -17542794 -17532198 -17448844 -17268910 -16998738 -16674068 
1816.937 -16353177 -16093642 -15939495 -15913496 -16018061 -16248534 
1817.299 -16607136 -17109572 -17781142 -18639152 -19669356 -20793372 
1817.661 -21861242 -22671550 -23014458 -22768150 -21944288 -20687234 
1818.022 -19205632 -17721346 -16420245 -15419072 -14777850 -14491960 
1818.384 -14505195 -14720040 -15026426 -15327189 -15548214 -15656415 
1818.746 -15655136 -15576825 -15466526 -15370303 -15323639 -15343309 
1819.108 -15430617 -15574939 -15762320 -15979387 -16218210 -16475884 
1819.470 -16751673 -17042738 -17341568 -17633128 -17897152 -18109688 
1819.832 -18247310 -18292582 -18236000 -18078796 -17833522 -17524530 
1820.193 -17184584 -16848258 -16549440 -16311565 -16143927 -16041053 
1820.555 -15985966 -15955817 -15928924 -15893500 -15850661 -15815264 
1820.917 -15809735 -15859064 -15979994 -16173903 -16421586 -16685676 
1821.279 -16919458 -17074628 -17120720 -17050544 -16886410 -16671455 
1821.641 -16461624 -16309107 -16245341 -16278438 -16394403 -16569279 
1822.002 -16779376 -17010974 -17259580 -17520996 -17780918 -18008678 
1822.364 -18157644 -18185574 -18072250 -17840868 -17556988 -17320650 
1822.726 -17234104 -17362388 -17713584 -18225484 -18786346 -19257998 
1823.088 -19533072 -19570102 -19401086 -19105478 -18770480 -18457804 
1823.450 -18185162 -17937848 -17689820 -17427870 -17162098 -16922358 
1823.812 -16737167 -16615873 -16535789 -16451159 -16311342 -16091343 
1824.173 -15808202 -15521551 -15306846 -15227960 -15306590 -15511448 
1824.535 -15766889 -15984081 -16102487 -16113214 -16072538 -16086362 
1824.897 -16299278 -16859510 -17908120 -19588154 -22053362 -25487066 
1825.259 -30084324 -35999696 -43089564 -50500336 -56446520 -58688212 
1825.621 -56296008 -50511548 -43578120 -37133544 -31853866 -27839466 
1825.982 -24905258 -22806980 -21318534 -20265708 -19530316 -19047638 
1826.344 -18789266 -18735606 -18854596 -19095458 -19388032 -19662928 
1826.706 -19869160 -19976606 -19977650 -19874636 -19670210 -19364646 
1827.068 -18962610 -18485398 -17974664 -17495632 -17120690 -16903236 
1827.430 -16863398 -16973534 -17167576 -17356084 -17461672 -17440348 
1827.792 -17289958 -17044778 -16757315 -16477255 -16231967 -16026139 
1828.153 -15851332 -15701797 -15589580 -15547766 -15618987 -15839193 
1828.515 -16213294 -16706049 -17242352 -17735850 -18117572 -18370564 
1828.877 -18548742 -18779906 -19242054 -20109114 -21520828 -23523822 
1829.239 -26033892 -28762054 -31227128 -32870862 -33255812 -32326370 
1829.601 -30423314 -28110434 -25893066 -24130644 -23020302 -22629062 
1829.962 -22974390 -24064536 -25944352 -28700060 -32441970 -37216060 
1830.324 -42706988 -47944108 -51332940 -51569988 -48821416 -44438264 
1830.686 -39774452 -35522872 -31882006 -28793342 -26115988 -23732652 
1831.048 -21576100 -19634140 -17945828 -16569374 -15554800 -14925975 
1831.410 -14664946 -14713218 -14978156 -15359526 -15758902 -16097825 
1831.771 -16329851 -16433837 -16412269 -16282331 -16072186 -15813889 
1832.133 -15539519 -15280808 -15064064 -14908912 -14827135 -14820154 
1832.495 -14878911 -14983694 -15108068 -15218266 -15277546 -15252946 
1832.857 -15117125 -14860084 -14496030 -14071465 -13659745 -13349503 
1833.219 -13232048 -13369680 -13778786 -14410779 -15159363 -15870787 
1833.581 -16388467 -16611887 -16523477 -16200783 -15777880 -15408680 
1833.942 -15206781 -15217915 -15415939 -15718926 -16020136 -16220829 
1834.304 -16266758 -16154846 -15927836 -15648009 -15377851 -15157987 
1834.666 -14999507 -14891910 -14814679 -14752357 -14703128 -14681411 
1835.028 -14713891 -14833284 -15064416 -15417282 -15877560 -16406527 
1835.390 -16939662 -17398456 -17711516 -17825444 -17726372 -17443562 
1835.751 -17048854 -16633635 -16285971 -16073687 -16023586 -16123526 
1836.113 -16329117 -16584523 -16832354 -17026140 -17136042 -17143624 
1836.475 -17040602 -16827924 -16517576 -16135307 -15720364 -15327222 
1836.837 -15014167 -14839527 -14856786 -15107173 -15621928 -16418938 
1837.199 -17497574 -18823344 -20311528 -21826458 -23172680 -24148854 
1837.561 -24610620 -24514522 -23932854 -23011880 -21921260 -20795078 
1837.922 -19723788 -18755250 -17904050 -17171906 -16556809 -16056987 
1838.284 -15670221 -15391443 -15213116 -15128485 -15136837 -15244693 
1838.646 -15462145 -15791556 -16214859 -16684718 -17133432 -17481310 
1839.008 -17662588 -17649672 -17460430 -17154836 -16810040 -16503446 
1839.370 -16284822 -16168732 -16138947 -16160751 -16194303 -16203079 
1839.731 -16161103 -16050441 -15862832 -15602909 -15293731 -14978796 
1840.093 -14713314 -14557106 -14552589 -14711937 -15013207 -15410279 
1840.455 -15848871 -16283864 -16694825 -17083164 -17460272 -17830690 
1840.817 -18179538 -18469648 -18655244 -18692570 -18559218 -18260336 
1841.179 -17828148 -17312498 -16772140 -16272407 -15873695 -15629120 
1841.541 -15574843 -15715314 -16014995 -16396126 -16762383 -17019002 
1841.902 -17117090 -17077270 -16996730 -17019386 -17288588 -17903350 
1842.264 -18865698 -20061406 -21263986 -22216500 -22701110 -22627332 
1842.626 -22057110 -21170996 -20196098 -19325602 -18698220 -18367132 
1842.988 -18308560 -18438496 -18646390 -18827342 -18906464 -18864114 
1843.350 -18733732 -18591884 -18526104 -18617156 -18912556 -19419084 
1843.711 -20111294 -20954332 -21931058 -23059580 -24400050 -26047746 
1844.073 -28130650 -30845066 -34372836 -39093496 -45552084 -54450576 
1844.435 -66226088 -79744520 -90250432 -91572512 -83451920 -71358904 
1844.797 -59729564 -50066756 -42446004 -36529156 -31998958 -28624840 
1845.159 -26200688 -24540546 -23451124 -22746016 -22255410 -21853774 
1845.521 -21473844 -21093452 -20721984 -20378462 -20078900 -19830320 
1845.882 -19634964 -19492872 -19401498 -19349910 -19313846 -19258696 
1846.244 -19145048 -18943736 -18648802 -18281780 -17886562 -17513390 
1846.606 -17210348 -17008584 -16922548 -16955466 -17104954 -17366718 
1846.968 -17729106 -18168480 -18638168 -19069648 -19387682 -19521130 
1847.330 -19430996 -19127830 -18682510 -18217794 -17884782 -17848562 
1847.691 -18242544 -19151294 -20584420 -22461202 -24576430 -26591188 
1848.053 -28112762 -28776350 -28418072 -27143070 -25272730 -23186092 
1848.415 -21183620 -19458436 -18080894 -17044616 -16305501 -15809895 
1848.777 -15507899 -15354152 -15305151 -15308222 -15305727 -15252466 
1849.139 -15130981 -14969737 -14834019 -14809650 -14959429 -15295107 
1849.500 -15763663 -16265672 -16684910 -16928668 -16965854 -16831908 
1849.862 -16613513 -16404899 -16280737 -16267873 -16346859 -16468642 
1850.224 -16581781 -16652098 -16665077 -16621325 -16522679 -16363962 
1850.586 -16135404 -15832260 -15468828 -15082210 -14732500 -14486801 
1850.948 -14397926 -14496159 -14778587 -15214427 -15749859 -16322607 
1851.310 -16868370 -17322816 -17633416 -17761996 -17693510 -17442066 
1851.671 -17050894 -16583981 -16104465 -15665492 -15294692 -14994994 
1852.033 -14754280 -14559253 -14407381 -14309673 -14284057 -14345163 
1852.395 -14493627 -14713218 -14975339 -15249459 -15516084 -15769733 
1852.757 -16018445 -16273651 -16543508 -16825852 -17109318 -17377160 
1853.119 -17612924 -17803342 -17937244 -18005658 -18000286 -17917660 
1853.480 -17762312 -17551768 -17314856 -17082240 -16880610 -16719982 
1853.842 -16592497 -16475087 -16341370 -16171604 -15957668 -15703332 
1854.204 -15418177 -15111460 -14789892 -14462733 -14149215 -13881203 
1854.566 -13703796 -13661127 -13777856 -14046444 -14422894 -14837478 
1854.928 -15210460 -15484080 -15635513 -15683357 -15673513 -15661880 
1855.290 -15690643 -15773088 -15891807 -16005829 -16068162 -16034028 
1855.651 -15876027 -15588972 -15191776 -14725390 -14249139 -13836016 
1856.013 -13552941 -13452503 -13558561 -13859701 -14312879 -14855698 
1856.375 -15427067 -15973542 -16457828 -16854282 -17135406 -17269802 
1856.737 -17223500 -16972930 -16523477 -15921544 -15254897 -14625094 
1857.099 -14128336 -13820866 -13704116 -13728580 -13817111 -13898949 
1857.460 -13928086 -13899110 -13837332 -13782061 -13762993 -13791529 
1857.822 -13861177 -13958666 -14075572 -14213931 -14381481 -14581842 
1858.184 -14804143 -15024410 -15212860 -15352713 -15453991 -15557804 
1858.546 -15722601 -16002221 -16420150 -16951230 -17518100 -18008582 
1858.908 -18318408 -18375740 -18170354 -17750704 -17209868 -16653789 
1859.270 -16172372 -15831461 -15658747 -15650501 -15779542 -16010204 
1859.631 -16308023 -16647188 -17014256 -17400238 -17791510 -18161076 
1859.993 -18459296 -18619026 -18573250 -18270248 -17700858 -16909516 
1860.355 -15996952 -15091811 -14324580 -13794740 -13538328 -13527151 
1860.717 -13679171 -13896190 -14085772 -14193023 -14208800 -14161114 
1861.079 -14095042 -14051962 -14059084 -14124038 -14244233 -14415811 
1861.440 -14640471 -14923031 -15262255 -15640531 -16015410 -16323531 
1861.802 -16500702 -16497064 -16303875 -15958115 -15537984 -15134213 
1862.164 -14825310 -14662127 -14655207 -14782078 -14998066 -15257552 
1862.526 -15523150 -15773248 -16000943 -16203718 -16374812 -16500255 
1862.888 -16559903 -16537862 -16431764 -16259193 -16053889 -15857721 
1863.250 -15707677 -15621128 -15591466 -15590187 -15580629 -15529480 
1863.611 -15422527 -15269293 -15101636 -14961382 -14884259 -14889797 
1863.973 -14971145 -15096516 -15214875 -15272556 -15223065 -15042173 
1864.335 -14735254 -14341604 -13928792 -13575004 -13361038 -13345904 
1864.697 -13552427 -13960077 -14507887 -15108868 -15665747 -16103860 
1865.059 -16382406 -16504433 -16509250 -16460156 -16421394 -16435655 
1865.420 -16518373 -16655128 -16814122 -16957188 -17055226 -17093806 
1865.782 -17071696 -16995742 -16874586 -16717687 -16539361 -16370822 
1866.144 -16270459 -16319638 -16622156 -17278240 -18354268 -19855992 
1866.506 -21695796 -23682802 -25507562 -26828204 -27365878 -27009610 
1866.868 -25861442 -24185148 -22306152 -20494886 -18950272 -17774080 
1867.229 -16981692 -16530748 -16344817 -16344210 -16463952 -16677257 
1867.591 -17000810 -17496586 -18256142 -19390566 -21008886 -23190270 
1867.953 -25940418 -29122962 -32419614 -35271552 -37033060 -37264048 
1868.315 -35959712 -33551424 -30637716 -27755706 -25222522 -23174942 
1868.677 -21629694 -20533254 -19814620 -19411986 -19290074 -19438666 
1869.039 -19868368 -20601484 -21673006 -23138030 -25086532 -27650540 
1869.400 -30994632 -35249648 -40312228 -45587552 -49728312 -51100388 
1869.762 -49090616 -44684096 -39537408 -34813252 -31029060 -28235328 
1870.124 -26275734 -24932104 -23972050 -23187224 -22412368 -21560462 
1870.486 -20621642 -19657196 -18765626 -18061824 -17644042 -17567042 
1870.848 -17836034 -18398862 -19156746 -19964960 -20665214 -21118260 
1871.209 -21229814 -20984418 -20441340 -19715016 -18927878 -18190022 
1871.571 -17577894 -17124896 -16832450 -16677288 -16624993 -16635900 
1871.933 -16674165 -16711470 -16728271 -16720142 -16700024 -16699322 
1872.295 -16756549 -16906168 -17159740 -17494804 -17850662 -18141214 
1872.657 -18285688 -18226976 -17959244 -17528060 -17021838 -16538756 
1873.019 -16159538 -15927933 -15837882 -15842035 -15867753 -15848905 
1873.380 -15740335 -15534371 -15260560 -14980813 -14771221 -14699830 
1873.742 -14813109 -15116260 -15571135 -16096644 -16592944 -16962222 
1874.104 -17132762 -17085330 -16855716 -16527368 -16197653 -15959330 
1874.466 -15869189 -15936652 -16128827 -16388979 -16661696 -16907922 
1874.828 -17117154 -17301356 -17482806 -17676652 -17882906 -18083564 
1875.189 -18252584 -18364274 -18405436 -18379648 -18305192 -18207150 
1875.551 -18106416 -18014686 -17930440 -17842744 -17737186 -17604240 
1875.913 -17442574 -17260566 -17070550 -16885006 -16708728 -16537862 
1876.275 -16360963 -16165892 -15947448 -15712885 -15482929 -15286087 
1876.637 -15151972 -15098980 -15129189 -15226456 -15363811 -15510106 
1876.999 -15639858 -15741199 -15814112 -15866730 -15907330 -15939495 
1877.360 -15960129 -15962109 -15938697 -15888516 -15815934 -15729567 
1877.722 -15637111 -15543163 -15448396 -15354152 -15266637 -15201406 
1878.084 -15179617 -15225113 -15352169 -15557549 -15815711 -16084064 
1878.446 -16313991 -16461561 -16504530 -16445417 -16311150 -16140033 
1878.808 -15972743 -15837850 -15743148 -15676677 -15611859 -15520209 
1879.169 -15382009 -15198559 -14995409 -14822108 -14736312 -14789091 
1879.531 -15006549 -15375068 -15836604 -16296757 -16654713 -16820306 
1879.893 -16746029 -16439771 -15963418 -15414628 -14896809 -14503978 
1880.255 -14290373 -14266935 -14403278 -14643067 -14916371 -15154212 
1880.617 -15305791 -15340175 -15254513 -15073730 -14849678 -14651331 
1880.979 -14546148 -14589756 -14802510 -15163427 -15609589 -16057210 
1881.340 -16422734 -16648145 -16720779 -16673176 -16569979 -16478118 
1881.702 -16448960 -16496619 -16598716 -16706878 -16771151 -16760152 
1882.064 -16672697 -16538627 -16407229 -16333392 -16354837 -16485900 
1882.426 -16712617 -17001320 -17304826 -17576844 -17783974 -17908820 
1882.788 -17954126 -17938230 -17889646 -17834984 -17791224 -17760564 
1883.149 -17730602 -17680532 -17592500 -17462310 -17306640 -17161332 
1883.511 -17067460 -17060004 -17148146 -17308328 -17482550 -17594440 
1883.873 -17569174 -17348826 -16914582 -16291492 -15549621 -14785441 
1884.235 -14115410 -13654191 -13489186 -13674162 -14208544 -15036412 
1884.597 -16040415 -17065326 -17948212 -18539280 -18751630 -18578394 
1884.958 -18099614 -17449674 -16787600 -16248820 -15907330 -15778488 
1885.320 -15826700 -15993344 -16213454 -16436644 -16631499 -16779918 
1885.682 -16872610 -16902376 -16863240 -16754000 -16581271 -16362302 
1886.044 -16118929 -15874589 -15647305 -15448108 -15285735 -15170658 
1886.406 -15118021 -15144740 -15258704 -15448811 -15675591 -15880084 
1886.768 -15995963 -15972232 -15797755 -15510393 -15193055 -14942495 
1887.129 -14848237 -14957253 -15259568 -15690964 -16154589 -16552215 
1887.491 -16804878 -16879270 -16787250 -16578337 -16317373 -16072154 
1887.853 -15898194 -15828107 -15874268 -16029494 -16274067 -16579134 
1888.215 -16914390 -17252416 -17567934 -17840676 -18052892 -18186306 
1888.577 -18223832 -18150272 -17959308 -17659758 -17281456 -16873088 
1888.938 -16488420 -16178500 -15974851 -15886920 -15910462 -16044309 
1889.300 -16309267 -16765922 -17511290 -18673432 -20392184 -22789372 
1889.662 -25920598 -29680118 -33723700 -37334988 -39584116 -39785544 
1890.024 -37921192 -34645876 -30814328 -27115990 -23909806 -21326516 
1890.386 -19374310 -17991448 -17092754 -16580792 -16362559 -16350305 
1890.748 -16473491 -16683571 -16943964 -17225920 -17501296 -17735024 
1891.109 -17890950 -17936990 -17851998 -17633066 -17297184 -16879430 
1891.471 -16423628 -15979482 -15595078 -15309725 -15157475 -15161987 
1891.833 -15334610 -15670221 -16143575 -16709428 -17303490 -17858548 
1892.195 -18314246 -18628168 -18786536 -18803386 -18716120 -18570266 
1892.557 -18414422 -18285148 -18200414 -18159202 -18141628 -18114076 
1892.918 -18033060 -17857848 -17558642 -17127156 -16582737 -15973957 
1893.280 -15372254 -14851343 -14477636 -14289827 -14289667 -14443631 
1893.642 -14694512 -14981005 -15248851 -15469627 -15640562 -15781427 
1894.004 -15920905 -16086554 -16293662 -16540254 -16808194 -17069052 
1894.366 -17294000 -17458044 -17546962 -17558102 -17497222 -17374328 
1894.728 -17200760 -16990454 -16763117 -16554320 -16425127 -16456934 
1895.089 -16752182 -17414564 -18519626 -20087314 -22041836 -24196398 
1895.451 -26224394 -27738392 -28411832 -28095278 -26891526 -25093630 
1895.813 -23072212 -21129970 -19471806 -18190088 -17281264 -16685229 
1896.175 -16314851 -16088597 -15938697 -15821621 -15712567 -15594982 
1896.537 -15458533 -15300034 -15127973 -14964487 -14841737 -14791045 
1896.898 -14826559 -14937340 -15085731 -15223769 -15307678 -15321368 
1897.260 -15283399 -15243157 -15259503 -15376955 -15609302 -15933523 
1897.622 -16299183 -16647412 -16937272 -17154836 -17314984 -17445726 
1897.984 -17571624 -17697488 -17805440 -17862172 -17837688 -17721536 
1898.346 -17531498 -17309508 -17109128 -16979556 -16946736 -17009666 
1898.708 -17142032 -17307120 -17467784 -17599148 -17693798 -17757224 
1899.069 -17802196 -17839628 -17873494 -17898136 -17900426 -17863224 
1899.431 -17772174 -17620434 -17412304 -17162830 -16896608 -16641831 
1899.793 -16421521 -16250672 -16131094 -16054433 -16006436 -15975906 
1900.155 -15959585 -15964951 -16005127 -16091440 -16224818 -16391912 
1900.517 -16565323 -16713159 -16812240 -16855876 -16859256 -16852242 
1900.878 -16871272 -16941828 -17068924 -17232162 -17391932 -17500024 
1901.240 -17511290 -17399794 -17162830 -16824736 -16428605 -16033420 
1901.602 -15700230 -15478132 -15399374 -15468637 -15662806 -15932182 
1901.964 -16215242 -16452245 -16597822 -16636251 -16580377 -16466314 
1902.326 -16335243 -16223893 -16152993 -16126273 -16137255 -16178597 
1902.688 -16250001 -16359432 -16518023 -16732097 -16993544 -17277476 
1903.049 -17544322 -17746442 -17843094 -17806680 -17630234 -17328258 
1903.411 -16936476 -16506124 -16093386 -15757719 -15545624 -15481170 
1903.773 -15559850 -15745640 -15978843 -16188875 -16320916 -16349602 
1904.135 -16290503 -16192099 -16122090 -16140575 -16275885 -16515758 
1904.497 -16809404 -17087338 -17279132 -17342014 -17269672 -17091798 
1904.858 -16857120 -16616765 -16408218 -16246172 -16128220 -16042968 
1905.220 -15981272 -15941253 -15928188 -15948055 -16001040 -16076528 
1905.582 -16154654 -16211763 -16231904 -16213965 -16176043 -16149100 
1905.944 -16168222 -16258650 -16423628 -16640332 -16863686 -17043184 
1906.306 -17133272 -17112502 -16989210 -16799554 -16592784 -16416417 
1906.667 -16303523 -16262991 -16282173 -16334925 -16394561 -16440729 
1907.029 -16464496 -16465867 -16448416 -16414821 -16364248 -16295161 
1907.391 -16208986 -16113086 -16022531 -15956935 -15939271 -15995258 
1907.753 -16150407 -16433964 -16875096 -17495440 -18298014 -19250962 
1908.115 -20280256 -21258150 -22032136 -22463374 -22468282 -22059348 
1908.477 -21342508 -20487964 -19663562 -19006220 -18591188 -18425950 
1908.838 -18463964 -18624392 -18819314 -18964196 -18998546 -18891554 
1909.200 -18641404 -18275172 -17842266 -17408452 -17035856 -16773893 
1909.562 -16646167 -16648654 -16758559 -16953206 -17230856 -17621738 
1909.924 -18184526 -18983290 -20057290 -21380898 -22836090 -24195080 
1910.286 -25182158 -25545052 -25158768 -24080430 -22519848 -20751868 
1910.647 -19012120 -17476440 -16236883 -15319289 -14711841 -14379622 
1911.009 -14277099 -14349394 -14538233 -14781341 -15015415 -15192128 
1911.371 -15282248 -15285735 -15230360 -15166275 -15151236 -15232727 
1911.733 -15440754 -15777433 -16218433 -16713861 -17200092 -17607708 
1912.095 -17870728 -17945352 -17817556 -17513136 -17091510 -16640363 
1912.457 -16252011 -15993470 -15895192 -15937770 -16062671 -16186576 
1912.818 -16234266 -16159538 -15956838 -15660537 -15330964 -15034876 
1913.180 -14820507 -14711040 -14699830 -14760332 -14855442 -14952227 
1913.542 -15031450 -15088932 -15134085 -15182977 -15251442 -15347756 
1913.904 -15468541 -15599265 -15718063 -15800310 -15824368 -15777977 
1914.266 -15659291 -15477940 -15252242 -15009621 -14781181 -14598118 
1914.627 -14489877 -14475296 -14557811 -14719784 -14924374 -15119077 
1914.989 -15247699 -15270893 -15175330 -14983694 -14745568 -14528075 
1915.351 -14390361 -14362922 -14438599 -14573031 -14700854 -14753575 
1915.713 -14687849 -14496960 -14216561 -13911881 -13665975 -13557565 
1916.075 -13638747 -13930622 -14415586 -15045053 -15741870 -16419256 
1916.437 -16994882 -17398806 -17590972 -17562014 -17334054 -16951772 
1916.798 -16477352 -15979419 -15517587 -15141221 -14880609 -14745471 
1917.160 -14727536 -14804367 -14945984 -15120133 -15303936 -15488172 
1917.522 -15681503 -15906723 -16196983 -16589563 -17119002 -17822614 
1917.884 -18747664 -19960594 -21559990 -23673826 -26439040 -29914558 
1918.246 -33936384 -37909772 -40724520 -41309840 -39429672 -35890868 
1918.607 -31818670 -28061608 -25030640 -22810656 -21347366 -20495580 
1918.969 -20066562 -19843394 -19627934 -19278728 -18728686 -17997744 
1919.331 -17169806 -16365303 -15694862 -15241205 -15039325 -15074818 
1919.693 -15294948 -15625572 -15992863 -16327905 -16581174 -16725115 
1920.055 -16753649 -16680732 -16534928 -16355092 -16179554 -16042810 
1920.417 -15968814 -15967155 -16033262 -16150918 -16298449 -16451512 
1920.778 -16588159 -16691478 -16747942 -16748644 -16689692 -16573615 
1921.140 -16410165 -16218146 -16024990 -15860150 -15753053 -15725605 
1921.502 -15785772 -15928540 -16136393 -16384639 -16643776 -16883702 
1921.864 -17076538 -17196524 -17226874 -17165728 -17034360 -16879112 
1922.226 -16773095 -16807078 -17064434 -17606276 -18440338 -19506430 
1922.587 -20658420 -21689714 -22385146 -22572790 -22204348 -21373896 
1922.949 -20303656 -19264086 -18532516 -18344612 -18848568 -20098546 
1923.311 -22011538 -24358638 -26722658 -28591988 -29532360 -29344696 
1923.673 -28166954 -26369540 -24392280 -22560050 -21049388 -19896128 
1924.035 -19039236 -18376502 -17813136 -17297916 -16827096 -16431062 
1924.396 -16143225 -15974244 -15898420 -15865006 -15816381 -15718829 
1924.758 -15573852 -15417282 -15297347 -15256017 -15310429 -15450315 
1925.120 -15646858 -15869223 -16098272 -16326914 -16555117 -16778578 
1925.482 -16980512 -17133814 -17210124 -17191016 -17076984 -16886760 
1925.844 -16649388 -16392615 -16140001 -15911771 -15729215 -15621289 
1926.206 -15618284 -15737493 -15967505 -16257055 -16520925 -16654968 
1926.567 -16579835 -16266758 -15758103 -15151428 -14574793 -14141165 
1926.929 -13908288 -13871254 -13969992 -14124038 -14259368 -14339904 
1927.291 -14369558 -14380296 -14407317 -14472475 -14576139 -14704634 
1927.653 -14841577 -14982509 -15137061 -15324119 -15558572 -15840150 
1928.015 -16149003 -16450904 -16709428 -16893518 -16987332 -16989308 
1928.376 -16908942 -16761970 -16570171 -16362112 -16170200 -16030930 
1928.738 -15974883 -16015952 -16145715 -16331159 -16524561 -16672347 
1929.100 -16733978 -16690649 -16547495 -16327361 -16062606 -15787914 
1929.462 -15532229 -15321624 -15179234 -15122373 -15161283 -15292580 
1929.824 -15496518 -15736533 -15969263 -16156793 -16275182 -16323660 
1930.186 -16320692 -16296534 -16279044 -16286576 -16323181 -16380809 
1930.547 -16444461 -16498340 -16530111 -16529793 -16490972 -16411057 
1930.909 -16293215 -16149100 -15999539 -15872383 -15793249 -15779447 
1931.271 -15833346 -15943391 -16088694 -16249362 -16415810 -16591189 
1931.633 -16788078 -17018142 -17282252 -17563352 -17828942 -18037190 
1931.995 -18153354 -18159836 -18062300 -17886212 -17671180 -17458394 
1932.356 -17278972 -17151682 -17080648 -17059304 -17074978 -17113204 
1932.718 -17160600 -17204520 -17234838 -17242988 -17223944 -17177702 
1933.080 -17110178 -17034010 -16965952 -16926120 -16932906 -16997370 
1933.442 -17121486 -17295242 -17500374 -17712246 -17908248 -18071900 
1933.804 -18193010 -18267612 -18291882 -18258048 -18154784 -17969544 
1934.166 -17697996 -17351342 -16962828 -16582673 -16264491 -16054144 
1934.527 -15970284 -15999699 -16098591 -16211603 -16288172 -16299469 
1934.889 -16249714 -16170520 -16108202 -16100923 -16166370 -16290821 
1935.251 -16436197 -16549887 -16586851 -16525805 -16375864 -16174192 
1935.613 -15973479 -15826445 -15763598 -15786411 -15865356 -15954889 
1935.975 -16007937 -15997685 -15928667 -15837179 -15776571 -15792515 
1936.336 -15904136 -16087800 -16281694 -16398359 -16362559 -16132019 
1936.698 -15717871 -15180769 -14618430 -14136642 -13816116 -13706011 
1937.060 -13813452 -14113934 -14561720 -15104068 -15687447 -16254246 
1937.422 -16749345 -17120020 -17325298 -17350068 -17212004 -16960820 
1937.784 -16659815 -16370248 -16125314 -15920779 -15717583 -15463233 
1938.146 -15119589 -14684454 -14202290 -13755064 -13441163 -13335655 
1938.507 -13469785 -13814094 -14290469 -14786081 -15188864 -15422015 
1938.869 -15454344 -15309885 -15053055 -14773975 -14556401 -14460714 
1939.231 -14515257 -14713891 -15025306 -15404426 -15807340 -16194813 
1939.593 -16535118 -16804814 -16982680 -17051690 -17002306 -16836944 
1939.955 -16573615 -16242372 -15881456 -15521327 -15178817 -14854449 
1940.316 -14539194 -14226758 -13926739 -13666874 -13489540 -13433774 
1940.678 -13515332 -13714134 -13973265 -14213867 -14351798 -14330352 
1941.040 -14133788 -13793648 -13376107 -12971059 -12673132 -12558745 
1941.402 -12683237 -13065918 -13687037 -14483307 -15355911 -16188269 
1941.764 -16856132 -17266680 -17377830 -17210890 -16840992 -16376916 
1942.125 -15931478 -15588813 -15407688 -15429754 -15697738 -16280927 
1942.487 -17277126 -18800816 -20958056 -23797684 -27251314 -31032670 
1942.849 -34634128 -37381568 -38672100 -38282368 -36447120 -33692764 
1943.211 -30544178 -27408436 -24529806 -22029082 -19979486 -18412644 
1943.573 -17325776 -16676014 -16373631 -16291492 -16283320 -16231362 
1943.935 -16063821 -15773440 -15405738 -15037372 -14742269 -14565470 
1944.296 -14519360 -14586552 -14736439 -14936220 -15162467 -15400877 
1944.658 -15642799 -15883118 -16118834 -16351007 -16584428 -16824896 
1945.020 -17073194 -17321510 -17552468 -17747300 -17896770 -18009122 
1945.382 -18109848 -18229104 -18384856 -18564426 -18720434 -18780952 
1945.744 -18684286 -18405150 -17977430 -17482106 -17026648 -16702766 
1946.105 -16555309 -16577093 -16715869 -16901930 -17069148 -17178946 
1946.467 -17220920 -17202990 -17136904 -17029198 -16881406 -16699066 
1946.829 -16502552 -16328095 -16215498 -16193919 -16263342 -16392009 
1947.191 -16520320 -16584778 -16537670 -16360516 -16069280 -15704481 
1947.553 -15316922 -14948674 -14630284 -14378533 -14200399 -14097896 
1947.915 -14068001 -14100623 -14175353 -14264338 -14340482 -14386034 
1948.276 -14402124 -14408984 -14439241 -14520417 -14664433 -14858452 
1948.638 -15070305 -15256593 -15379705 -15421088 -15384087 -15291780 
1949.000 -15177665 -15078531 -15023801 -15031323 -15104868 -15232568 
1949.362 -15386806 -15527626 -15616462 -15623974 -15546679 -15411878 
1949.724 -15277002 -15209853 -15264846 -15465503 -15790630 -16180798 
1950.085 -16552726 -16831812 -16969106 -16952664 -16803188 -16561210 
1950.447 -16270395 -15963450 -15664693 -15391347 -15158979 -14985454 
1950.809 -14886116 -14867608 -14924214 -15038556 -15187360 -15350314 
1951.171 -15517139 -15686361 -15858617 -16029047 -16180543 -16286608 
1951.533 -16323052 -16278086 -16162634 -16009118 -15864493 -15770948 
1951.895 -15753182 -15811397 -15922854 -16049292 -16148269 -16185971 
1952.256 -16138691 -15997559 -15768647 -15475287 -15156931 -14862486 
1952.618 -14646654 -14549993 -14587834 -14743262 -14972746 -15220058 
1952.980 -15436500 -15601215 -15724454 -15839575 -15980121 -16161550 
1953.342 -16367344 -16555181 -16670274 -16673112 -16555278 -16343508 
1953.704 -16085820 -15834337 -15627680 -15479731 -15387190 -15340719 
1954.065 -15337585 -15385910 -15497956 -15676932 -15905319 -16142139 
1954.427 -16334094 -16429849 -16403496 -16263342 -16053379 -15834942 
1954.789 -15673738 -15621640 -15703842 -15919501 -16244991 -16643170 
1955.151 -17065390 -17460496 -17782032 -17991258 -18069072 -18018660 
1955.513 -17865068 -17642704 -17385182 -17114224 -16837900 -16559104 
1955.875 -16288619 -16054465 -15907617 -15909662 -16109893 -16527591 
1956.236 -17132666 -17847132 -18553664 -19132968 -19486886 -19560852 
1956.598 -19356534 -18925974 -18357572 -17747142 -17187926 -16746508 
1956.960 -16451033 -16291460 -16223477 -16186289 -16117493 -15981015 
1957.322 -15779478 -15558795 -15391059 -15354408 -15503263 -15845070 
1957.684 -16335817 -16891922 -17422394 -17848372 -18130600 -18272694 
1958.045 -18310148 -18290070 -18251854 -18219034 -18196346 -18177854 
1958.407 -18154720 -18120178 -18068214 -17991988 -17882842 -17734610 
1958.769 -17550050 -17345992 -17154230 -17009826 -16937050 -16937782 
1959.131 -16985738 -17034262 -17031970 -16947246 -16779056 -16561847 
1959.493 -16349347 -16201675 -16161932 -16244097 -16432656 -16689438 
1959.854 -16967066 -17214646 -17391008 -17467402 -17431498 -17291772 
1960.216 -17079660 -16847558 -16652640 -16546441 -16552471 -16656818 
1960.578 -16807172 -16930420 -16961170 -16860594 -16635453 -16333105 
1960.940 -16027099 -15784815 -15652165 -15640434 -15731964 -15893180 
1961.302 -16091185 -16304417 -16520096 -16728494 -16915666 -17059304 
1961.664 -17136394 -17134004 -17058858 -16938386 -16814186 -16729642 
1962.025 -16711757 -16765222 -16870664 -16995106 -17101226 -17160696 
1962.387 -17161332 -17106260 -17010814 -16896894 -16789672 -16712267 
1962.749 -16682487 -16710609 -16795760 -16925448 -17077622 -17228404 
1963.111 -17355830 -17444802 -17486784 -17472780 -17388716 -17214296 
1963.473 -16927488 -16519394 -16007777 -15448300 -14923383 -14528172 
1963.834 -14342918 -14401323 -14679842 -15099428 -15557420 -15949493 
1964.196 -16207326 -16312649 -16291715 -16195962 -16077232 -15973287 
1964.558 -15898833 -15854111 -15837947 -15856795 -15926400 -16062574 
1964.920 -16268257 -16524019 -16787600 -17008392 -17139704 -17160250 
1965.282 -17080426 -16940586 -16794772 -16692977 -16667182 -16721545 
1965.644 -16835860 -16973440 -17096704 -17173086 -17184836 -17130818 
1966.005 -17027350 -16905626 -16806822 -16781448 -16876944 -17129894 
1966.367 -17556350 -18142518 -18839430 -19562974 -20215424 -20696428 
1966.729 -20931662 -20892094 -20592886 -20083836 -19427828 -18693458 
1967.091 -17944208 -17242448 -16661696 -16280800 -16184470 -16453329 
1967.453 -17142286 -18267324 -19781918 -21571498 -23425884 -25065576 
1967.814 -26216034 -26677042 -26414782 -25555738 -24328062 -22954466 
1968.176 -21600062 -20360474 -19263576 -18304016 -17464346 -16733086 
1968.538 -16110564 -15605818 -15226873 -14972394 -14827424 -14765392 
1968.900 -14750917 -14748546 -14725390 -14649858 -14495806 -14242182 
1969.262 -13879631 -13418387 -12895125 -12374227 -11933431 -11657112 
1969.624 -11611919 -11829715 -12301764 -12977427 -13775191 -14589756 
1969.985 -15318586 -15871171 -16180575 -16219104 -16000688 -15584369 
1970.347 -15058976 -14535286 -14117206 -13873918 -13830592 -13960366 
1970.709 -14201008 -14472988 -14714371 -14896457 -15028122 -15142436 
1971.071 -15277354 -15453736 -15665652 -15884204 -16074326 -16215656 
1971.433 -16313830 -16401134 -16521467 -16713351 -16988924 -17327814 
1971.794 -17678146 -17975680 -18157294 -18175470 -18009186 -17662938 
1972.156 -17165920 -16563984 -15921544 -15312987 -14810355 -14479142 
1972.518 -14356991 -14443727 -14696018 -15038877 -15381113 -15636470 
1972.880 -15751168 -15709626 -15536034 -15278505 -14996498 -14742909 
1973.242 -14551243 -14437542 -14400169 -14425651 -14490967 -14569122 
1973.604 -14632783 -14659884 -14642714 -14594401 -14550634 -14558644 
1973.965 -14666996 -14904173 -15265390 -15707389 -16159825 -16549090 
1974.327 -16814632 -16932906 -16918662 -16817978 -16685100 -16566122 
1974.689 -16485007 -16440919 -16416257 -16387543 -16336774 -16252108 
1975.051 -16125569 -15948981 -15710521 -15399789 -15018808 -14592735 
1975.413 -14172242 -13829051 -13642150 -13667837 -13926033 -14386034 
1975.774 -14977484 -15599329 -16148811 -16549280 -16756454 -16766880 
1976.136 -16607294 -16324107 -15965654 -15575451 -15191328 -14843145 
1976.498 -14556915 -14355484 -14253789 -14256802 -14355709 -14529421 
1976.860 -14746305 -14972010 -15177377 -15340367 -15449164 -15499907 
1977.222 -15493832 -15435253 -15332115 -15198271 -15054367 -14929946 
1977.583 -14860180 -14877311 -15005749 -15252210 -15602078 -16018188 
1977.945 -16448895 -16838888 -17136042 -17306896 -17339530 -17245250 
1978.307 -17053890 -16809118 -16560890 -16353942 -16227659 -16208379 
1978.669 -16306268 -16514003 -16805578 -17140342 -17463074 -17717624 
1979.031 -17855274 -17842490 -17670606 -17356244 -16937972 -16465006 
1979.393 -15992640 -15572798 -15247059 -15051102 -15010902 -15140677 
1979.754 -15438611 -15880531 -16417757 -16976372 -17477554 -17851488 
1980.116 -18058454 -18103078 -18032772 -17922936 -17843984 -17842044 
1980.478 -17915974 -18021106 -18082040 -18026096 -17810338 -17436274 
1980.840 -16948330 -16418299 -15922885 -15516340 -15225305 -15049182 
1981.202 -14973163 -14979949 -15059263 -15206717 -15415075 -15665652 
1981.563 -15924452 -16142715 -16271671 -16275182 -16140033 -15880657 
1981.925 -15536034 -15161667 -14813813 -14545443 -14395169 -14379975 
1982.287 -14494108 -14706684 -14969449 -15221306 -15409032 -15501697 
1982.649 -15500866 -15440114 -15374013 -15356870 -15417314 -15548118 
1983.011 -15706718 -15837403 -15892189 -15857752 -15760466 -15659738 
1983.373 -15618731 -15676422 -15831014 -16038913 -16233308 -16349539 
1983.734 -16356017 -16261747 -16112799 -15966261 -15872575 -15853696 
1984.096 -15901325 -15984273 -16067397 -16125122 -16146258 -16131859 
1984.458 -16086970 -16014419 -15915221 -15794368 -15670095 -15574235 
1984.820 -15549781 -15634809 -15844783 -16161134 -16530048 -16879780 
1985.182 -17135056 -17246618 -17203406 -17033020 -16788046 -16528804 
1985.543 -16305119 -16142044 -16040223 -15981782 -15942402 -15897971 
1985.905 -15831556 -15734201 -15602206 -15435061 -15234903 -15007797 
1986.267 -14764976 -14524262 -14309769 -14145526 -14053822 -14048850 
1986.629 -14134301 -14302684 -14536983 -14815479 -15113477 -15409895 
1986.991 -15691090 -15950482 -16189259 -16412077 -16622601 -16818966 
1987.353 -16991568 -17123620 -17197928 -17201462 -17133016 -17005334 
1987.714 -16845518 -16687907 -16564591 -16498437 -16494768 -16541371 
1988.076 -16612077 -16679298 -16725274 -16752629 -16787442 -16877072 
1988.438 -17076348 -17425768 -17935910 -18570330 -19247602 -19845230 
1988.800 -20240820 -20352096 -20163964 -19737054 -19183314 -18633946 
1989.162 -18191358 -17917308 -17822518 -17875878 -18019200 -18187704 
1989.523 -18328636 -18402386 -18385586 -18266720 -18043580 -17726656 
1989.885 -17344974 -16951772 -16613608 -16402284 -16373120 -16542424 
1990.247 -16878220 -17301864 -17714920 -18018406 -18149254 -18096880 
1990.609 -17903256 -17646204 -17411350 -17271744 -17261108 -17371048 
1990.971 -17556350 -17756620 -17910854 -17975902 -17937244 -17806012 
1991.333 -17611334 -17383940 -17147796 -16911746 -16674770 -16440537 
1991.694 -16232861 -16108617 -16163273 -16508326 -17256300 -18483302 
1992.056 -20193316 -22265642 -24423886 -26283280 -27427536 -27616900 
1992.418 -26899748 -25586694 -24077514 -22714256 -21716188 -21145086 
1992.780 -20942964 -20960992 -21021608 -20953132 -20645592 -20077160 
1993.142 -19304938 -18439702 -17602490 -16906552 -16424712 -16183641 
1993.503 -16163817 -16307862 -16531356 -16738538 -16852180 -16827030 
1993.865 -16666798 -16421203 -16175212 -16018188 -16011067 -16169211 
1994.227 -16450394 -16769206 -17015688 -17099028 -16970284 -16639279 
1994.589 -16166721 -15647912 -15184512 -14849646 -14679457 -14664978 
1994.951 -14765489 -14923062 -15086083 -15222361 -15321976 -15394577 
1995.312 -15458500 -15531142 -15619179 -15717328 -15810726 -15882447 
1995.674 -15918862 -15914997 -15875228 -15810790 -15735894 -15663702 
1996.036 -15604699 -15566755 -15554767 -15571934 -15617453 -15685275 
1996.398 -15761521 -15828362 -15866378 -15862705 -15818235 -15750466 
1996.760 -15691858 -15677508 -15737301 -15880531 -16091855 -16331287 
1997.122 -16547941 -16692786 -16731683 -16655926 -16481817 -16244862 
1997.483 -15985614 -15743691 -15548502 -15415492 -15348523 -15342254 
1997.845 -15383383 -15451593 -15521743 -15564998 -15552274 -15462433 
1998.207 -15287559 -15038877 -14746208 -14456003 -14222140 -14090744 
1998.569 -14095170 -14244233 -14522468 -14891175 -15300034 -15697962 
1998.931 -16039712 -16298385 -16465038 -16547495 -16563473 -16534545 
1999.292 -16478628 -16405441 -16317723 -16213773 -16092142 -15956327 
1999.654 -15815966 -15685946 -15583347 -15521487 -15505150 -15527242 
2000.016 -15569281 -15602749 -15594662 -15518834 -15361444 -15129573 
2000.378 -14851375 -14575562 -14357952 -14245740 -14267287 -14420138 
2000.740 -14673403 -14973738 -15266445 -15507420 -15673738 -15765611 
2001.102 -15796861 -15781716 -15723847 -15613457 -15434454 -15178978 
2001.463 -14860788 -14520257 -14216176 -14012855 -13952858 -14042594 
2001.825 -14246799 -14502023 -14732436 -14876414 -14906574 -14832675 
2002.187 -14695121 -14544995 -14431484 -14384591 -14412991 -14507535 
2002.549 -14649602 -14817913 -14990896 -15149636 -15276139 -15354600 
2002.911 -15376763 -15345932 -15281160 -15212508 -15177634 -15207901 
2003.272 -15317946 -15500962 -15730206 -15966611 -16166434 -16295193 
2003.634 -16330009 -16260788 -16089939 -15829640 -15502720 -15140677 
2003.996 -14789443 -14503337 -14335961 -14333909 -14520353 -14888613 
2004.358 -15399629 -15993310 -16600119 -17154262 -17611780 -17949706 
2004.720 -18165144 -18265450 -18259478 -18150366 -17935812 -17613244 
2005.082 -17188116 -16680000 -16127901 -15583122 -15101188 -14734133 
2005.443 -14515738 -14458278 -14550057 -14761421 -15048927 -15365666 
2005.805 -15672874 -15942115 -16161676 -16335594 -16480062 -16616607 
2006.167 -16765030 -16936986 -17131234 -17332908 -17516478 -17654986 
2006.529 -17725958 -17720106 -17644360 -17520200 -17376682 -17237926 
2006.891 -17117346 -17010782 -16899508 -16757539 -16565930 -16322223 
2007.252 -16047152 -15779095 -15567139 -15455686 -15469275 -15608151 
2007.614 -15848329 -16153408 -16482648 -16804814 -17102150 -17365826 
2007.976 -17589062 -17759610 -17854668 -17847608 -17717082 -17459890 
2008.338 -17098678 -16683379 -16280800 -15952528 -15746184 -15677860 
2008.700 -15733752 -15876984 -16065609 -16266916 -16464846 -16660899 
2009.062 -16863494 -17075584 -17285690 -17465396 -17578530 -17597908 
2009.423 -17518100 -17365986 -17194042 -17072238 -17061312 -17192926 
2009.785 -17457948 -17806680 -18161076 -18433478 -18558424 -18504798 
2010.147 -18287878 -17960994 -17606116 -17309158 -17133432 -17107886 
2010.509 -17214646 -17396228 -17565960 -17640034 -17559628 -17308074 
2010.871 -16918502 -16465196 -16044246 -15737427 -15598722 -15635639 
2011.232 -15815487 -16076975 -16355634 -16604902 -16802392 -16951674 
2011.594 -17070198 -17175634 -17274196 -17359204 -17415678 -17430702 
2011.956 -17401100 -17335902 -17251460 -17164328 -17082656 -17003294 
2012.318 -16914424 -16803124 -16662685 -16498595 -16327361 -16173456 
2012.680 -16063916 -16020041 -16054880 -16170168 -16355442 -16586501 
2013.042 -16827222 -17036398 -17170696 -17198754 -17110910 -16925578 
2013.403 -16686218 -16451893 -16283512 -16221339 -16276650 -16426563 
2013.765 -16623430 -16803920 -16906518 -16889182 -16732194 -16445417 
2014.127 -16063947 -15647497 -15266606 -14991441 -14880320 -14959654 
2014.489 -15217211 -15599010 -16027099 -16413961 -16690489 -16827988 
2014.851 -16840132 -16774084 -16684463 -16613226 -16569214 -16529506 
2015.212 -16451096 -16296502 -16051430 -15734233 -15387253 -15063008 
2015.574 -14805808 -14637140 -14558356 -14556017 -14613560 -14716421 
2015.936 -14853456 -15013655 -15181217 -15339184 -15475671 -15594087 
2016.298 -15716018 -15877623 -16115289 -16445896 -16857502 -17310272 
2016.660 -17757192 -18164158 -18533406 -18904782 -19342082 -19898278 
2017.021 -20582302 -21329922 -22010624 -22453242 -22507074 -22114268 
2017.383 -21329386 -20298122 -19186230 -18142422 -17260662 -16579421 
2017.745 -16104402 -15821429 -15709786 -15741391 -15879029 -16069504 
2018.107 -16244223 -16339231 -16309459 -16152291 -15912218 -15676262 
2018.469 -15545528 -15597059 -15862897 -16309619 -16851128 -17364488 
2018.831 -17737630 -17897660 -17826940 -17561314 -17170950 -16736370 
2019.192 -16320022 -15961278 -15669422 -15431704 -15222458 -15018072 
2019.554 -14807601 -14597669 -14410201 -14274085 -14215374 -14244939 
2019.916 -14355004 -14520706 -14711329 -14898282 -15065505 -15211804 
2020.278 -15344205 -15468828 -15581939 -15667185 -15702851 -15674537 
2020.640 -15586639 -15465982 -15355303 -15296835 -15309149 -15376252 
2021.001 -15444943 -15447852 -15321592 -15038908 -14623043 -14149118 
2021.363 -13722962 -13448455 -13407142 -13629595 -14093759 -14730899 
2021.725 -15451945 -16162826 -16783998 -17267826 -17594376 -17770138 
2022.087 -17817016 -17763332 -17633128 -17440474 -17190602 -16883254 
2022.449 -16521275 -16118132 -15699431 -15302592 -14968553 -14728304 
2022.811 -14597413 -14571109 -14630252 -14747105 -14896969 -15063904 
2023.172 -15238198 -15412741 -15576825 -15713684 -15805455 -15841683 
2023.534 -15828714 -15790630 -15765388 -15790854 -15887590 -16051527 
2023.896 -16253447 -16453872 -16616542 -16727315 -16798948 -16865438 
2024.258 -16962478 -17109286 -17295338 -17482360 -17616362 -17648464 
2024.620 -17558228 -17360510 -17102948 -16845072 -16642468 -16524466 
2024.981 -16487591 -16500639 -16521882 -16516395 -16468132 -16383808 
2025.343 -16285459 -16196888 -16128348 -16070334 -15995290 -15872480 
2025.705 -15679905 -15420480 -15123812 -14843018 -14635249 -14543424 
2026.067 -14586232 -14751909 -15007349 -15312444 -15638068 -15972041 
2026.429 -16317373 -16679745 -17052042 -17403646 -17683330 -17826238 
2026.791 -17779330 -17519468 -17065390 -16475661 -15834784 -15238870 
2027.152 -14766738 -14475039 -14392797 -14520802 -14836229 -15293092 
2027.514 -15828745 -16359814 -16797802 -17067332 -17118046 -16945398 
2027.876 -16591284 -16138436 -15680129 -15298690 -15043709 -14920181 
2028.238 -14897673 -14927096 -14965704 -14986158 -14983054 -14963335 
2028.600 -14934395 -14894248 -14831330 -14731283 -14590140 -14423119 
2028.961 -14267384 -14169836 -14175128 -14308712 -14566623 -14914610 
2029.323 -15295843 -15650246 -15922854 -16081158 -16120525 -16062671 
2029.685 -15948247 -15826669 -15746536 -15739696 -15816381 -15960576 
2030.047 -16136393 -16295927 -16393924 -16403846 -16323531 -16177287 
2030.409 -16005382 -15855964 -15766602 -15756505 -15823601 -15948184 
2030.771 -16099166 -16241480 -16346062 -16390765 -16364856 -16269630 
2031.132 -16118100 -15933555 -15743148 -15575130 -15449355 -15372862 
2031.494 -15339056 -15331987 -15332563 -15324983 -15302337 -15264910 
2031.856 -15215355 -15153188 -15071361 -14958277 -14804303 -14609524 
2032.218 -14389944 -14176379 -14011893 -13937648 -13984012 -14164000 
2032.580 -14470136 -14877407 -15347883 -15840534 -16311500 -16719345 
2032.941 -17030822 -17220062 -17274450 -17197162 -17007532 -16737072 
2033.303 -16422926 -16103955 -15810439 -15564742 -15382648 -15274251 
2033.665 -15249171 -15316891 -15483536 -15747877 -16095430 -16497064 
2034.027 -16905978 -17266744 -17525324 -17638124 -17586930 -17384640 
2034.389 -17077176 -16730344 -16418843 -16205091 -16118100 -16146960 
2034.750 -16243139 -16340859 -16375609 -16312649 -16158357 -15957413 
2035.112 -15771300 -15651109 -15614448 -15635161 -15651366 -15589772 
2035.474 -15403275 -15090180 -14705307 -14339520 -14098827 -14063478 
2035.836 -14260971 -14659340 -15177634 -15712727 -16162923 -16463410 
2036.198 -16595494 -16587554 -16498948 -16403176 -16363993 -16414342 
2036.560 -16551832 -16739367 -16922390 -17043374 -17066282 -16987874 
2036.921 -16839622 -16673815 -16545549 -16494354 -16528612 -16627705 
2037.283 -16751576 -16861390 -16929370 -16945748 -16912288 -16829516 
2037.645 -16685579 -16456392 -16113948 -15646251 -15073122 -14454721 
2038.007 -13875940 -13428570 -13183258 -13164195 -13345422 -13657851 
2038.369 -14017315 -14337565 -14556658 -14645565 -14606768 -14470520 
2038.730 -14286461 -14120670 -14040156 -14105626 -14357151 -14800364 
2039.092 -15400589 -16087193 -16777334 -17388874 -17867294 -18195202 
2039.454 -18384316 -18459646 -18440528 -18331400 -18124054 -17813582 
2039.816 -17417016 -16980640 -16577030 -16284917 -16156856 -16204644 
2040.178 -16390126 -16644062 -16882426 -17039202 -17082496 -17013458 
2040.540 -16856674 -16644860 -16408090 -16167711 -15941411 -15747238 
2040.901 -15602174 -15518738 -15495558 -15515509 -15549269 -15571359 
2041.263 -15576697 -15590571 -15663797 -15852068 -16192609 -16676109 
2041.625 -17237512 -17762854 -18131744 -18247120 -18073744 -17644708 
2041.987 -17048504 -16394658 -15778584 -15273547 -14919541 -14730995 
2042.349 -14706812 -14834436 -15089828 -15434614 -15820662 -16193951 
2042.710 -16507911 -16738920 -16891478 -16996572 -17095462 -17225984 
2043.072 -17404378 -17621644 -17848310 -18051048 -18207150 -18312976 
2043.434 -18383458 -18442720 -18510482 -18590838 -18668576 -18714152 
2043.796 -18697078 -18595504 -18407152 -18149826 -17859884 -17579484 
2044.158 -17346374 -17186526 -17106356 -17092914 -17118332 -17151490 
2044.520 -17165664 -17147096 -17097086 -17026744 -16947788 -16862282 
2044.881 -16757952 -16611472 -16399316 -16110947 -15762320 -15398830 
2045.243 -15092836 -14919412 -14942783 -15194815 -15664278 -16295448 
2045.605 -16997240 -17667552 -18201494 -18519816 -18583410 -18399560 
2045.967 -18021838 -17539102 -17062012 -16687844 -16484242 -16470429 
2046.329 -16614661 -16843732 -17066536 -17206112 -17211366 -17070900 
2046.690 -16805322 -16455468 -16064906 -15671467 -15309981 -15013367 
2047.052 -14818969 -14767122 -14887076 -15185185 -15631484 -16164519 
2047.414 -16696325 -17139036 -17431244 -17546262 -17497382 -17323898 
2047.776 -17074532 -16786580 -16479362 -16156059 -15812932 -15449387 
2048.138 -15075010 -14706460 -14364043 -14064569 -13816854 -13624586 
2048.500 -13488993 -13413214 -13403608 -13467922 -13611003 -13832710 
2048.861 -14126539 -14479334 -14871611 -15279305 -15670573 -16008513 
2049.223 -16259225 -16397273 -16419640 -16350528 -16241670 -16155452 
2049.585 -16144374 -16234552 -16413609 -16637972 -16850554 -17010336 
2049.947 -17106738 -17164678 -17224582 -17320078 -17450342 -17574360 
2050.309 -17619480 -17516286 -17232512 -16794168 -16283162 -15812675 
2050.670 -15490954 -15374557 -15452936 -15647946 -15850309 -15947448 
2051.032 -15867146 -15597571 -15182816 -14702071 -14235672 -13844649 
2051.394 -13548926 -13330674 -13146226 -12950831 -12716317 -12445970 
2051.756 -12174489 -11963667 -11883526 -11988292 -12305500 -12822845 
2052.118 -13493105 -14241219 -14986959 -15662041 -16218498 -16637335 
2052.479 -16922708 -17094090 -17175824 -17192832 -17168850 -17124672 
2052.841 -17080362 -17051976 -17047326 -17063192 -17085330 -17094506 
2053.203 -17071506 -17006482 -16900434 -16762543 -16602000 -16423373 
2053.565 -16224466 -16002731 -15765451 -15537664 -15359526 -15278793 
2053.927 -15328565 -15509306 -15778968 -16062001 -16270395 -16328797 
2054.289 -16206080 -15921129 -15538624 -15138373 -14795496 -14554190 
2054.650 -14419657 -14365197 -14347342 -14326696 -14276009 -14188052 
2055.012 -14072556 -13951799 -13853860 -13810082 -13851967 -14002590 
2055.374 -14271039 -14643162 -15081058 -15523757 -15902987 -16165636 
2055.736 -16285269 -16274704 -16179681 -16068514 -16006181 -16039200 
2056.098 -16185682 -16433613 -16747082 -17076378 -17371366 -17582220 
2056.459 -17667648 -17600294 -17369646 -16990518 -16503636 -15977694 
2056.821 -15493128 -15126533 -14937244 -14947585 -15141188 -15465503 
2057.183 -15850278 -16216550 -16494513 -16636824 -16616894 -16432401 
2057.545 -16101114 -15659291 -15154883 -14641496 -14175641 -13803117 
2057.907 -13555831 -13445243 -13462043 -13577284 -13747585 -13928119 
2058.269 -14075122 -14158548 -14169131 -14121215 -14052315 -14014107 
2058.630 -14065724 -14252057 -14592608 -15072386 -15645357 -16242787 
2058.992 -16791904 -17239964 -17561188 -17761486 -17866754 -17909138 
2059.354 -17908342 -17864272 -17758178 -17565388 -17270406 -16879812 
2059.716 -16425733 -15961725 -15552050 -15250099 -15091428 -15083618 
2060.078 -15207709 -15421727 -15672427 -15907906 -16081957 -16166339 
2060.439 -16153760 -16059574 -15916562 -15769349 -15665652 -15641104 
2060.801 -15715027 -15883757 -16123686 -16395424 -16654586 -16863080 
2061.163 -16990644 -17019670 -16943262 -16762383 -16485741 -16130518 
2061.525 -15726147 -15311101 -14933147 -14641721 -14473789 -14448087 
2061.887 -14556562 -14768275 -15035099 -15308126 -15552370 -15750881 
2062.249 -15906723 -16033165 -16142873 -16237043 -16304512 -16325701 
2062.610 -16285906 -16184693 -16041659 -15889060 -15764365 -15692018 
2062.972 -15674377 -15690995 -15708731 -15697898 -15644526 -15558252 
2063.334 -15467581 -15408648 -15406889 -15469500 -15581396 -15713876 
2063.696 -15831940 -15905159 -15912920 -15841428 -15683709 -15439859 
2064.058 -15123621 -14767891 -14429113 -14183851 -14103414 -14233716 
2064.419 -14569635 -15050527 -15566148 -15990278 -16228424 -16242819 
2064.781 -16075347 -15829736 -15649095 -15661849 -15948534 -16524658 
2065.143 -17337334 -18278602 -19208326 -19998314 -20548518 -20808660 
2065.505 -20779948 -20500860 -20032106 -19438128 -18784252 -18124626 
2065.867 -17498910 -16936634 -16456073 -16074421 -15814912 -15705377 
2066.229 -15774431 -16034283 -16465804 -17008074 -17564814 -18032678 
2066.590 -18318058 -18371738 -18196918 -17845382 -17394222 -16922104 
2066.952 -16492823 -16142139 -15887015 -15737556 -15703332 -15793825 
2067.314 -16004041 -16304130 -16627034 -16882170 -16983094 -16872068 
2067.676 -16552726 -16092939 -15614033 -15244245 -15085379 -15180225 
2068.038 -15501217 -15962204 -16446950 -16852594 -17103966 -17175570 
2068.399 -17084854 -16880162 -16618712 -16349284 -16104370 -15893403 
2068.761 -15706718 -15521999 -15316666 -15075618 -14800748 -14511732 
2069.123 -14245195 -14042081 -13934600 -13937970 -14044968 -14232402 
2069.485 -14469239 -14731411 -15006869 -15294275 -15594470 -15899824 
2069.847 -16186768 -16420597 -16563186 -16589945 -16502297 -16331797 
2070.208 -16131859 -15959075 -15859606 -15850822 -15917584 -16016591 
2070.570 -16093004 -16094185 -15985519 -15762895 -15456006 -15126117 
2070.932 -14849294 -14707741 -14763920 -15042173 -15518002 -16118100 
2071.294 -16737167 -17253880 -17572516 -17641020 -17464824 -17099316 
2071.656 -16634559 -16169658 -15782323 -15524780 -15416322 -15451210 
2072.018 -15607448 -15857050 -16171765 -16522137 -16881724 -17227322 
2072.379 -17539644 -17806712 -18020756 -18174294 -18257094 -18254078 
2072.741 -18149858 -17939088 -17635260 -17276296 -16917068 -16620496 
2073.103 -16431890 -16364409 -16391912 -16459009 -16499298 -16459264 
2073.465 -16321616 -16110787 -15886759 -15719628 -15674887 -15788106 
2073.827 -16056221 -16437730 -16864832 -17260822 -17551514 -17688230 
2074.188 -17653142 -17464824 -17169294 -16831556 -16517926 -16273364 
2074.550 -16115481 -16029237 -15979579 -15925474 -15842738 -15733786 
2074.912 -15630014 -15577944 -15621704 -15788712 -16077040 -16456392 
2075.274 -16874106 -17271870 -17589666 -17776818 -17800224 -17646968 
2075.636 -17334340 -16911394 -16464654 -16097920 -15910206 -15971402 
2075.998 -16290374 -16808162 -17403422 -17936100 -18274092 -18336768 
2076.359 -18114456 -17662206 -17076220 -16456615 -15892733 -15441873 
2076.721 -15132708 -14976747 -14973515 -15112741 -15367649 -15692752 
2077.083 -16020104 -16270204 -16378002 -16305406 -16059222 -15684156 
2077.445 -15251858 -14831618 -14468790 -14179907 -13955393 -13776700 
2077.807 -13634476 -13539228 -13520374 -13614953 -13847955 -14220729 
2078.168 -14705178 -15252018 -15799735 -16293054 -16695814 -16991506 
2078.530 -17185186 -17296294 -17353094 -17383654 -17412622 -17457694 
2078.892 -17525388 -17611334 -17699684 -17767402 -17786708 -17731524 
2079.254 -17584448 -17338926 -17002944 -16598238 -16159186 -15725316 
2079.616 -15334833 -15017848 -14787651 -14639350 -14552012 -14498723 
2079.978 -14455169 -14410041 -14368307 -14347919 -14368115 -14437927 
2080.339 -14547782 -14670904 -14771221 -14816119 -14791333 -14706460 
2080.701 -14592191 -14487217 -14428471 -14438984 -14523366 -14670135 
2081.063 -14857203 -15058720 -15246612 -15395184 -15482769 -15493608 
2081.425 -15422431 -15276554 -15074017 -14835685 -14577772 -14305056 
2081.787 -14012342 -13693426 -13356572 -13034311 -12787231 -12685586 
2082.148 -12783274 -13093472 -13572242 -14124840 -14626727 -14974602 
2082.510 -15110085 -15042525 -14834980 -14580945 -14364652 -14230445 
2082.872 -14180644 -14184396 -14204439 -14215919 -14218773 -14229644 
2083.234 -14267127 -14335416 -14419401 -14492025 -14531856 -14532882 
2083.596 -14507951 -14475904 -14444433 -14396067 -14291431 -14084841 
2083.958 -13756220 -13334144 -12907283 -12597081 -12526233 -12773075 
2084.319 -13334434 -14119162 -14967880 -15712567 -16209209 -16390286 
2084.681 -16274545 -15955625 -15562057 -15213212 -14995506 -14935580 
2085.043 -15008950 -15153476 -15301249 -15393489 -15398382 -15315547 
2085.405 -15170210 -15003348 -14855602 -14761774 -14740699 -14794087 
2085.767 -14907631 -15055711 -15206653 -15326134 -15386133 -15368416 
2086.128 -15270188 -15106116 -14909424 -14725357 -14598054 -14562298 
2086.490 -14629290 -14783135 -14983758 -15182177 -15337680 -15431320 
2086.852 -15474200 -15502113 -15561162 -15684603 -15880849 -16125411 
2087.214 -16371876 -16563155 -16655065 -16630765 -16505040 -16319225 
2087.576 -16127102 -15984178 -15929082 -15978780 -16125027 -16337892 
2087.938 -16570777 -16767453 -16877230 -16858172 -16689438 -16374620 
2088.299 -15943296 -15444015 -14932794 -14468118 -14095555 -13844135 
2088.661 -13725819 -13734294 -13848116 -14032554 -14248434 -14454625 
2089.023 -14618686 -14727343 -14789508 -14834916 -14901772 -15024729 
2089.385 -15216315 -15460579 -15713334 -15920779 -16035879 -16035561 
2089.747 -15928732 -15750976 -15550451 -15368864 -15234903 -15160419 
2090.108 -15147364 -15196479 -15311036 -15494311 -15740400 -16027672 
2090.470 -16317947 -16564175 -16732002 -16812590 -16831080 -16833916 
2090.832 -16872546 -16978410 -17149898 -17354238 -17542636 -17674678 
2091.194 -17732034 -17726752 -17691634 -17663798 -17664434 -17692462 
2091.556 -17727262 -17743546 -17723540 -17667108 -17588586 -17509668 
2091.917 -17447796 -17410458 -17398870 -17413896 -17463454 -17563700 
2092.279 -17731428 -17973106 -18275806 -18607060 -18920550 -19170062 
2092.641 -19325888 -19377322 -19331688 -19203508 -19006188 -18746584 
2093.003 -18428270 -18061126 -17666470 -17278684 -16937972 -16674547 
2093.365 -16499840 -16400687 -16347401 -16302789 -16237201 -16136393 
2093.727 -16000880 -15841141 -15672140 -15514006 -15394129 -15351210 
2094.088 -15436373 -15695853 -16153855 -16788492 -17526214 -18242798 
2094.450 -18794312 -19067522 -19005268 -18635756 -18057438 -17417842 
2094.812 -16854984 -16458977 -16253192 -16194493 -16198356 -16170999 
2095.174 -16048398 -15806125 -15464128 -15069857 -14685864 -14370936 
2095.536 -14167688 -14103221 -14184973 -14401739 -14723436 -15106373 
2095.897 -15498052 -15845390 -16110756 -16276747 -16350081 -16355187 
2096.259 -16324649 -16286481 -16254149 -16226413 -16190408 -16130071 
2096.621 -16032431 -15894489 -15723400 -15536737 -15357926 -15213627 
2096.983 -15129637 -15123269 -15198719 -15341327 -15519185 -15685722 
2097.345 -15793249 -15809033 -15724359 -15560649 -15362916 -15188416 
2097.707 -15085475 -15082466 -15182465 -15367617 -15608951 -15877431 
2098.068 -16152164 -16417151 -16656308 -16848642 -16964168 -16971590 
2098.430 -16850776 -16603021 -16257437 -15867945 -15503296 -15223065 
2098.792 -15066561 -15041981 -15127621 -15282056 -15458308 -15621097 
2099.154 -15751807 -15852418 -15939048 -16034666 -16157687 -16313991 
2099.516 -16492823 -16668584 -16803220 -16855558 -16795092 -16609877 
2099.877 -16315585 -15952336 -15580725 -15264494 -15051167 -14962951 
2100.239 -14987503 -15083715 -15191807 -15256752 -15240373 -15132773 
2100.601 -14951747 -14736312 -14535381 -14392957 -14346220 -14418759 
2100.963 -14620224 -14946304 -15376252 -15874013 -16385691 -16851446 
2101.325 -17215442 -17439010 -17515490 -17471858 -17363056 -17248338 
2101.687 -17177672 -17170696 -17213340 -17265598 -17281806 -17232512 
2102.048 -17115848 -16960246 -16810010 -16708823 -16677991 -16710225 
2102.410 -16773446 -16828530 -16844372 -16811188 -16741375 -16660007 
2102.772 -16589116 -16534226 -16481914 -16407866 -16292417 -16135339 
2103.134 -15962172 -15819672 -15761042 -15821557 -16005639 -16279746 
2103.496 -16585607 -16852784 -17026298 -17085044 -17045032 -16953172 
2103.857 -16866778 -16837996 -16892878 -17027094 -17209298 -17396484 
2104.219 -17546422 -17631538 -17645378 -17599912 -17516318 -17412972 
2104.581 -17297916 -17164964 -16997878 -16777908 -16495343 -16155899 
2104.943 -15783409 -15412837 -15084931 -14837382 -14696178 -14676190 
2105.305 -14780893 -15003604 -15326518 -15718862 -16137542 -16524306 
2105.667 -16818806 -16972898 -16964008 -16809148 -16563633 -16311055 
2106.028 -16130008 -16076369 -16159346 -16341466 -16548196 -16696420 
2106.390 -16726103 -16613863 -16381543 -16080806 -15777530 -15523181 
2106.752 -15346412 -15250451 -15222617 -15244756 -15302688 -15388789 
2107.114 -15497348 -15618348 -15734999 -15823666 -15861139 -15832707 
2107.476 -15736150 -15582675 -15392242 -15189920 -14998066 -14836485 
2107.837 -14722027 -14667092 -14679553 -14759531 -14897577 -15073858 
2108.199 -15262990 -15442065 -15594662 -15716881 -15813921 -15894936 
2108.561 -15964728 -16020807 -16055230 -16061170 -16040063 -16004138 
2108.923 -15970796 -15953869 -15950482 -15938250 -15878486 -15734041 
2109.285 -15488076 -15157379 -14792711 -14465169 -14246542 -14180163 
2109.646 -14272129 -14490359 -14782654 -15092132 -15376411 -15614959 
2110.008 -15801653 -15936013 -16013557 -16024256 -15960129 -15825422 
2110.370 -15645804 -15464032 -15329588 -15281352 -15329332 -15449803 
2110.732 -15591721 -15698282 -15722504 -15646348 -15483089 -15270445 
2111.094 -15054175 -14871547 -14745343 -14679809 -14667092 -14695602 
2111.456 -14756009 -14842121 -14949026 -15069826 -15193216 -15305279 
2111.817 -15393905 -15451242 -15477429 -15479124 -15467325 -15453449 
2112.179 -15446253 -15451497 -15469884 -15497924 -15526731 -15544281 
2112.541 -15535522 -15487917 -15397327 -15272044 -15134565 -15015351 
2112.903 -14946144 -14945248 -15009046 -15108421 -15197279 -15224122 
2113.265 -15148772 -14957637 -14668694 -14328332 -13993638 -13723572 
2113.626 -13558818 -13513694 -13577573 -13721614 -13910341 -14109989 
2113.988 -14297939 -14463213 -14603853 -14722090 -14819770 -14896009 
2114.350 -14948385 -14976460 -14986863 -14994609 -15024506 -15104036 
2114.712 -15254097 -15482417 -15776476 -16105425 -16425287 -16696516 
2115.074 -16894854 -17021838 -17104062 -17186430 -17313996 -17511990 
2115.436 -17775036 -18062872 -18314436 -18461710 -18459296 -18299252 
2115.797 -18017070 -17679992 -17370316 -17162892 -17097596 -17172224 
2116.159 -17339626 -17526724 -17647638 -17631984 -17443212 -17083482 
2116.521 -16591603 -16028982 -15467932 -14968136 -14569122 -14285306 
2116.883 -14109027 -14017860 -13985681 -13992001 -14025239 -14082179 
2117.245 -14163165 -14264883 -14375167 -14473341 -14532818 -14532786 
2117.606 -14467476 -14355260 -14236955 -14171376 -14221434 -14431581 
2117.968 -14817080 -15353161 -15981974 -16618391 -17174264 -17580980 
2118.330 -17795804 -17812944 -17656672 -17372544 -17011228 -16622601 
2118.692 -16252076 -15937515 -15714260 -15614033 -15658237 -15853377 
2119.054 -16182939 -16607102 -17063446 -17483696 -17809066 -18000094 
2119.416 -18048474 -17973646 -17815012 -17615058 -17410712 -17223150 
2119.777 -17056756 -16903174 -16747974 -16578592 -16387191 -16173871 
2120.139 -15946586 -15720269 -15513143 -15345165 -15234007 -15188928 
2120.501 -15208157 -15275787 -15365570 -15443248 -15476726 -15444814 
2120.863 -15341966 -15180673 -14988143 -14801549 -14659083 -14592351 
2121.225 -14624485 -14764016 -15004949 -15325782 -15693616 -16065320 
2121.586 -16393827 -16640428 -16776634 -16792478 -16696261 -16511291 
2121.948 -16267363 -15993344 -15714483 -15448300 -15208828 -15008854 
2122.310 -14860757 -14775577 -14758378 -14803822 -14894024 -15002100 
2122.672 -15101925 -15174562 -15218714 -15249970 -15297187 -15388981 
2123.034 -15541565 -15749762 -15985327 -16201228 -16342806 -16366450 
2123.396 -16246075 -15982931 -15603964 -15160035 -14715685 -14336923 
2123.757 -14089429 -14022288 -14162172 -14507791 -15026522 -15656702 
2124.119 -16314596 -16916972 -17390562 -17690170 -17807380 -17767022 
2124.481 -17617412 -17409854 -17189360 -16979748 -16783552 -16589785 
2124.843 -16385755 -16166881 -15942913 -15733561 -15561193 -15439315 
2125.205 -15365122 -15318938 -15271852 -15198911 -15088163 -14949505 
2125.566 -14810772 -14713827 -14698580 -14793159 -15007894 -15333011 
2125.928 -15740177 -16186768 -16624324 -16998038 -17254484 -17352456 
2126.290 -17267094 -17003518 -16597917 -16118737 -15647018 -15256656 
2126.652 -14997810 -14879520 -14871899 -14918612 -14964904 -14973738 
2127.014 -14941950 -14894760 -14872860 -14907887 -15004820 -15138213 
2127.375 -15262543 -15333874 -15329013 -15259152 -15165923 -15105189 
2127.737 -15118117 -15215611 -15368512 -15521327 -15608663 -15583122 
2128.099 -15433207 -15186112 -14896072 -14621826 -14411131 -14282806 
2128.461 -14229195 -14224385 -14242566 -14268218 -14303133 -14361671 
2128.823 -14461483 -14611670 -14806257 -15022457 -15228056 -15392083 
2129.185 -15490570 -15514646 -15469788 -15373342 -15248307 -15120517 
2129.546 -15017208 -14963207 -14981837 -15089219 -15287846 -15560394 
2129.908 -15866954 -16152548 -16353687 -16420787 -16333297 -16108999 
2130.270 -15800502 -15480818 -15223161 -15071586 -15031579 -15067009 
2130.632 -15121508 -15135525 -15075266 -14944543 -14782654 -14647519 
2130.994 -14589660 -14636851 -14781854 -14990192 -15214108 -15415267 
2131.355 -15575035 -15697002 -15798042 -15896630 -16001455 -16108362 
2131.717 -16205633 -16282620 -16336840 -16374459 -16403973 -16426753 
2132.079 -16431093 -16394274 -16291205 -16107403 -15848905 -15545017 
2132.441 -15239445 -14973259 -14774648 -14649762 -14586136 -14562714 
2132.803 -14563771 -14586584 -14640695 -14738361 -14882466 -15057663 
2133.165 -15231703 -15362820 -15414979 -15373565 -15251218 -15085539 
2133.526 -14925879 -14822972 -14812052 -14905133 -15090628 -15337072 
2133.888 -15601247 -15834080 -15995387 -16059509 -16024543 -15914997 
2134.250 -15779447 -15679169 -15666226 -15769796 -15979227 -16245469 
2134.612 -16487783 -16623175 -16591603 -16373631 -15998548 -15535330 
2134.974 -15074338 -14694705 -14454304 -14376866 -14455458 -14661774 
2135.335 -14958181 -15308030 -15674185 -16022531 -16321937 -16543668 
2135.697 -16669286 -16694283 -16630447 -16500894 -16334191 -16154941 
2136.059 -15975682 -15797053 -15612339 -15415715 -15208765 -15004052 
2136.421 -14821435 -14683557 -14605871 -14592992 -14636499 -14719048 
2136.783 -14816632 -14903020 -14954051 -14946848 -14862838 -14693167 
2137.145 -14441901 -14131286 -13799458 -13498694 -13280416 -13183096 
2137.506 -13223981 -13394387 -13664177 -13990558 -14334295 -14664690 
2137.868 -14964456 -15227417 -15450698 -15628096 -15747430 -15791396 
2138.230 -15743883 -15597507 -15359365 -15051967 -14711617 -14383693 
2138.592 -14110277 -13925808 -13848147 -13873918 -13978077 -14117270 
2138.954 -14243144 -14310570 -14295823 -14205145 -14078169 -13976345 
2139.315 -13964216 -14091033 -14366864 -14756328 -15182465 -15554896 
2139.677 -15788808 -15836732 -15704002 -15449515 -15166915 -14951427 
2140.039 -14879648 -14979596 -15228056 -15556621 -15878167 -16108362 
2140.401 -16186129 -16091440 -15843825 -15495623 -15111716 -14759435 
2140.763 -14490166 -14330961 -14285916 -14339359 -14464720 -14630444 
2141.125 -14809619 -14982093 -15135525 -15265966 -15375068 -15469596 
2141.486 -15559371 -15655935 -15770435 -15908608 -16068194 -16235797 
2141.848 -16388882 -16498150 -16538756 -16498405 -16384989 -16226189 
2142.210 -16064299 -15944637 -15896598 -15925921 -16009215 -16103923 
2142.572 -16159890 -16141022 -16039200 -15879029 -15710138 -15589516 
2142.934 -15565605 -15657149 -15849128 -16094983 -16336232 -16514098 
2143.295 -16587904 -16544113 -16393414 -16163943 -15889060 -15603453 
2143.657 -15336209 -15111908 -14953732 -14881857 -14910672 -15042877 
2144.019 -15264366 -15540414 -15818266 -16041756 -16158581 -16136298 
2144.381 -15970986 -15687224 -15332019 -14960998 -14631629 -14386803 
2144.743 -14249204 -14219319 -14275399 -14377122 -14470745 -14504779 
2145.104 -14436516 -14248434 -13956452 -13614407 -13304517 -13114497 
2145.466 -13122856 -13366789 -13831811 -14447445 -15109029 -15699944 
2145.828 -16118674 -16311310 -16274609 -16054880 -15724167 -15365762 
2146.190 -15049279 -14817400 -14690156 -14666291 -14733365 -14873693 
2146.552 -15069409 -15301952 -15551379 -15798297 -16024383 -16215911 
2146.914 -16366005 -16474033 -16544113 -16581526 -16591731 -16579293 
2147.275 -16549695 -16511962 -16477766 -16460476 -16470173 -16509155 
2147.637 -16570108 -16636377 -16689310 -16712330 -16697856 -16648751 
2147.999 -16575944 -16492981 -16409207 -16327392 -16242437 -16145268 
2148.361 -16027033 -15884714 -15722761 -15554352 -15396847 -15270253 
2148.723 -15192224 -15172482 -15210780 -15293731 -15396975 -15486574 
2149.084 -15528552 -15498947 -15390547 -15218074 -15015895 -14832291 
2149.446 -14711425 -14686055 -14767090 -14942271 -15180673 -15442512 
2149.808 -15691666 -15901165 -16060213 -16172914 -16257150 -16337221 
2150.170 -16438175 -16580187 -16769398 -16993450 -17219008 -17399954 
2150.532 -17483952 -17429556 -17221748 -16876434 -16440282 -15974181 
2150.894 -15542875 -15192768 -14946177 -14804943 -14760012 -14803759 
2151.255 -14936028 -15162019 -15480626 -15870277 -16285811 -16657902 
2151.617 -16913784 -17003518 -16914390 -16680924 -16371876 -16073303 
2151.979 -15854303 -15749730 -15752478 -15823122 -15905958 -15951442 
2152.341 -15935311 -15861364 -15759317 -15670734 -15639571 -15697898 
2152.703 -15859064 -16114492 -16435592 -16778418 -17089536 -17323262 
2153.064 -17450374 -17469024 -17404378 -17302342 -17211398 -17161206 
2153.426 -17152574 -17154836 -17121392 -17008840 -16802422 -16526507 
2153.788 -16242979 -16025692 -15936429 -16000848 -16197940 -16465899 
2154.150 -16722884 -16898934 -16947438 -16857150 -16643520 -16335180 
2154.512 -15957413 -15525548 -15047806 -14533619 -14002685 -13490857 
2154.874 -13041481 -12697814 -12489210 -12421532 -12476912 -12620866 
2155.235 -12816250 -13030485 -13244904 -13453980 -13658494 -13860086 
2155.597 -14055972 -14239328 -14404432 -14551692 -14693648 -14852623 
2155.959 -15057311 -15332115 -15685467 -16102869 -16545007 -16957062 
2156.321 -17275722 -17451168 -17459190 -17308264 -17037068 -16704805 
2156.683 -16377077 -16103763 -15913846 -15809320 -15771234 -15769446 
2157.044 -15774686 -15769796 -15751423 -15729759 -15722953 -15752222 
2157.406 -15833857 -15975777 -16174957 -16416959 -16675599 -16915760 
2157.768 -17102756 -17205348 -17205730 -17103872 -16918056 -16679203 
2158.130 -16421936 -16178342 -15969900 -15807275 -15693551 -15627585 
2158.492 -15606266 -15623398 -15667282 -15716912 -15744425 -15724070 
2158.854 -15641777 -15507516 -15356614 -15247571 -15240950 -15379738 
2159.215 -15673386 -16090034 -16562644 -17003644 -17336188 -17506960 
2159.577 -17500820 -17339466 -17073798 -16767325 -16480062 -16265225 
2159.939 -16158484 -16176585 -16315650 -16548898 -16827890 -17082720 
2160.301 -17241046 -17238116 -17036526 -16640237 -16098719 -15498403 
2160.663 -14935836 -14503529 -14259400 -14214829 -14335192 -14553358 
2161.024 -14791205 -14977612 -15072130 -15068513 -14992112 -14884611 
2161.386 -14791333 -14746721 -14765841 -14848526 -14985743 -15168930 
2161.748 -15394704 -15664246 -15977278 -16322479 -16674165 -16993608 
2162.110 -17236046 -17367928 -17374740 -17266840 -17072238 -16827126 
2162.472 -16560603 -16286481 -16006341 -15718414 -15430105 -15167171 
2162.833 -14968713 -14876318 -14917588 -15090467 -15360005 -15664596 
2163.195 -15940709 -16135052 -16221274 -16201485 -16096229 -15929179 
2163.557 -15714515 -15455111 -15145988 -14784480 -14380231 -13954494 
2163.919 -13538039 -13160981 -12843144 -12593219 -12411807 -12298092 
2164.281 -12255123 -12290652 -12410423 -12611018 -12874346 -13168728 
2164.643 -13453852 -13694935 -13870709 -13977051 -14024886 -14033516 
2165.004 -14023827 -14013240 -14017219 -14050454 -14126186 -14252795 
2165.366 -14426420 -14624998 -14805264 -14913874 -14901067 -14735415 
2165.728 -14418343 -13985328 -13499047 -13027977 -12638086 -12378510 
2166.090 -12275803 -12338319 -12557200 -12907862 -13345037 -13804882 
2166.452 -14209570 -14474943 -14540092 -14383757 -14041728 -13598961 
2166.813 -13176957 -12899081 -12848323 -13054054 -13479711 -14042979 
2167.175 -14634385 -15157379 -15551602 -15799096 -15922343 -15966516 
2167.537 -15980696 -15995739 -16018858 -16031025 -15999602 -15889347 
2167.899 -15681151 -15383512 -15038877 -14716869 -14496383 -14450555 
2168.261 -14618495 -14993041 -15515349 -16091695 -16609399 -16963466 
2168.623 -17088484 -16962892 -16615521 -16109159 -15532070 -14975115 
2168.984 -14516091 -14216625 -14109123 -14195043 -14443535 -14799115 
2169.346 -15189280 -15537984 -15788265 -15908480 -15899377 -15787276 
2169.708 -15613553 -15418561 -15229912 -15063456 -14926231 -14824125 
2170.070 -14768370 -14772246 -14844523 -14980204 -15156835 -15335377 
2170.432 -15471131 -15530279 -15496326 -15374589 -15185056 -14953347 
2170.793 -14699830 -14437125 -14176186 -13932900 -13734038 -13617425 
2171.155 -13618324 -13758595 -14033869 -14413407 -14845291 -15273451 
2171.517 -15656862 -15973639 -16223924 -16419448 -16573999 -16694922 
2171.879 -16783934 -16844020 -16885486 -16928730 -16998674 -17111930 
2172.241 -17265630 -17432134 -17567140 -17620594 -17557306 -17370698 
2172.603 -17084790 -16745232 -16401995 -16095974 -15844272 -15641330 
2172.964 -15464480 -15287750 -15090084 -14862389 -14609204 -14346926 
2173.326 -14100559 -13897954 -13768611 -13736510 -13813484 -13995145 
2173.688 -14258919 -14567616 -14876446 -15149060 -15364642 -15523533 
2174.050 -15642799 -15747175 -15856156 -15974851 -16094601 -16198484 
2174.412 -16273012 -16315650 -16337892 -16360771 -16405730 -16484145 
2174.773 -16593134 -16716316 -16832258 -16921242 -16972198 -16984942 
2175.135 -16966876 -16928030 -16876594 -16818872 -16760089 -16707644 
2175.497 -16674260 -16676364 -16731013 -16851288 -17040476 -17288428 
2175.859 -17570766 -17854128 -18097930 -18263544 -18324442 -18269612 
2176.221 -18110038 -17875402 -17610094 -17357836 -17150982 -17002720 
2176.583 -16903716 -16830570 -16757794 -16673941 -16588064 -16528836 
2176.944 -16528899 -16610580 -16767167 -16960278 -17123366 -17186272 
2177.306 -17098072 -16844402 -16455689 -15999442 -15563590 -15224057 
2177.668 -15032475 -15001971 -15110789 -15310781 -15542875 -15753405 
2178.030 -15895352 -15936973 -15861906 -15667824 -15368320 -14992305 
2178.392 -14584950 -14196999 -13881107 -13679941 -13614953 -13683987 
2178.753 -13861402 -14107776 -14376417 -14627849 -14837446 -14997202 
2179.115 -15115589 -15210972 -15307326 -15425405 -15580182 -15777946 
2179.477 -16015761 -16281726 -16556554 -16817022 -17036620 -17190888 
2179.839 -17262700 -17244104 -17140788 -16970858 -16763564 -16549472 
2180.201 -16354963 -16195707 -16071931 -15971849 -15878359 -15779478 
2180.562 -15675079 -15579926 -15518482 -15517395 -15591529 -15737588 
2180.924 -15931478 -16138436 -16324107 -16468706 -16575944 -16672475 
2181.286 -16797802 -16985676 -17251968 -17582698 -17938484 -18259382 
2181.648 -18483842 -18566202 -18482666 -18238890 -17864748 -17409854 
2182.010 -16928636 -16477063 -16106222 -15852323 -15737556 -15763663 
2182.372 -15911898 -16143128 -16405825 -16649038 -16828720 -16921816 
2182.733 -16926724 -16861198 -16750334 -16617754 -16477479 -16330998 
2183.095 -16173871 -16004488 -15832547 -15683709 -15594631 -15599361 
2183.457 -15718574 -15944893 -16242724 -16549824 -16800000 -16938386 
2183.819 -16937176 -16803570 -16573649 -16298385 -16020743 -15765643 
2184.181 -15530790 -15294244 -15025466 -14703833 -14330704 -13934344 
2184.542 -13562383 -13268172 -13099001 -13078104 -13202414 -13442962 
2184.904 -13757921 -14099468 -14426324 -14712674 -14947233 -15134533 
2185.266 -15288902 -15430617 -15577337 -15737493 -15905382 -16060021 
2185.628 -16167775 -16189706 -16096100 -15874781 -15539135 -15123365 
2185.990 -14678400 -14254495 -13887750 -13596648 -13381343 -13233013 
2186.352 -13145166 -13121120 -13173742 -13317467 -13554997 -13867403 
2186.713 -14210820 -14530383 -14770965 -14899915 -14918036 -14859380 
2187.075 -14778395 -14726735 -14739065 -14817913 -14938397 -15058207 
2187.437 -15140165 -15163939 -15133221 -15069857 -15002452 -14952387 
2187.799 -14924087 -14905934 -14877503 -14821627 -14731186 -14613112 
2188.161 -14483212 -14359363 -14252057 -14162878 -14086735 -14020363 
2188.522 -13970537 -13957575 -14010738 -14161498 -14427254 -14800941 
2188.884 -15244468 -15694894 -16079562 -16329307 -16402442 -16294044 
2189.246 -16039521 -15701445 -15358374 -15084387 -14927928 -14908719 
2189.608 -15014199 -15210716 -15451210 -15690099 -15891934 -16029941 
2189.970 -16089108 -16062159 -15948534 -15756313 -15503359 -15220858 
2190.332 -14946944 -14724589 -14589787 -14560374 -14631085 -14772566 
2190.693 -14941246 -15086915 -15171074 -15175266 -15104677 -14983758 
2191.055 -14847821 -14733109 -14663792 -14650018 -14684838 -14750116 
2191.417 -14820378 -14872092 -14892967 -14886116 -14873564 -14890854 
2191.779 -14980941 -15176162 -15485262 -15882798 -16312746 -16697982 
2192.141 -16963880 -17068320 -17014764 -16858298 -16682040 -16576231 
2192.502 -16596833 -16742045 -16946258 -17100972 -17090874 -16828912 
2192.864 -16296055 -15548822 -14710592 -13924525 -13328232 -13010548 
2193.226 -12992091 -13228995 -13629820 -14088050 -14496608 -14777946 
2193.588 -14891271 -14832867 -14633007 -14349137 -14058859 -13840380 
2193.950 -13765561 -13882647 -14202547 -14695505 -15294404 -15914198 
2194.312 -16462613 -16868370 -17094188 -17138560 -17030822 -16816766 
2194.673 -16546186 -16256990 -15974883 -15714707 -15484720 -15292580 
2195.035 -15146340 -15051775 -15009269 -15011062 -15043774 -15091459 
2195.397 -15144772 -15203230 -15276554 -15377243 -15512663 -15675878 
2195.759 -15844623 -15983922 -16057465 -16042842 -15938345 -15766313 
2196.121 -15563303 -15371007 -15218074 -15113189 -15045309 -14993649 
2196.482 -14940542 -14883970 -14840488 -14841288 -14917492 -15082818 
2196.844 -15324119 -15598818 -15848616 -16010683 -16042203 -15931861 
2197.206 -15704354 -15411845 -15120869 -14898602 -14792358 -14824573 
2197.568 -14987407 -15247059 -15546072 -15814720 -15988201 -16013717 
2197.930 -15870020 -15574396 -15184416 -14783680 -14459208 -14280497 
2198.292 -14271552 -14404369 -14603853 -14778939 -14843722 -14751429 
2198.653 -14507824 -14168457 -13818524 -13539838 -13395994 -13411351 
2199.015 -13575004 -13851678 -14199437 -14580432 -14963847 -15326070 
2199.377 -15642703 -15886473 -16033676 -16070781 -16005127 -15866186 
2199.739 -15702499 -15563207 -15481490 -15464256 -15490570 -15524045 
2200.101 -15529991 -15494918 -15432215 -15376348 -15362372 -15409479 
2200.462 -15505118 -15609589 -15668880 -15641872 -15520847 -15339888 
2200.824 -15162723 -15057984 -15074082 -15214075 -15432503 -15647497 
2201.186 -15776124 -15756153 -15572893 -15260560 -14894056 -14562810 
2201.548 -14341284 -14278894 -14387092 -14646526 -15016215 -15448555 
2201.910 -15895830 -16311565 -16656308 -16893962 -16996636 -16950942 
2202.271 -16761746 -16455723 -16075443 -15677765 -15319769 -15049310 
2202.633 -14902316 -14895624 -15027514 -15277834 -15612339 -15984369 
2202.995 -16341370 -16638419 -16843574 -16947850 -16965918 -16931568 
2203.357 -16884212 -16854824 -16858714 -16891318 -16935934 -16972834 
2203.719 -16990900 -16990358 -16979270 -16964134 -16942466 -16899732 
2204.081 -16818074 -16686058 -16512504 -16327361 -16177703 -16107021 
2204.442 -16137095 -16257405 -16427903 -16594347 -16709525 -16755594 
2204.804 -16746508 -16718643 -16705507 -16718451 -16732544 -16696611 
2205.166 -16549982 -16256990 -15826892 -15322136 -14837126 -14471098 
2205.528 -14298132 -14338879 -14559446 -14881793 -15218203 -15489963 
2205.890 -15654465 -15711928 -15697962 -15665524 -15662583 -15719054 
2206.251 -15834145 -15977791 -16097186 -16136393 -16050026 -15820280 
2206.613 -15465439 -15039965 -14623043 -14292232 -14110952 -14106332 
2206.975 -14266838 -14548680 -14895529 -15257552 -15602206 -15919533 
2207.337 -16213518 -16489793 -16743958 -16958748 -17109192 -17175028 
2207.699 -17149358 -17043822 -16882744 -16695688 -16505264 -16323820 
2208.061 -16157495 -16013399 -15907427 -15867433 -15923206 -16095750 
2208.422 -16383043 -16755752 -17158466 -17525388 -17802610 -17957274 
2208.784 -17988204 -17918866 -17788680 -17635546 -17486688 -17356466 
2209.146 -17247066 -17156110 -17081126 -17021616 -16977964 -16945748 
2209.508 -16914296 -16863144 -16766082 -16598333 -16341530 -15993502 
2209.870 -15572798 -15122373 -14703064 -14386354 -14242277 -14317079 
2210.231 -14623332 -15129637 -15769701 -16448705 -17069308 -17556956 
2210.593 -17866052 -17990304 -17951964 -17789666 -17540726 -17232958 
2210.955 -16884656 -16507624 -16115833 -15730303 -15375196 -15075810 
2211.317 -14849646 -14702263 -14629995 -14623588 -14675452 -14782431 
2211.679 -14944736 -15160963 -15421472 -15706718 -15988456 -16235063 
2212.041 -16422192 -16536044 -16574636 -16543444 -16450107 -16299725 
2212.402 -16095335 -15843825 -15561992 -15279785 -15041117 -14891366 
2212.764 -14866200 -14979340 -15215355 -15531270 -15866699 -16166115 
2213.126 -16389584 -16526602 -16595494 -16634306 -16682582 -16764073 
2213.488 -16876880 -16992940 -17069148 -17063254 -16955658 -16758112 
2213.850 -16513716 -16278375 -16104912 -16019754 -16014900 -16052069 
2214.211 -16082723 -16072696 -16016304 -15941666 -15895544 -15921449 
2214.573 -16031377 -16195195 -16342424 -16391912 -16274864 -15966324 
2214.935 -15494727 -14938173 -14400009 -13974516 -13733845 -13707809 
2215.297 -13885600 -14223038 -14656425 -15110437 -15503999 -15767112 
2215.659 -15847083 -15723655 -15420288 -15007317 -14589211 -14272450 
2216.021 -14146232 -14246478 -14549256 -14974699 -15420576 -15792068 
2216.382 -16028471 -16120430 -16101817 -16029973 -15956488 -15912697 
2216.744 -15901038 -15902443 -15888900 -15840886 -15757112 -15658014 
2217.106 -15580981 -15571103 -15672587 -15913399 -16296150 -16788078 
2217.468 -17325076 -17813074 -18148332 -18248518 -18069326 -17625398 
2217.830 -16985484 -16261524 -15570751 -15004148 -14611382 -14390618 
2218.191 -14304800 -14302491 -14344489 -14412253 -14506349 -14632910 
2218.553 -14787298 -14944287 -15061856 -15091267 -14997746 -14775128 
2218.915 -14451420 -14081473 -13733203 -13474989 -13355480 -13399496 
2219.277 -13605512 -13949296 -14387059 -14862902 -15320216 -15703874 
2219.639 -15973192 -16109064 -16115736 -16018700 -15855996 -15670476 
2220.000 -15495814 -15354056 -15253905 -15192831 -15161123 -15145413 
2220.362 -15131973 -15106181 -15056128 -14974891 -14864247 -14736407 
2220.724 -14612087 -14518495 -14479943 -14513399 -14624678 -14808626 
2221.086 -15050527 -15328181 -15615695 -15880307 -16085468 -16198292 
2221.448 -16194750 -16073335 -15861364 -15617229 -15413636 -15317786 
2221.810 -15371007 -15569856 -15866028 -16178884 -16427966 -16550524 
2222.171 -16522264 -16357517 -16097730 -15790310 -15471131 -15162883 
2222.533 -14877214 -14627593 -14440427 -14352888 -14404689 -14621794 
2222.895 -14999859 -15497765 -16043257 -16555659 -16957538 -17197322 
2223.257 -17256522 -17145406 -16894760 -16544305 -16140128 -15726851 
2223.619 -15348651 -15049727 -14864664 -14816664 -14909808 -15129029 
2223.980 -15440722 -15801843 -16170679 -16507784 -16783200 -16975988 
2224.342 -17072494 -17069562 -16976722 -16819764 -16636346 -16471226 
2224.704 -16364314 -16334925 -16377524 -16461082 -16543189 -16581876 
2225.066 -16554128 -16462421 -16332403 -16199505 -16093930 -16030867 
2225.428 -16004967 -15996665 -15982037 -15944734 -15880531 -15796509 
2225.790 -15704034 -15613457 -15529192 -15450667 -15376667 -15309693 
2226.151 -15256464 -15224953 -15217722 -15227417 -15234998 -15218555 
2226.513 -15161219 -15063681 -14947489 -14854705 -14834116 -14922165 
2226.875 -15131013 -15438803 -15795646 -16133009 -16388787 -16523061 
2227.237 -16528357 -16428828 -16270906 -16108362 -15982069 -15915891 
2227.599 -15912952 -15963513 -16053634 -16174639 -16326308 -16514609 
2227.960 -16744500 -17013714 -17307692 -17601694 -17864398 -18064144 
2228.322 -18178108 -18193456 -18108958 -17932190 -17677892 -17365826 
2228.684 -17018494 -16663132 -16328095 -16040349 -15823346 -15691059 
2229.046 -15647370 -15684027 -15783409 -15918957 -16057530 -16165892 
2229.408 -16211858 -16172851 -16041690 -15832100 -15578040 -15326230 
2229.770 -15128389 -15022457 -15022073 -15112229 -15256721 -15410119 
2230.131 -15534787 -15615599 -15661400 -15698282 -15754204 -15847178 
2230.493 -15975427 -16121227 -16257182 -16360803 -16420597 -16437441 
2230.855 -16419001 -16373120 -16303875 -16213359 -16108649 -16008960 
2231.217 -15942944 -15944893 -16037062 -16216710 -16447363 -16667021 
2231.579 -16806662 -16808002 -16648304 -16346093 -15957318 -15552658 
2231.940 -15203454 -14963239 -14857651 -14889061 -15040221 -15282888 
2232.302 -15577688 -15877528 -16131062 -16283641 -16292959 -16140001 
2232.664 -15838554 -15435478 -15004052 -14630636 -14387412 -14326793 
2233.026 -14468341 -14800108 -15282504 -15857562 -16459167 -17012822 
2233.388 -17449036 -17711102 -17760150 -17587630 -17215826 -16696388 
2233.750 -16093386 -15475798 -14903565 -14419144 -14054271 -13832998 
2234.111 -13775769 -13901292 -14217972 -14714467 -15349482 -16054815 
2234.473 -16740896 -17309602 -17682630 -17809256 -17678146 -17315938 
2234.835 -16782116 -16158452 -15531078 -14989296 -14606320 -14426356 
2235.197 -14458759 -14671032 -14995217 -15337712 -15613042 -15759956 
2235.559 -15761618 -15646219 -15474839 -15315995 -15216667 -15191072 
2235.920 -15215707 -15245972 -15232568 -15145924 -14984942 -14776441 
2236.282 -14560695 -14377988 -14256097 -14202707 -14209249 -14257059 
2236.644 -14327178 -14404881 -14482987 -14561496 -14645148 -14739995 
2237.006 -14849486 -14970410 -15090371 -15186433 -15228248 -15188864 
2237.368 -15053759 -14833219 -14564027 -14307396 -14132730 -14092059 
2237.729 -14207871 -14459112 -14788451 -15114341 -15363043 -15489611 
2238.091 -15492457 -15412166 -15318394 -15286054 -15364770 -15565860 
2238.453 -15854048 -16163178 -16410962 -16530590 -16493971 -16321585 
2238.815 -16078986 -15857019 -15751168 -15824176 -16091790 -16514705 
2239.177 -17016198 -17499832 -17880522 -18111722 -18189070 -18146870 
2239.539 -18035760 -17906658 -17790460 -17694942 -17612034 -17530828 
2239.900 -17448750 -17376968 -17333734 -17335488 -17383496 -17459698 
2240.262 -17528316 -17546868 -17483314 -17322848 -17075328 -16770067 
2240.624 -16449565 -16155483 -15920011 -15761171 -15679169 -15657693 
2240.986 -15667440 -15675526 -15651366 -15578424 -15462593 -15335377 
2241.348 -15248403 -15256304 -15404426 -15705695 -16133551 -16621135 
2241.709 -17082400 -17431626 -17606022 -17585944 -17395272 -17093964 
2242.071 -16754000 -16448768 -16232701 -16134158 -16159793 -16298288 
2242.433 -16529314 -16824736 -17154072 -17482360 -17769310 -17977620 
2242.795 -18074346 -18038812 -17869042 -17582158 -17212960 -16804654 
2243.157 -16405538 -16056636 -15785486 -15605371 -15513399 -15494631 
2243.519 -15525388 -15580725 -15637077 -15674887 -15682749 -15657309 
2243.880 -15604795 -15540414 -15488812 -15480467 -15543611 -15699560 
2244.242 -15951600 -16281342 -16647348 -16996446 -17273908 -17437006 
2244.604 -17469438 -17382700 -17213946 -17010176 -16819126 -16673623 
2244.966 -16584555 -16543189 -16527209 -16511101 -16472533 -16399698 
2245.328 -16292002 -16159890 -16020201 -15893850 -15801046 -15754428 
2245.689 -15755929 -15793057 -15841749 -15869381 -15846988 -15759604 
2246.051 -15612115 -15429721 -15249970 -15112229 -15041052 -15041021 
2246.413 -15095715 -15178978 -15264302 -15335537 -15391059 -15438356 
2246.775 -15485679 -15534467 -15576346 -15596932 -15583985 -15534435 
2247.137 -15457061 -15368704 -15286183 -15215963 -15151268 -15074978 
2247.499 -14969962 -14830434 -14670296 -14520641 -14425907 -14425907 
2247.860 -14543424 -14776537 -15097284 -15457861 -15798712 -16065609 
2248.222 -16212847 -16211698 -16053794 -15750689 -15334034 -14849678 
2248.584 -14356798 -13916310 -13578537 -13377552 -13319717 -13384042 
2248.946 -13525289 -13691114 -13832998 -13920546 -13948848 -13937713 
2249.308 -13923915 -13946344 -14037269 -14211302 -14463117 -14769171 
2249.669 -15095267 -15405546 -15666833 -15856571 -15963130 -15984433 
2250.031 -15925888 -15798712 -15618252 -15402348 -15172962 -14953251 
2250.393 -14763215 -14618943 -14527018 -14485615 -14485359 -14514681 
2250.755 -14562874 -14622242 -14688842 -14758763 -14825086 -14876895 
2251.117 -14900555 -14884803 -14827616 -14740091 -14646269 -14575434 
2251.479 -14557651 -14611510 -14742365 -14942527 -15197311 -15490282 
2251.840 -15805934 -16128859 -16435497 -16688544 -16839972 -16833948 
2252.202 -16628055 -16212368 -15623334 -14942527 -14278798 -13749543 
2252.564 -13441259 -13394870 -13594947 -13979874 -14454849 -14917139 
2252.926 -15285798 -15508858 -15575130 -15508794 -15362147 -15198815 
2253.288 -15077666 -15044382 -15117733 -15289254 -15525004 -15781172 
2253.649 -16015857 -16205825 -16356528 -16501181 -16689310 -16963688 
2254.011 -17344434 -17811802 -18307924 -18744206 -19030260 -19100056 
2254.373 -18928764 -18540200 -17998632 -17393236 -16808798 -16317947 
2254.735 -15965493 -15764236 -15699305 -15734360 -15824113 -15918287 
2255.097 -15976001 -15970284 -15890561 -15742222 -15541884 -15311101 
2255.458 -15068578 -14828769 -14603917 -14407573 -14262927 -14204567 
2255.820 -14272129 -14503881 -14917332 -15497252 -16184533 -16887494 
2256.182 -17498560 -17919724 -18096596 -18028578 -17770646 -17408706 
2256.544 -17042324 -16754160 -16588414 -16550237 -16608251 -16712267 
2256.906 -16805260 -16844180 -16806312 -16689118 -16506763 -16282875 
2257.268 -16044948 -15817979 -15625572 -15488076 -15421215 -15436821 
2257.629 -15540861 -15733881 -16011035 -16362941 -16776284 -17229072 
2257.991 -17690138 -18115538 -18448308 -18631914 -18619408 -18390796 
2258.353 -17964364 -17401482 -16797100 -16253959 -15868679 -15698440 
2258.715 -15746536 -15959714 -16246522 -16502647 -16638674 -16612174 
2259.077 -16433964 -16164582 -15886473 -15685754 -15623878 -15723847 
2259.438 -15973894 -16338179 -16775295 -17247416 -17729838 -18205910 
2259.800 -18656768 -19054932 -19359988 -19523758 -19508966 -19300914 
2260.162 -18919154 -18412264 -17849964 -17300210 -16811348 -16407132 
2260.524 -16085915 -15832003 -15630174 -15477781 -15387253 -15379002 
2260.886 -15464991 -15635416 -15851269 -16056476 -16190950 -16218785 
2261.248 -16144885 -16018763 -15917297 -15915221 -16060371 -16349155 
2261.609 -16726710 -17097978 -17365826 -17454766 -17336570 -17033436 
2261.971 -16604997 -16122634 -15641777 -15197727 -14804111 -14464624 
2262.333 -14185070 -13977757 -13857872 -13836080 -13909668 -14060816 
2262.695 -14260426 -14481032 -14702584 -14917363 -15126308 -15331316 
2263.057 -15529000 -15710169 -15865101 -15992863 -16108170 -16241288 
2263.418 -16426532 -16687715 -17022826 -17399220 -17757192 -18029340 
2263.780 -18169464 -18166286 -18051048 -17881156 -17723190 -17624952 
2264.142 -17600898 -17629440 -17662494 -17642196 -17518800 -17269610 
2264.504 -16904320 -16463762 -16004233 -15588621 -15268653 -15073058 
2264.866 -15007701 -15057855 -15200222 -15413540 -15690196 -16038561 
2265.228 -16476553 -17017982 -17657276 -18355476 -19044436 -19633444 
2265.589 -20035112 -20195468 -20103324 -19792492 -19322434 -18763056 
2265.951 -18172642 -17592118 -17052486 -16578782 -16199952 -15948597 
2266.313 -15850117 -15911100 -16107371 -16385086 -16666129 -16870602 
2266.675 -16945302 -16875892 -16697282 -16480254 -16317436 -16289448 
2267.037 -16445769 -16790436 -17279926 -17827034 -18316660 -18641246 
2267.398 -18716438 -18509562 -18046188 -17404822 -16693391 -16017998 
2267.760 -15469404 -15097636 -14911825 -14887268 -14983054 -15156772 
2268.122 -15375708 -15620202 -15873022 -16108809 -16292002 -16379917 
2268.484 -16343955 -16189577 -15970699 -15780564 -15724774 -15892636 
2268.846 -16314788 -16948490 -17677160 -18353792 -18836480 -19041106 
2269.208 -18967876 -18692126 -18325046 -17961438 -17655686 -17408198 
2269.569 -17185538 -16947438 -16678086 -16396860 -16154144 -16004777 
2269.931 -15983123 -16081957 -16253544 -16421521 -16511867 -16484592 
2270.293 -16347943 -16161645 -16014101 -16003722 -16199505 -16623143 
2270.655 -17236844 -17953870 -18653056 -19205696 -19519546 -19554168 
2271.017 -19333208 -18925752 -18426080 -17919408 -17459444 -17067428 
2271.378 -16733883 -16433900 -16141022 -15840471 -15530982 -15221658 
2271.740 -14922934 -14642970 -14387636 -14167335 -14006824 -13950676 
2272.102 -14053854 -14373371 -14941790 -15749412 -16728973 -17764096 
2272.464 -18706154 -19398584 -19728348 -19646206 -19182744 -18428270 
2272.826 -17511100 -16559264 -15668847 -14905966 -14301786 -13862236 
2273.188 -13579693 -13438818 -13421246 -13504861 -13665878 -13877577 
2273.549 -14111208 -14341475 -14548743 -14724300 -14873789 -15018360 
2273.911 -15191424 -15429018 -15762767 -16204294 -16736338 -17304984 
2274.273 -17830690 -18220908 -18392954 -18302332 -17952854 -17397470 
2274.635 -16718484 -16015058 -15378842 -14875038 -14543520 -14393374 
2274.997 -14410683 -14566654 -14828576 -15165123 -15547318 -15952047 
2275.358 -16358506 -16749218 -17113108 -17446554 -17755952 -18055056 
2275.720 -18360336 -18681906 -19014846 -19331530 -19584290 -19714732 
2276.082 -19667424 -19412684 -18957598 -18350616 -17666916 -16998612 
2276.444 -16432209 -16026044 -15805902 -15759125 -15844783 -16003691 
2276.806 -16178947 -16327105 -16420979 -16451543 -16422544 -16346954 
2277.167 -16243873 -16140798 -16075028 -16088119 -16222998 -16509570 
2277.529 -16951134 -17514376 -18129710 -18707552 -19151294 -19389774 
2277.891 -19389902 -19160646 -18744650 -18205116 -17612448 -17025216 
2278.253 -16490271 -16035721 -15670286 -15387509 -15169730 -14995858 
2278.615 -14848397 -14722795 -14632142 -14606063 -14679553 -14878399 
2278.977 -15202974 -15619946 -16060021 -16433358 -16660804 -16692849 
2279.338 -16534226 -16240841 -15908768 -15636662 -15496805 -15520560 
2279.700 -15692752 -15965909 -16276045 -16566887 -16795666 -16937336 
2280.062 -16982042 -16929814 -16790278 -16585130 -16356176 -16164135 
2280.424 -16078381 -16167520 -16471131 -16984942 -17651454 -18373548 
2280.786 -19028706 -19498162 -19702794 -19612352 -19254162 -18695904 
2281.147 -18031756 -17354652 -16735988 -16223637 -15833793 -15557325 
2281.509 -15365314 -15221402 -15089924 -14944832 -14779195 -14606223 
2281.871 -14457124 -14369429 -14379046 -14506285 -14749411 -15083363 
2282.233 -15465855 -15847370 -16176904 -16415365 -16538819 -16541658 
2282.595 -16437028 -16254693 -16037220 -15827371 -15663894 -15569089 
2282.957 -15543515 -15567107 -15608215 -15638260 -15644398 -15638325 
2283.318 -15653858 -15734712 -15911898 -16188428 -16528454 -16868880 
2283.680 -17132540 -17255598 -17211716 -17016580 -16723426 -16399411 
2284.042 -16107723 -15883021 -15725125 -15605754 -15485615 -15331124 
2284.404 -15128389 -14886948 -14636691 -14417798 -14266935 -14212168 
2284.766 -14265364 -14419753 -14650018 -14916531 -15172322 -15368864 
2285.127 -15473049 -15475990 -15399950 -15291557 -15210268 -15207165 
2285.489 -15303232 -15483377 -15700327 -15897844 -16029941 -16087320 
2285.851 -16102327 -16143544 -16285716 -16581718 -17037642 -17604972 
2286.213 -18187258 -18664544 -18936980 -18942182 -18675654 -18182176 
2286.575 -17541968 -16843860 -16164167 -15567459 -15100228 -14797994 
2286.937 -14690572 -14796457 -15118533 -15634809 -16299088 -17040030 
2287.298 -17773764 -18426554 -18942500 -19300470 -19512640 -19616564 
2287.660 -19656182 -19663782 -19650894 -19606082 -19502628 -19312704 
2288.022 -19023410 -18644420 -18211280 -17773446 -17387666 -17102500 
2288.384 -16945460 -16920000 -17003358 -17154072 -17317974 -17444802 
2288.746 -17498082 -17462278 -17346566 -17182640 -17019034 -16906424 
2289.107 -16892434 -17009222 -17265534 -17643756 -18101584 -18583822 
2289.469 -19027976 -19385052 -19628156 -19757730 -19798538 -19791352 
2289.831 -19780430 -19796100 -19847256 -19916382 -19969740 -19965942 
2290.193 -19875300 -19691680 -19437586 -19158046 -18906370 -18729830 
2290.555 -18648644 -18648388 -18679590 -18676670 -18576234 -18343310 
2290.917 -17986808 -17560074 -17144132 -16816322 -16635453 -16618488 
2291.278 -16740864 -16943708 -17157446 -17324504 -17417268 -17451168 
2291.640 -17480164 -17583304 -17833266 -18279332 -18924706 -19724232 
2292.002 -20584860 -21389226 -22025744 -22405068 -22488228 -22290132 
2292.364 -21870914 -21309480 -20684580 -20061500 -19482638 -18976788 
2292.726 -18563916 -18256936 -18063444 -17981658 -17999396 -18094496 
2293.087 -18243148 -18427032 -18639312 -18886194 -19182554 -19542290 
2293.449 -19967082 -20437802 -20910600 -21328754 -21630200 -21770554 
2293.811 -21739386 -21565034 -21306356 -21032404 -20808280 -20673238 
2294.173 -20635324 -20671784 -20739770 -20790686 -20790056 -20734336 
2294.535 -20655862 -20614470 -20672826 -20881044 -21252438 -21756184 
2294.896 -22314870 -22823422 -23176512 -23290868 -23136208 -22735984 
2295.258 -22155392 -21471920 -20760238 -20081430 -19479282 -18992392 
2295.620 -18654546 -18489716 -18506322 -18687334 -18990712 -19356342 
2295.982 -19730500 -20085132 -20433344 -20824956 -21330174 -22005018 
2296.344 -22857874 -23827010 -24780968 -25556674 -25991510 -25989390 
2296.706 -25548988 -24757684 -23748526 -22653090 -21576228 -20578320 
2297.067 -19691584 -18935838 -18328286 -17888598 -17633352 -17568348 
2297.429 -17684666 -17958512 -18357764 -18841906 -19368766 -19895684 
2297.791 -20376504 -20768924 -21037992 -21164022 -21151020 -21028964 
2298.153 -20850506 -20673364 -20554176 -20534330 -20638768 -20887012 
2298.515 -21301594 -21911116 -22744632 -23807782 -25053254 -26348616 
2298.876 -27490302 -28228372 -28347862 -27762576 -26546898 -24915864 
2299.238 -23129988 -21439278 -20011858 -18920486 -18168638 -17711072 
2299.600 -17487324 -17440602 -17534138 -17743006 -18048920 -18433288 
2299.962 -18870522 -19327822 -19770994 -20159218 -20446968 -20586472 
2300.324 -20531612 -20260048 -19794042 -19219898 -18674480 -18325046 
2300.686 -18336768 -18821154 -19815348 -21245876 -22931774 -24571826 
2301.047 -25820918 -26414502 -26259110 -25484032 -24360610 -23199788 
2301.409 -22225314 -21543594 -21152060 -20972138 -20893328 -20819808 
2301.771 -20709790 -20581290 -20497794 -20527280 -20711022 -21032372 
2302.133 -21415876 -21735634 -21860990 -21698414 -21224640 -20499438 
2302.495 -19650260 -18843268 -18233170 -17958990 -18127360 -18806336 
2302.856 -20032232 -21797498 -24039144 -26586512 -29146634 -31310960 
2303.218 -32614838 -32744742 -31688240 -29767466 -27459980 -25226180 
2303.580 -23372102 -22010058 -21124446 -20618766 -20382258 -20325790 
2303.942 -20411942 -20644676 -21035624 -21562070 -22137286 -22608366 
2304.304 -22815560 -22646548 -22091784 -21244550 -20268586 -19341290 
2304.666 -18602170 -18155864 -18067196 -18382728 -19156904 -20456450 
2305.027 -22350560 -24865804 -27931506 -31283922 -34394480 -36585176 
2305.389 -37241092 -36174904 -33735288 -30615482 -27495404 -24817238 
2305.751 -22811382 -21520798 -20888148 -20808564 -21159162 -21806006 
2306.113 -22600030 -23395086 -24042812 -24420972 -24466044 -24186370 
2306.475 -23662344 -23012950 -22370670 -21840384 -21485416 -21337968 
2306.836 -21408842 -21709066 -22265642 -23125748 -24354408 -26020098 
2307.198 -28175308 -30818370 -33841716 -36991708 -39795948 -41650992 
2307.560 -42053268 -40853168 -38374524 -35219524 -32009206 -29162126 
2307.922 -26906694 -25318088 -24352278 -23886694 -23737986 -23714268 
2308.284 -23640912 -23417690 -23032588 -22541680 -22036484 -21611128 
2308.646 -21352100 -21319764 -21550216 -22050466 -22795126 -23721612 
2309.007 -24737650 -25756818 -26730976 -27699878 -28797932 -30243854 
2309.369 -32263834 -34990256 -38305636 -41715680 -44351516 -45287336 
2309.731 -44162544 -41402024 -37908468 -34491260 -31674874 -29647810 
2310.093 -28347708 -27564444 -27021410 -26476108 -25773646 -24893870 
2310.455 -23916266 -22966878 -22153280 -21545138 -21173206 -21042508 
2310.816 -21152060 -21500932 -22082336 -22865042 -23787018 -24773864 
2311.178 -25772460 -26800636 -27962450 -29441464 -31446282 -34149796 
2311.540 -37571928 -41459280 -45134044 -47615496 -48157148 -46726220 
2311.902 -43986848 -40744580 -37583084 -34735508 -32202308 -29892320 
2312.264 -27719214 -25659442 -23770486 -22157752 -20948490 -20254292 
2312.625 -20137772 -20610836 -21617780 -23042172 -24686348 -26298126 
2312.987 -27620258 -28436320 -28670904 -28427194 -27984198 -27696426 
2313.349 -27938278 -29059408 -31357822 -35087908 -40374760 -47067396 
2313.711 -54296768 -60292436 -63032776 -61617760 -56988984 -50898096 
2314.073 -44758500 -39247296 -34582144 -30789326 -27818490 -25627084 
2314.435 -24178188 -23426418 -23318692 -23780336 -24712830 -25957740 
2314.796 -27296000 -28462976 -29177306 -29253236 -28670160 -27602442 
2315.158 -26351796 -25277074 -24712048 -24894590 -25997660 -28141676 
2315.520 -31453710 -36044284 -41927412 -48754700 -55261116 -59309668 
2315.882 -59226852 -55392616 -49684456 -43805600 -38632540 -34409296 
2316.244 -31167952 -28874112 -27462776 -26861938 -26957018 -27593704 
2316.605 -28559258 -29613178 -30513324 -31037914 -31057194 -30562060 
2316.967 -29675136 -28604056 -27608908 -26953562 -26849696 -27461192 
2317.329 -28877740 -31136526 -34236312 -38185152 -43021120 -48668980 
2317.691 -54687360 -59811304 -62011704 -60090832 -55083696 -49162312 
2318.053 -43793736 -39533112 -36430640 -34361232 -33189882 -32745574 
2318.415 -32808990 -33085164 -33258852 -33066988 -32370902 -31210416 
2318.776 -29763414 -28267802 -26922700 -25874898 -25223930 -25045842 
2319.138 -25432912 -26489886 -28326072 -31040660 -34730060 -39522192 
2319.500 -45566492 -53033960 -61841936 -70931064 -77597616 -78550136 
2319.862 -73499520 -65623544 -58081548 -52142380 -47831992 -44839520 
2320.224 -42797852 -41375364 -40263124 -39188840 -37945904 -36434720 
2320.585 -34692956 -32865670 -31149604 -29716136 -28701362 -28196950 
2320.947 -28265288 -28976596 -30413426 -32666322 -35801108 -39838844 
2321.309 -44749444 -50439244 -56826544 -63815260 -71188088 -78375896 
2321.671 -84061344 -86346688 -84188152 -78760184 -72302720 -66247588 
2322.033 -60966688 -56295104 -51983260 -47873960 -43933788 -40234672 
2322.395 -36914900 -34106944 -31901836 -30367456 -29512330 -29318960 
2322.756 -29745872 -30742562 -32245900 -34189364 -36506312 -39112052 
2323.118 -41921576 -44859872 -47886600 -51046392 -54506692 -58600816 
2323.480 -63844404 -70853664 -79865968 -89641168 -96375272 -96152064 
2323.842 -89340608 -79498080 -69485464 -60463072 -52697732 -46146668 
2324.204 -40768592 -36576096 -33567036 -31745776 -31078910 -31483016 
2324.565 -32820604 -34885512 -37414308 -40049404 -42419680 -44228624 
2324.927 -45348408 -45885356 -46139992 -46518248 -47398472 -49125712 
2325.289 -52025472 -56488240 -62962756 -71726728 -82025088 -90285664 
2325.651 -91286320 -84406968 -74359448 -64932772 -57179368 -50934608 
2326.013 -45831780 -41662100 -38385412 -36026564 -34648844 -34258240 
2326.375 -34757072 -35909504 -37354692 -38688952 -39544880 -39764772 
2326.736 -39455088 -38951904 -38651064 -38899372 -39929068 -41857636 
2327.098 -44737424 -48609292 -53605276 -59907060 -67602736 -76045664 
2327.460 -82624136 -83505256 -78110504 -69950808 -62062144 -55427964 
2327.822 -50045524 -45701468 -42272076 -39714428 -37981064 -36991892 
2328.184 -36566016 -36442212 -36317188 -35976488 -35380932 -34680784 
2328.545 -34135768 -34007932 -34489056 -35654592 -37490056 -39924600 
2328.907 -42914752 -46472252 -50741968 -56087444 -63083440 -72249160 
2329.269 -82880024 -91013384 -91460992 -84799512 -76003808 -68131544 
2329.631 -61812796 -56785088 -52653888 -49138552 -46064936 -43327520 
2329.993 -40874492 -38677736 -36725680 -35036348 -33664648 -32704276 
2330.354 -32288104 -32545644 -33579764 -35432608 -38084792 -41456176 
2330.716 -45443616 -50020960 -55271092 -61486580 -69224544 -79166944 
2331.078 -91357024 -103357360 -109484816 -106264496 -96952848 -86462944 
2331.440 -77070400 -69127040 -62369960 -56490972 -51326256 -46840936 
2331.802 -43055324 -40026864 -37771352 -36244588 -35368660 -35058784 
2332.164 -35265108 -35991160 -37289380 -39226380 -41830616 -45073088 
2332.525 -48846440 -53004308 -57461668 -62238088 -67563520 -73901480 
2332.887 -81709344 -90318392 -96319240 -95524176 -88553704 -79283616 
2333.249 -70232368 -62168632 -55186216 -49265740 -44372876 -40529472 
2333.611 -37735476 -35926100 -34990832 -34760004 -35046528 -35673184 
2333.973 -36527268 -37577520 -38869440 -40497384 -42568764 -45171848 
2334.334 -48384616 -52286992 -57013916 -62851332 -70240712 -79657512 
2334.696 -90787624 -100371072 -102253568 -94963344 -84073112 -74049736 
2335.058 -65917632 -59346204 -53883000 -49273400 -45424876 -42301832 
2335.420 -39906192 -38204756 -37116568 -36533636 -36351472 -36508992 
2335.782 -37006864 -37903548 -39284892 -41226620 -43777620 -46950924 
2336.144 -50743088 -55215748 -60524872 -67014792 -75227704 -85429912 
2336.505 -95959568 -101686888 -98778880 -90454088 -81497344 -73750672 
2336.867 -67236904 -61601284 -56573152 -52013888 -47919060 -44350916 
2337.229 -41365212 -39005908 -37272076 -36134752 -35574160 -35593728 
2337.591 -36225112 -37506832 -39462020 -42076576 -45287396 -49042468 
2337.953 -53312136 -58160444 -63825412 -70677064 -78810728 -86767520 
2338.314 -90790152 -88591504 -82519776 -75689832 -69388832 -63801356 
2338.676 -58845764 -54440548 -50579764 -47297572 -44605616 -42504324 
2339.038 -40957960 -39908396 -39309712 -39151420 -39468068 -40331100 
2339.400 -41820960 -44001908 -46896200 -50515380 -54876476 -60053900 
2339.762 -66286220 -73962384 -83350200 -93448376 -100222472 -98972592 
2340.124 -90900528 -80910328 -71746472 -63900524 -57180880 -51387812 
2340.485 -46465912 -42472296 -39453336 -37444888 -36420156 -36284548 
2340.847 -36905740 -38137992 -39863964 -41994344 -44491028 -47363860 
2341.209 -50655228 -54455540 -58917924 -64278744 -70921376 -79305896 
2341.571 -89521528 -99955824 -105573272 -101517752 -90436896 -78589288 
2341.933 -68906480 -61527672 -55916972 -51600940 -48296480 -45861772 
2342.294 -44181160 -43135408 -42569844 -42318936 -42244508 -42298980 
2342.656 -42543380 -43123828 -44202948 -45903004 -48288416 -51395672 
2343.018 -55305140 -60204008 -66515616 -74860320 -85444944 -96322112 
2343.380 -102245408 -99626600 -91265680 -81642496 -72941144 -65620408 
2343.742 -59639260 -54850340 -51109752 -48290288 -46211168 -44657400 
2344.104 -43422332 -42388728 -41567596 -41094348 -41153028 -41928192 
2344.465 -43542212 -46058588 -49487628 -53852212 -59265764 -65899892 
2344.827 -73883008 -82735912 -90351760 -93312704 -90324928 -83910856 
2345.189 -77018984 -70947376 -65784128 -61221676 -56965884 -52849200 
2345.551 -48852360 -45102448 -41802240 -39167404 -37408652 -36666180 
2345.913 -37020796 -38474276 -40949488 -44273452 -48213612 -52590216 
2346.274 -57327804 -62552780 -68593440 -75828816 -84238480 -92558168 
2346.636 -97652752 -96472184 -89275944 -79154136 -68878464 -59746660 
2346.998 -52116256 -45966912 -41272936 -38011844 -36120148 -35490600 
2347.360 -35900320 -37018180 -38402184 -39637860 -40468436 -40898404 
2347.722 -41183348 -41725404 -42952512 -45219384 -48784640 -53683756 
2348.083 -59530676 -65035620 -68089024 -67043668 -62239064 -55686896 
2348.445 -49306084 -44139288 -40448004 -38168460 -37104584 -36967152 
2348.807 -37355636 -37759352 -37695164 -36826600 -35149704 -32978304 
2349.169 -30828402 -29197816 -28428064 -28674656 -29866400 -31719812 
2349.531 -33748224 -35419020 -36292076 -36215540 -35367708 -34162904 
2349.893 -33073560 -32478038 -32666628 -33812936 -36000644 -39208036 
2350.254 -43288956 -47916600 -52506784 -56331920 -58707320 -59305424 
2350.616 -58287044 -56161316 -53477684 -50596252 -47686220 -44780856 
2350.978 -41884236 -39055608 -36428108 -34180332 -32508168 -31563196 
2351.340 -31454910 -32241442 -33918248 -36397120 -39501984 -43042876 
2351.702 -46869520 -50988468 -55608744 -61087120 -67712296 -75216920 
2352.063 -81946680 -84949624 -82170752 -74744288 -65671480 -57265136 
2352.425 -50504824 -45508936 -42149920 -40206312 -39419052 -39499564 
2352.787 -40127140 -40996404 -41848340 -42561316 -43162168 -43800264 
2353.149 -44676892 -46019936 -48090004 -51228620 -55886092 -62482716 
2353.511 -70863736 -79057416 -83430352 -82174424 -77224528 -71358872 
2353.873 -66029212 -61624720 -58041172 -55064724 -52489664 -50164180 
2354.234 -48030408 -46144552 -44645024 -43726748 -43569876 -44295624 
2354.596 -45963304 -48584524 -52186720 -56838724 -62789776 -70520056 
2354.958 -80515552 -92195704 -102161632 -105662496 -102009632 -94415024 
2355.320 -85719736 -77226448 -69436608 -62590472 -56837908 -52341012 
2355.682 -49186368 -47410800 -47023276 -47979232 -50184192 -53461840 
2356.043 -57595580 -62292088 -67244512 -72237824 -77155240 -82014960 
2356.405 -86789768 -90927264 -92699112 -90350496 -84704048 -78183648 
2356.767 -72183024 -66992840 -62538036 -58745116 -55599504 -53099288 
2357.129 -51278824 -50159308 -49735608 -49987852 -50883420 -52400104 
2357.491 -54534224 -57339736 -60957880 -65654764 -71931200 -80527136 
2357.853 -92027336 -105269688 -114900632 -114981144 -107127280 -97005296 
2358.214 -87631696 -79550232 -72581216 -66528552 -61349228 -57152008 
2358.576 -54055560 -52168768 -51547684 -52177052 -54001668 -56939844 
2358.938 -60946444 -65970376 -72001128 -79109944 -87321608 -96335512 
2359.300 -104531896 -107952112 -103355472 -93707936 -84063584 -76223288 
2359.662 -69937464 -64708680 -60270432 -56599676 -53793052 -51953480 
2360.023 -51183916 -51498508 -52824588 -55010544 -57901044 -61402216 
2360.385 -65532684 -70519776 -76819920 -85089184 -95857192 -108025912 
2360.747 -116526328 -115278944 -105974824 -95056888 -85743752 -78263848 
2361.109 -72027712 -66562660 -61689200 -57436036 -53980452 -51549624 
2361.471 -50288560 -50260844 -51425756 -53707768 -57030364 -61409264 
2361.833 -67059912 -74384656 -83912104 -95550288 -106365944 -109771272 
2362.194 -103129816 -92222392 -82294352 -74563464 -68565296 -63709088 
2362.556 -59670104 -56361084 -53826072 -52212576 -51648276 -52188752 
2362.918 -53781108 -56266580 -59413888 -62947192 -66679904 -70547552 
2363.280 -74660264 -79139472 -83542744 -86117584 -85273960 -81809560 
2363.642 -77410080 -72947672 -68640352 -64534388 -60694556 -57276232 
2364.003 -54461620 -52459776 -51455716 -51543800 -52742252 -55000068 
2364.365 -58287824 -62623836 -68188640 -75416184 -84802944 -96032344 
2364.727 -105827112 -107987768 -100893904 -89735744 -79034632 -70135168 
2365.089 -63002712 -57382532 -53073988 -50030348 -48257200 -47751144 
2365.451 -48503132 -50466416 -53596812 -57862648 -63351588 -70328024 
2365.812 -79221336 -90504720 -103733720 -115379760 -118736936 -111415376 
2366.174 -99151424 -87466264 -77960224 -70302320 -63908532 -58451488 
2366.536 -53846064 -50177468 -47639724 -46387904 -46526168 -48086088 
2366.898 -51093052 -55617808 -61869032 -70300096 -81305040 -94172536 
2367.260 -104929856 -106683544 -97880552 -84752112 -72765032 -63409544 
2367.622 -56409648 -51243316 -47509892 -45013140 -43669672 -43422424 
2367.983 -44223088 -46004676 -48727656 -52393580 -57131848 -63258112 
2368.345 -71154560 -80836672 -90624416 -95970344 -93063232 -84085400 
2368.707 -73961992 -65279940 -58515084 -53416836 -49659840 -47057880 
2369.069 -45497452 -44893636 -45174416 -46261896 -48101004 -50676340 
2369.431 -54080776 -58506948 -64136556 -70796664 -77029056 -79680752 
2369.792 -76591880 -69625368 -62164584 -55883296 -50999520 -47238788 
2370.154 -44336436 -42173552 -40727296 -40044116 -40195288 -41235784 
2370.516 -43207224 -46152268 -50186616 -55466080 -62075616 -69600816 
2370.878 -76231352 -78986184 -76501448 -70642880 -63989632 -57868332 
2371.240 -52624620 -48235524 -44678656 -42002464 -40265720 -39544520 
2371.602 -39876328 -41272152 -43741188 -47345172 -52233380 -58463596 
2371.963 -65602376 -71962368 -74554624 -71681080 -65009436 -57505904 
2372.325 -50880472 -45620276 -41679744 -38887196 -37137680 -36362748 
2372.687 -36509692 -37533636 -39398324 -42107368 -45689092 -50197804 
2373.049 -55533440 -61021944 -65084116 -65744712 -62518724 -56982360 
2373.411 -51051576 -45722224 -41222768 -37539504 -34632016 -32505340 
2373.772 -31230242 -30875804 -31503726 -33165108 -35930188 -39876144 
2374.134 -44982044 -50907820 -56484168 -59713424 -59108680 -55149828 
2374.496 -49706592 -44355732 -39885972 -36501620 -34181768 -32864410 
2374.858 -32460422 -32886252 -34073036 -36008632 -38750264 -42413700 
2375.220 -47091296 -52515916 -57638616 -60651136 -60036096 -56046356 
2375.582 -50309216 -44417896 -39206460 -34962036 -31739152 -29494252 
2375.943 -28200520 -27859916 -28508590 -30229482 -33131554 -37298592 
2376.305 -42542480 -48090476 -52430848 -53834532 -51772848 -47326632 
2376.667 -42158192 -37393728 -33526580 -30657352 -28709084 -27599766 
2377.029 -27285856 -27780758 -29153482 -31487084 -34807104 -38874320 
2377.391 -42997948 -45989624 -46598020 -44459624 -40361628 -35586432 
2377.752 -31092666 -27391046 -24662526 -22919610 -22159106 -22383572 
2378.114 -23614146 -25872026 -29133034 -33247374 -37749420 -41810636 
2378.476 -44352472 -44557864 -42448316 -38830144 -34732600 -30878458 
2378.838 -27665092 -25244062 -23651706 -22923538 -23102656 -24233438 
2379.200 -26314844 -29234898 -32674678 -35998264 -38386840 -39101036 
2379.562 -37907284 -35205440 -31766224 -28330138 -25365220 -23134418 
2379.923 -21739196 -21201512 -21518368 -22658216 -24544898 -26992610 
2380.285 -29684264 -32132126 -33747612 -34087372 -33047800 -30940020 
2380.647 -28291242 -25644762 -23390658 -21735164 -20778938 -20539228 
2381.009 -20986186 -22041932 -23574540 -25369784 -27103568 -28406682 
2381.371 -28929666 -28490408 -27165262 -25261944 -23186878 -21287396 
2381.732 -19821426 -18921088 -18620772 -18886574 -19624766 -20688182 
2382.094 -21865180 -22919108 -23604638 -23731272 -23236536 -22212218 
2382.456 -20884264 -19517518 -18360082 -17574710 -17228530 -17317690 
2382.818 -17783114 -18532168 -19441358 -20378368 -21202804 -21778306 
2383.180 -22006216 -21842558 -21322824 -20555914 -19709982 -18965052 
2383.542 -18463806 -18298554 -18484604 -18966130 -19619446 -20285820 
2383.903 -20798142 -21013370 -20856378 -20327022 -19500792 -18500576 
2384.265 -17485002 -16617691 -16034380 -15836956 -16062511 -16676588 
2384.627 -17565070 -18556076 -19452384 -20067922 -20295528 -20124740 
2384.989 -19640602 -18976280 -18277554 -17661412 -17193692 -16900050 
2385.351 -16769398 -16768314 -16846506 -16948392 -17020530 -17019926 
2385.712 -16929528 -16764328 -16572244 -16415907 -16356686 -16433103 
2386.074 -16647348 -16965060 -17325076 -17662588 -17920202 -18068308 
2386.436 -18105716 -18051590 -17931330 -17766956 -17572898 -17358664 
2386.798 -17134864 -16917482 -16723713 -16569311 -16459009 -16383905 
2387.160 -16320979 -16241670 -16122313 -15950227 -15729439 -15477525 
2387.521 -15222713 -14995506 -14826334 -14741115 -14755464 -14871515 
2387.883 -15072226 -15324662 -15580086 -15787626 -15909726 -15930329 
2388.245 -15862385 -15741933 -15616749 -15525548 -15486510 -15491466 
2388.607 -15512087 -15512600 -15467133 -15371103 -15243093 -15116869 
2388.969 -15025722 -14992849 -15020824 -15092484 -15176577 -15240565 
2389.331 -15258992 -15219354 -15124133 -14987439 -14831170 -14678240 
2389.692 -14549608 -14459432 -14411644 -14398823 -14403535 -14404625 
2390.054 -14383181 -14333461 -14268121 -14219575 -14228618 -14332820 
2390.416 -14549801 -14866007 -15233399 -15580437 -15837723 -15954379 
2390.778 -15921544 -15773376 -15582068 -15430521 -15385143 -15478069 
2391.140 -15692336 -15969103 -16222073 -16371939 -16360069 -16167488 
2391.501 -15815040 -15355527 -14856146 -14378244 -13972109 -13666617 
2391.863 -13471873 -13384942 -13394130 -13483211 -13633063 -13825392 
2392.225 -14041824 -14265684 -14482860 -14679682 -14841481 -14952483 
2392.587 -14994513 -14952099 -14818809 -14605006 -14341155 -14077304 
2392.949 -13878379 -13803823 -13896190 -14167528 -14595139 -15123621 
2393.311 -15677413 -16181948 -16570650 -16802582 -16866872 -16779502 
2393.672 -16577030 -16305724 -16015697 -15747782 -15530024 -15374749 
2394.034 -15278090 -15224953 -15194879 -15170626 -15141284 -15103973 
2394.396 -15061408 -15016152 -14967049 -14909424 -14838374 -14756873 
2394.758 -14681251 -14643899 -14684903 -14842569 -15139365 -15570336 
2395.120 -16100379 -16668776 -17207226 -17647828 -17942172 -18068880 
2395.481 -18032582 -17858706 -17585944 -17261396 -16930070 -16634146 
2395.843 -16407771 -16269470 -16219646 -16236499 -16280927 -16299693 
2396.205 -16239531 -16060723 -15743691 -15296195 -14750660 -14161274 
2396.567 -13588460 -13092989 -12728320 -12528872 -12509203 -12660549 
2396.929 -12956169 -13353583 -13806166 -14274245 -14726606 -15145828 
2397.291 -15524301 -15855294 -16127326 -16320564 -16408537 -16369546 
2397.652 -16196217 -15906628 -15543482 -15172130 -14865303 -14681956 
2398.014 -14660941 -14809747 -15106885 -15507963 -15959617 -16410131 
2398.376 -16813930 -17141840 -17379070 -17525324 -17591798 -17597972 
2398.738 -17566246 -17514600 -17453778 -17383146 -17292918 -17167416 
2399.100 -16993258 -16764712 -16488325 -16181087 -15868487 -15579350 
2399.461 -15338384 -15164931 -15069474 -15051967 -15100964 -15193727 
2399.823 -15298786 -15378106 -15396432 -15330964 -15178657 -14961350 
2400.185 -14722539 -14520641 -14408182 -14420651 -14563899 -14812661 
2400.547 -15114116 -15403627 -15626147 -15745321 -15755866 -15680384 
2400.909 -15560170 -15437651 -15341070 -15276394 -15225113 -15153476 
2401.271 -15026426 -14826527 -14563804 -14279439 -14031655 -13883802 
2401.632 -13879631 -14027581 -14296721 -14626504 -14945888 -15191903 
2401.994 -15332371 -15369120 -15333171 -15266414 -15206173 -15171234 
2402.356 -15158979 -15152036 -15131525 -15089315 -15032827 -14981741 
2402.718 -14957701 -14974059 -15026170 -15093028 -15141925 -15143717 
2403.080 -15082018 -14961959 -14808306 -14662832 -14572678 -14576524 
2403.441 -14700309 -14947777 -15300641 -15718414 -16148619 -16535183 
2403.803 -16827030 -16994056 -17031046 -16960884 -16824832 -16673462 
2404.165 -16549440 -16473364 -16441429 -16428253 -16400943 -16330998 
2404.527 -16208570 -16044788 -15867177 -15706174 -15584017 -15507164 
2404.889 -15466782 -15446413 -15433270 -15427067 -15440370 -15492105 
2405.250 -15594662 -15743371 -15912313 -16061617 -16148014 -16145779 
2405.612 -16056284 -15911419 -15760722 -15657853 -15642671 -15727842 
2405.974 -15900718 -16130168 -16382597 -16628724 -16848832 -17029644 
2406.336 -17154674 -17200952 -17142190 -16957444 -16646964 -16241224 
2406.698 -15802899 -15407177 -15125989 -15001908 -15033564 -15178786 
2407.060 -15371966 -15552850 -15683612 -15761552 -15811173 -15866091 
2407.421 -15945053 -16039521 -16113214 -16120175 -16024256 -15819225 
2407.783 -15534244 -15227225 -14963655 -14791397 -14730803 -14768595 
2408.145 -14869338 -14987791 -15087459 -15147940 -15165282 -15148772 
2408.507 -15114981 -15083683 -15074818 -15109764 -15206205 -15372318 
2408.869 -15598178 -15852099 -16085021 -16236436 -16258236 -16130805 
2409.230 -15874460 -15544218 -15216955 -14968457 -14845932 -14860885 
2409.592 -14988303 -15183873 -15400301 -15606904 -15797786 -15986126 
2409.954 -16190503 -16420087 -16663738 -16890170 -17055864 -17117504 
2410.316 -17048440 -16843318 -16519744 -16109703 -15655935 -15203358 
2410.678 -14793735 -14469624 -14268731 -14219447 -14336154 -14608466 
2411.040 -14997266 -15433718 -15838234 -16132690 -16262831 -16214540 
2411.401 -16015666 -15726594 -15415715 -15146180 -14954051 -14845323 
2411.763 -14804591 -14809394 -14846220 -14917076 -15036828 -15222905 
2412.125 -15481170 -15798010 -16139522 -16461113 -16724668 -16904416 
2412.487 -16994342 -17001414 -16936476 -16804622 -16603213 -16327808 
2412.849 -15983826 -15596164 -15213915 -14897161 -14705467 -14678336 
2413.210 -14822268 -15109989 -15490634 -15908832 -16313830 -16671710 
2413.572 -16964708 -17182544 -17316830 -17358632 -17301260 -17148052 
2413.934 -16918756 -16650153 -16384255 -16160145 -15999347 -15900942 
2414.296 -15845070 -15805200 -15760595 -15704896 -15645804 -15598115 
2414.658 -15574044 -15574556 -15589036 -15600927 -15598274 -15579990 
2415.020 -15558092 -15550676 -15573597 -15630685 -15711321 -15792547 
2415.381 -15849255 -15864046 -15831556 -15760306 -15667377 -15572798 
2415.743 -15491306 -15432056 -15397903 -15386902 -15392658 -15403851 
2416.105 -15404842 -15374749 -15293892 -15151268 -14951331 -14718535 
2416.467 -14494716 -14332499 -14277452 -14358914 -14579888 -14918228 
2416.829 -15331060 -15767433 -16183449 -16545836 -16838282 -17058954 
2417.190 -17214392 -17313710 -17364488 -17370444 -17330776 -17241206 
2417.552 -17095906 -16890076 -16623430 -16304575 -15951984 -15597827 
2417.914 -15282984 -15048158 -14928536 -14939774 -15073474 -15293380 
2418.276 -15544857 -15764812 -15894139 -15897077 -15764588 -15518002 
2418.638 -15197535 -14854353 -14534324 -14265941 -14059981 -13911946 
2419.000 -13812489 -13756316 -13748548 -13802957 -13934247 -14146168 
2419.361 -14422766 -14725550 -15005397 -15211004 -15309245 -15295779 
2419.723 -15197854 -15064929 -14950338 -14898826 -14929785 -15035355 
2420.085 -15187168 -15350858 -15498020 -15616142 -15710233 -15797691 
2420.447 -15898036 -16021445 -16162794 -16299693 -16399954 -16426913 
2420.809 -16354071 -16173361 -15899282 -15566244 -15221306 -14913137 
2421.170 -14675389 -14521090 -14438023 -14398214 -14367249 -14319740 
2421.532 -14248882 -14167079 -14098410 -14065082 -14078362 -14132344 
2421.894 -14208320 -14285467 -14352535 -14412798 -14481641 -14574217 
2422.256 -14693551 -14822268 -14927928 -14972842 -14934587 -14818457 
2422.618 -14660814 -14514937 -14430074 -14432958 -14514809 -14635249 
2422.979 -14737400 -14775929 -14730610 -14616092 -14470969 -14343431 
2423.341 -14268731 -14257059 -14293578 -14349169 -14396964 -14423695 
2423.703 -14436516 -14457829 -14514392 -14622595 -14780188 -14962438 
2424.065 -15130660 -15238102 -15244852 -15130885 -14901804 -14592512 
2424.427 -14260362 -13980066 -13820032 -13826580 -14009744 -14335961 
2424.789 -14733301 -15107173 -15373342 -15472889 -15392754 -15163875 
2425.150 -14852144 -14535413 -14278990 -14128881 -14101361 -14190425 
2425.512 -14375423 -14631629 -14932634 -15249651 -15553617 -15812675 
2425.874 -15997909 -16092205 -16094154 -16020838 -15900623 -15765451 
2426.236 -15638933 -15530631 -15439123 -15359269 -15292101 -15251091 
2426.598 -15259344 -15341614 -15511704 -15762320 -16063500 -16370440 
2426.959 -16640618 -16845008 -16979906 -17064274 -17130884 -17208724 
2427.321 -17310302 -17426024 -17529302 -17587440 -17576080 -17490762 
2427.683 -17348222 -17180442 -17020436 -16893006 -16804622 -16745361 
2428.045 -16694825 -16633762 -16553236 -16457891 -16361857 -16281789 
2428.407 -16226828 -16192961 -16163783 -16118003 -16040606 -15931861 
2428.769 -15810790 -15707932 -15657853 -15681727 -15778169 -15920682 
2429.130 -16066566 -16170265 -16198451 -16144278 -16027672 -15889699 
2429.492 -15773185 -15710969 -15711576 -15757367 -15809288 -15823122 
2429.854 -15765196 -15622439 -15408488 -15158275 -14919764 -14735190 
2430.216 -14631437 -14612215 -14658827 -14736664 -14807953 -14846924 
2430.578 -14846732 -14823933 -14811860 -14853392 -14984110 -15221210 
2430.939 -15558156 -15965462 -16397210 -16799650 -17125946 -17339562 
2431.301 -17419212 -17360096 -17172288 -16880068 -16518628 -16136648 
2431.663 -15787626 -15521008 -15375068 -15362595 -15467389 -15644876 
2432.025 -15837595 -15988680 -16060626 -16047439 -15976289 -15897844 
2432.387 -15866091 -15926337 -16097026 -16366355 -16693391 -17022188 
2432.749 -17294000 -17457788 -17483664 -17364586 -17117504 -16776793 
2433.110 -16391084 -16013909 -15690515 -15457190 -15332627 -15319097 
2433.472 -15405674 -15573532 -15800439 -16060755 -16328894 -16575594 
2433.834 -16769206 -16882648 -16897914 -16814790 -16653534 -16454287 
2434.196 -16266214 -16130773 -16074197 -16097888 -16183672 -16301192 
2434.558 -16423915 -16535820 -16632551 -16715964 -16784602 -16826840 
2434.919 -16823112 -16752278 -16604647 -16389521 -16136488 -15884299 
2435.281 -15665395 -15494855 -15364866 -15252946 -15136773 -15011158 
2435.643 -14894920 -14825759 -14838983 -14949538 -15134725 -15339311 
2436.005 -15488332 -15520209 -15414628 -15204414 -14966953 -14794407 
2436.367 -14764784 -14903821 -15177282 -15496965 -15759412 -15872480 
2436.729 -15790917 -15528329 -15151716 -14757481 -14436836 -14260907 
2437.090 -14260073 -14426516 -14722379 -15096836 -15496165 -15870882 
2437.452 -16184917 -16413961 -16548133 -16591795 -16563347 -16490813 
2437.814 -16402092 -16320372 -16253415 -16193122 -16116951 -15998900 
2438.176 -15819607 -15575035 -15280137 -14966088 -14672826 -14435330 
2438.538 -14278606 -14211430 -14227912 -14309961 -14432638 -14569859 
2438.899 -14694928 -14786081 -14830626 -14828672 -14796297 -14766385 
2439.261 -14784704 -14894504 -15127365 -15487661 -15947895 -16449342 
2439.623 -16916430 -17279864 -17489076 -17530702 -17428250 -17235188 
2439.985 -17013012 -16813674 -16667021 -16573489 -16510909 -16447363 
2440.347 -16358856 -16238542 -16103571 -15987722 -15934704 -15980568 
2440.708 -16141374 -16405569 -16733246 -17063192 -17320268 -17438438 
2441.070 -17370698 -17102756 -16657423 -16094346 -15497604 -14951491 
2441.432 -14530415 -14275143 -14185647 -14222878 -14323844 -14422094 
2441.794 -14465169 -14434369 -14346124 -14245228 -14182408 -14198154 
2442.156 -14303646 -14477443 -14670392 -14824221 -14895016 -14864439 
2442.518 -14748001 -14586039 -14431420 -14326247 -14291078 -14320830 
2442.879 -14392412 -14476802 -14553198 -14618590 -14685608 -14776345 
2443.241 -14908783 -15091940 -15321272 -15585041 -15869988 -16169274 
2443.603 -16480956 -16803378 -17126008 -17422332 -17649164 -17760118 
2443.965 -17716828 -17507280 -17153338 -16711278 -16256161 -15857497 
2444.327 -15567906 -15406378 -15362468 -15405642 -15502848 -15628288 
2444.688 -15766090 -15907362 -16037412 -16128315 -16141724 -16033420 
2445.050 -15772833 -15358853 -14828032 -14250230 -13709158 -13286329 
2445.412 -13032543 -12959578 -13040870 -13228609 -13468725 -13719944 
2445.774 -13963286 -14197801 -14429658 -14659276 -14871963 -15039421 
2446.136 -15130821 -15125477 -15027002 -14867096 -14700470 -14583284 
2446.498 -14557940 -14637140 -14800748 -15004116 -15196415 -15343278 
2446.859 -15436500 -15497125 -15561769 -15667889 -15832931 -16045332 
2447.221 -16267108 -16450586 -16555373 -16565228 -16495215 -16387351 
2447.583 -16295992 -16265959 -16322128 -16459519 -16648432 -16841438 
2447.945 -16989850 -17055864 -17017536 -16873694 -16641831 -16355794 
2448.307 -16057720 -15794719 -15611092 -15536865 -15583890 -15739186 
2448.668 -15968911 -16220732 -16438622 -16576359 -16602797 -16511070 
2449.030 -16314149 -16040254 -15720716 -15385238 -15057215 -14753158 
2449.392 -14486865 -14272674 -14125320 -14060238 -14087601 -14206267 
2449.754 -14398823 -14630284 -14853905 -15015800 -15074338 -15009750 
2450.116 -14835012 -14593088 -14351638 -14183722 -14141806 -14247344 
2450.478 -14478661 -14783007 -15088676 -15334674 -15488780 -15555599 
2450.839 -15569249 -15576250 -15616111 -15703650 -15827820 -15960863 
2451.201 -16077040 -16164390 -16231457 -16299630 -16390063 -16508358 
2451.563 -16639631 -16752884 -16818552 -16824608 -16784602 -16732926 
2451.925 -16710162 -16742906 -16828178 -16932970 -17006130 -17004060 
2452.287 -16906168 -16727220 -16508868 -16306426 -16163018 -16096229 
2452.648 -16096547 -16137542 -16190918 -16238958 -16279524 -16318841 
2453.010 -16358633 -16386872 -16374459 -16284214 -16089013 -15785709 
2453.372 -15405898 -15011062 -14684967 -14506445 -14533459 -14789796 
2453.734 -15258800 -15887015 -16592434 -17286550 -17878612 -18294740 
2454.096 -18491686 -18459232 -18223576 -17837592 -17372608 -16896098 
2454.458 -16458625 -16087990 -15786923 -15542108 -15335569 -15155716 
2454.819 -15001203 -14879392 -14799948 -14768018 -14781245 -14830209 
2455.181 -14902604 -14989360 -15086915 -15196511 -15320281 -15456614 
2455.543 -15596516 -15724070 -15816636 -15848424 -15796445 -15641425 
2455.905 -15376092 -15010550 -14580432 -14147034 -13790278 -13601369 
2456.267 -13652137 -13976601 -14553550 -15308638 -16124772 -16870060 
2456.628 -17441716 -17779488 -17881570 -17790938 -17576080 -17301260 
2456.990 -17007850 -16715709 -16430072 -16158804 -15924547 -15763598 
2457.352 -15715571 -15804879 -16024543 -16329851 -16646741 -16896512 
2457.714 -17010686 -16953364 -16727028 -16368397 -15935408 -15491370 
2458.076 -15099428 -14807697 -14648480 -14634961 -14757770 -14983758 
2458.438 -15257969 -15518354 -15702851 -15771395 -15717966 -15573340 
2458.799 -15396624 -15255057 -15208957 -15289989 -15497508 -15802834 
2459.161 -16164932 -16542360 -16905404 -17241492 -17550624 -17838386 
2459.523 -18107910 -18355380 -18568298 -18728084 -18812682 -18802720 
2459.885 -18686382 -18464440 -18153894 -17789444 -17421184 -17100718 
2460.247 -16872992 -16759897 -16752470 -16810902 -16875796 -16890170 
2460.608 -16812974 -16636027 -16384160 -16106127 -15854463 -15670029 
2460.970 -15572477 -15558699 -15612051 -15713109 -15849479 -16014004 
2461.332 -16200783 -16395871 -16571321 -16688449 -16708631 -16604615 
2461.694 -16373917 -16042618 -15661336 -15288006 -14975947 -14762574 
2462.056 -14661070 -14665875 -14757866 -14913009 -15104581 -15306623 
2462.417 -15495654 -15649255 -15752127 -15800150 -15804177 -15788106 
2462.779 -15784016 -15822068 -15918989 -16072473 -16260948 -16454000 
2463.141 -16619986 -16740164 -16813548 -16856004 -16892306 -16944952 
2463.503 -17026140 -17131966 -17243052 -17328706 -17357582 -17302758 
2463.865 -17149038 -16896960 -16563984 -16182395 -15792515 -15439955 
2464.227 -15163683 -14988463 -14923414 -14960133 -15080131 -15260912 
2464.588 -15485262 -15741838 -16021637 -16311789 -16586054 -16801944 
2464.950 -16910344 -16863430 -16636377 -16239692 -15725253 -15174562 
2465.312 -14677791 -14316887 -14137669 -14146777 -14313232 -14586103 
2465.674 -14906574 -15224378 -15507995 -15740750 -15918192 -16042553 
2466.036 -16119791 -16159346 -16174702 -16183767 -16202537 -16239978 
2466.397 -16291460 -16338531 -16352538 -16305374 -16182300 -15988074 
2466.759 -15747175 -15492553 -15255249 -15050014 -14870587 -14694320 
2467.121 -14495966 -14262510 -14004771 -13756990 -13569481 -13492559 
2467.483 -13555157 -13757022 -14064569 -14424722 -14774744 -15063137 
2467.845 -15262063 -15368001 -15397679 -15377403 -15332786 -15278697 
2468.207 -15218362 -15146020 -15053663 -14937981 -14804655 -14667188 
2468.568 -14545090 -14455746 -14408696 -14402830 -14426677 -14462637 
2468.930 -14491929 -14501863 -14487506 -14451805 -14401676 -14344681 
2469.292 -14285403 -14225443 -14166822 -14115795 -14085194 -14094144 
2469.654 -14161594 -14297041 -14493275 -14723051 -14943039 -15102084 
2470.016 -15161219 -15103812 -14945984 -14730290 -14519905 -14378148 
2470.377 -14347919 -14443279 -14642906 -14899114 -15147172 -15327733 
2470.739 -15400684 -15353001 -15201726 -14988592 -14770580 -14601611 
2471.101 -14525897 -14565310 -14715685 -14946625 -15207421 -15439859 
2471.463 -15584177 -15596260 -15457701 -15181377 -14811059 -14415330 
2471.825 -14077271 -13868398 -13837909 -13994697 -14305858 -14699413 
2472.187 -15083811 -15377755 -15524780 -15515956 -15387893 -15214108 
2472.548 -15074626 -15031707 -15112069 -15298338 -15538528 -15764941 
2472.910 -15923684 -15986253 -15959682 -15877176 -15785709 -15726116 
2473.272 -15720269 -15768647 -15853569 -15947098 -16017454 -16037859 
2473.634 -15987083 -15852930 -15637077 -15359365 -15063137 -14807249 
2473.996 -14662575 -14688842 -14912433 -15312540 -15818171 -16325222 
2474.357 -16715201 -16899732 -16841280 -16566025 -16150216 -15700743 
2474.719 -15321720 -15080131 -14999667 -15058368 -15208157 -15390739 
2475.081 -15561097 -15696652 -15795518 -15868647 -15928285 -15978940 
2475.443 -16013207 -16014548 -15964823 -15854718 -15691889 -15504894 
2475.805 -15337328 -15243157 -15267789 -15432280 -15722824 -16087990 
2476.167 -16450139 -16720142 -16831716 -16757952 -16525455 -16202984 
2476.528 -15885258 -15660346 -15576538 -15630590 -15767336 -15905414 
2476.890 -15959330 -15876889 -15655711 -15345133 -15025978 -14785601 
2477.252 -14692814 -14771285 -14997906 -15308094 -15621928 -15858904 
2477.614 -15962906 -15915444 -15734743 -15467453 -15171010 -14901612 
2477.976 -14694705 -14561015 -14487699 -14450266 -14424177 -14399176 
2478.337 -14385809 -14413600 -14520770 -14736439 -15069730 -15498916 
2478.699 -15977981 -16441684 -16827828 -17091766 -17213148 -17199264 
2479.061 -17078068 -16887876 -16663101 -16430104 -16202282 -15980696 
2479.423 -15757272 -15519537 -15254801 -14955748 -14625190 -14279696 
2479.785 -13952794 -13686748 -13524517 -13498180 -13614118 -13848147 
2480.146 -14147867 -14451516 -14699830 -14859252 -14931066 -14949249 
2480.508 -14964904 -15023449 -15148676 -15329332 -15524141 -15672939 
2480.870 -15723975 -15649319 -15456646 -15185921 -14898666 -14659179 
2481.232 -14512437 -14480039 -14554607 -14708125 -14900971 -15094660 
2481.594 -15259951 -15376667 -15434902 -15430872 -15363971 -15237174 
2481.956 -15058784 -14845835 -14623043 -14424722 -14287102 -14239584 
2482.317 -14298644 -14458855 -14693327 -14952451 -15178113 -15313084 
2482.679 -15312444 -15157635 -14860405 -14463758 -14029890 -13634829 
2483.041 -13350403 -13227002 -13288964 -13525642 -13895741 -14331697 
2483.403 -14759083 -15111973 -15345965 -15452265 -15457637 -15419233 
2483.765 -15403723 -15473848 -15667090 -15984656 -16390126 -16819954 
2484.126 -17204200 -17479240 -17609266 -17591162 -17451390 -17231398 
2484.488 -16973790 -16708823 -16445864 -16177256 -15887750 -15568354 
2484.850 -15226073 -14887012 -14589083 -14373180 -14265364 -14268025 
2485.212 -14356542 -14488371 -14615611 -14699861 -14727728 -14712834 
2485.574 -14692110 -14708990 -14800845 -14981741 -15237046 -15523246 
2485.936 -15781077 -15954986 -16005287 -15926432 -15749922 -15541661 
2486.297 -15380314 -15340815 -15470874 -15772194 -16195292 -16645912 
2486.659 -17014892 -17195538 -17122218 -16789544 -16257342 -15634522 
2487.021 -15047806 -14616989 -14413407 -14450651 -14685319 -15039452 
2487.383 -15421311 -15752958 -15991811 -16128667 -16182587 -16183576 
2487.745 -16159698 -16124580 -16075667 -15998995 -15879156 -15708284 
2488.106 -15492233 -15251250 -15019416 -14837766 -14743262 -14764272 
2488.468 -14910961 -15171778 -15511800 -15879571 -16218785 -16474927 
2488.830 -16612014 -16617244 -16502073 -16296405 -16040893 -15779989 
2489.192 -15550612 -15384311 -15305343 -15330580 -15471002 -15727745 
2489.554 -16090034 -16531356 -17012122 -17486148 -17904114 -18226912 
2489.916 -18427540 -18492288 -18419346 -18214996 -17892922 -17473002 
2490.277 -16988510 -16485836 -16018763 -15645964 -15412421 -15337264 
2490.639 -15406889 -15577433 -15787179 -15970763 -16083712 -16107371 
2491.001 -16052293 -15947608 -15829097 -15725605 -15650151 -15602206 
2491.363 -15573181 -15554224 -15540318 -15530535 -15523533 -15511001 
2491.725 -15477077 -15401293 -15266798 -15072738 -14841224 -14618238 
2492.086 -14460426 -14425555 -14550858 -14839783 -15259312 -15747270 
2492.448 -16230308 -16637526 -16923950 -17073830 -17099284 -17027988 
2492.810 -16892082 -16716538 -16514290 -16292512 -16060308 -15836732 
2493.172 -15655551 -15557516 -15577241 -15730398 -16001582 -16344720 
2493.534 -16691031 -16975158 -17150886 -17208468 -17175824 -17108650 
2493.896 -17068606 -17096704 -17202002 -17355990 -17506326 -17592784 
2494.257 -17573758 -17439138 -17213978 -16946354 -16692307 -16499011 
2494.619 -16389234 -16361665 -16394721 -16459519 -16526507 -16574891 
2494.981 -16594091 -16581429 -16540127 -16476905 -16402984 -16332403 
2495.343 -16282236 -16269214 -16303012 -16382853 -16493812 -16612174 
2495.705 -16708696 -16758909 -16751608 -16689597 -16589435 -16473332 
2496.066 -16363803 -16275948 -16216135 -16181724 -16164040 -16148269 
2496.428 -16113756 -16036103 -15887845 -15645452 -15300929 -14870810 
2496.790 -14401612 -13960783 -13629146 -13469432 -13507783 -13719848 
2497.152 -14036499 -14361095 -14598503 -14693615 -14644251 -14506477 
2497.514 -14367602 -14324293 -14442446 -14734037 -15153412 -15610261 
2497.875 -15998356 -16217157 -16206974 -15957382 -15510489 -14944928 
2498.237 -14362056 -13861338 -13511831 -13342723 -13331541 -13414114 
2498.599 -13495964 -13487130 -13332088 -13028427 -12633611 -12248842 
2498.961 -11993514 -11956866 -12174940 -12613336 -13183193 -13760778 
2499.323 -14228296 -14511027 -14585046 -14480905 -14263985 -14018822 
2499.685 -13822086 -13731887 -13786619 -13999284 -14360197 -14835012 
2500.046 -15371966 -15902571 -16357964 -16689342 -16877230 -16939376 
2500.408 -16919808 -16873312 -16838888 -16825150 -16809148 -16750429 
2500.770 -16613321 -16386554 -16093004 -15783409 -15517939 -15338960 
2501.132 -15262415 -15273163 -15339759 -15429817 -15524748 -15621352 
2501.494 -15723048 -15826669 -15913017 -15949301 -15903912 -15762096 
2501.855 -15539039 -15276043 -15028026 -14839335 -14722731 -14655784 
2502.217 -14591454 -14484365 -14310827 -14086189 -13858931 -13694486 
2502.579 -13643114 -13722513 -13909539 -14153545 -14393662 -14583444 
2502.941 -14707325 -14779836 -14836038 -14913682 -15042269 -15232503 
2503.303 -15478132 -15760019 -16053570 -16332403 -16568417 -16736720 
2503.665 -16815970 -16793752 -16672347 -16470747 -16221274 -15959457 
2504.026 -15716976 -15511512 -15344908 -15209180 -15095876 -15004693 
2504.388 -14947777 -14944928 -15015704 -15168770 -15395984 -15672587 
2504.750 -15964920 -16242627 -16483858 -16679235 -16827446 -16927424 
2505.112 -16972482 -16949826 -16846346 -16659943 -16407771 -16130773 
2505.474 -15882000 -15715219 -15664404 -15728097 -15867081 -16013622 
2505.835 -16098272 -16066950 -15906978 -15650917 -15369856 -15144580 
2506.197 -15042909 -15096964 -15293508 -15580533 -15884971 -16142618 
2506.559 -16309459 -16375067 -16357485 -16292736 -16219934 -16169976 
2506.921 -16166339 -16224466 -16356623 -16571958 -16871366 -17241142 
2507.283 -17645696 -18035094 -18349410 -18538170 -18578108 -18477650 
2507.645 -18275554 -18024062 -17774368 -17555714 -17371208 -17202002 
2508.006 -17021838 -16811286 -16568227 -16308501 -16061073 -15856316 
2508.368 -15715282 -15647210 -15648456 -15706941 -15804656 -15920779 
2508.730 -16033165 -16117141 -16151557 -16122090 -16025629 -15872544 
2509.092 -15682813 -15479667 -15279657 -15090276 -14911088 -14741756 
2509.454 -14590332 -14478757 -14438247 -14502184 -14689547 -14996818 
2509.815 -15395280 -15842834 -16294459 -16715104 -17086542 -17399666 
2510.177 -17644708 -17803500 -17846336 -17743102 -17481118 -17079468 
2510.539 -16593197 -16101465 -15691314 -15422686 -15315323 -15342830 
2510.901 -15448620 -15564294 -15635384 -15637558 -15572829 -15459300 
2511.263 -15313084 -15138277 -14924726 -14659276 -14339969 -13988730 
2511.625 -13654705 -13407720 -13313097 -13416909 -13725980 -14203412 
2511.986 -14771093 -15328181 -15779031 -16045682 -16093642 -15936973 
2512.348 -15636759 -15282952 -14973963 -14798539 -14810420 -15025018 
2512.710 -15420672 -15952941 -16564336 -17198818 -17810592 -18357572 
2513.072 -18802118 -19110488 -19251564 -19208866 -18986146 -18614172 
2513.434 -18142230 -17629630 -17130692 -16678151 -16283767 -15942689 
2513.795 -15646059 -15391379 -15187073 -15046782 -14979052 -14977548 
2514.157 -15019768 -15072386 -15108581 -15119525 -15119012 -15134981 
2514.519 -15196031 -15313883 -15476726 -15652547 -15805295 -15913911 
2514.881 -15981272 -16032718 -16099932 -16203973 -16340030 -16477479 
2515.243 -16571447 -16585862 -16507879 -16353974 -16158134 -15956966 
2515.604 -15771395 -15601407 -15434423 -15264046 -15105989 -15005813 
2515.966 -15025306 -15218522 -15607256 -16163975 -16812048 -17442638 
2516.328 -17955366 -18275806 -18378058 -18282416 -18043102 -17726308 
2516.690 -17389512 -17078674 -16823332 -16642278 -16548898 -16549982 
2517.052 -16642468 -16807396 -17011260 -17207226 -17344400 -17382252 
2517.414 -17295052 -17078260 -16746890 -16333234 -15881520 -15441553 
2517.775 -15069313 -14815799 -14720393 -14803406 -15057503 -15446765 
2518.137 -15910301 -16380906 -16791968 -17093996 -17262348 -17293682 
2518.499 -17200316 -17000970 -16716411 -16365398 -15966643 -15543674 
2518.861 -15122885 -14735286 -14412446 -14178912 -14051962 -14038713 
2519.223 -14137220 -14338301 -14626888 -14983566 -15382360 -15793825 
2519.584 -16188459 -16538914 -16827190 -17046530 -17201208 -17301992 
2519.946 -17360668 -17383686 -17369360 -17308424 -17188278 -16999662 
2520.308 -16740419 -16419033 -16054241 -15674088 -15310237 -14994546 
2520.670 -14756713 -14618270 -14592864 -14683654 -14883202 -15173378 
2521.032 -15525931 -15906660 -16273299 -16581429 -16790884 -16867288 
2521.394 -16793178 -16572468 -16234552 -15828267 -15415875 -15061536 
2521.755 -14812917 -14696626 -14712482 -14839175 -15040317 -15274443 
2522.117 -15503647 -15690612 -15801333 -15805200 -15676837 -15406441 
2522.479 -15009206 -14532209 -14045642 -13634316 -13375271 -13311812 
2522.841 -13447587 -13744342 -14141421 -14570628 -14982638 -15355271 
2523.203 -15689718 -15998390 -16288714 -16552757 -16768824 -16908910 
2523.564 -16952408 -16896066 -16753873 -16549472 -16303875 -16029270 
2523.926 -15728513 -15403627 -15068865 -14757322 -14517116 -14401579 
2524.288 -14444529 -14645725 -14962407 -15324214 -15648872 -15871329 
2524.650 -15967155 -15954826 -15888453 -15831301 -15838394 -15933426 
2525.012 -16105328 -16312936 -16504338 -16631404 -16663101 -16595270 
2525.374 -16448513 -16264172 -16090704 -15977949 -15963003 -16061425 
2525.735 -16263278 -16532950 -16818966 -17060962 -17210410 -17241206 
2526.097 -17155472 -16978696 -16750589 -16509026 -16277097 -16059829 
2526.459 -15848074 -15629120 -15396687 -15157283 -14927832 -14728593 
2526.821 -14571813 -14455074 -14361671 -14269340 -14161306 -14036275 
2527.183 -13911080 -13815795 -13781515 -13824333 -13938419 -14094112 
2527.544 -14250197 -14364717 -14414241 -14401419 -14355902 -14321535 
2527.906 -14341284 -14440683 -14615131 -14828159 -15018616 -15122660 
2528.268 -15086435 -14886595 -14538137 -14092636 -13625646 -13214339 
2528.630 -12926034 -12796787 -12828121 -12989550 -13232562 -13501842 
2528.992 -13747649 -13937841 -14055266 -14097705 -14072556 -13995210 
2529.354 -13886563 -13773168 -13688064 -13664017 -13726526 -13885054 
2529.715 -14125384 -14409176 -14679361 -14879648 -14966248 -14923831 
2530.077 -14768627 -14544738 -14308070 -14105723 -13968452 -13900554 
2530.439 -13886274 -13900298 -13921701 -13941403 -13964891 -14005797 
2530.801 -14077977 -14186930 -14326087 -14477507 -14618046 -14728080 
2531.163 -14793991 -14812117 -14785728 -14722635 -14631309 -14520962 
2531.524 -14403278 -14292585 -14206812 -14164802 -14179682 -14254270 
2531.886 -14376289 -14522212 -14659116 -14757162 -14798762 -14783487 
2532.248 -14729297 -14665843 -14626824 -14637140 -14708285 -14836069 
2532.610 -15005845 -15197983 -15394257 -15583186 -15756760 -15907235 
2532.972 -16023746 -16089300 -16084574 -15995547 -15819672 -15571903 
2533.333 -15283592 -14997618 -14753062 -14577837 -14479558 -14445394 
2533.695 -14448214 -14457925 -14454208 -14430908 -14398310 -14374686 
2534.057 -14378982 -14418952 -14486416 -14556049 -14594209 -14565757 
2534.419 -14445490 -14227912 -13931392 -13598832 -13287293 -13064439 
2534.781 -12990708 -13104498 -13415078 -13894649 -14484012 -15097828 
2535.143 -15650151 -16068162 -16307257 -16361920 -16261937 -16063916 
2535.504 -15830152 -15621097 -15478772 -15421567 -15446605 -15533668 
2535.866 -15654050 -15775293 -15871968 -15929019 -15944511 -15929721 
2536.228 -15905127 -15893308 -15909471 -15956135 -16018858 -16071100 
2536.590 -16080072 -16018795 -15875962 -15659291 -15394449 -15118085 
2536.952 -14872348 -14693007 -14608979 -14640599 -14798187 -15082466 
2537.313 -15480179 -15962651 -16480541 -16970284 -17367674 -17617888 
2537.675 -17696692 -17617412 -17432422 -17216240 -17048312 -16993736 
2538.037 -17082846 -17309474 -17634148 -18001874 -18352300 -18637564 
2538.399 -18829912 -18920326 -18915348 -18828642 -18675274 -18465298 
2538.761 -18203846 -17892826 -17535922 -17144674 -16744213 -16370982 
2539.123 -16071931 -15892796 -15862161 -15982740 -16222870 -16524019 
2539.484 -16808064 -17004346 -17068510 -16993514 -16811188 -16582387 
2539.846 -16376853 -16247416 -16219040 -16280098 -16391084 -16494609 
2540.208 -16536076 -16481051 -16323021 -16086970 -15822962 -15597923 
2540.570 -15473529 -15493512 -15669199 -15974149 -16346604 -16703403 
2540.932 -16968244 -17086222 -17044616 -16874554 -16643075 -16429210 
2541.293 -16299022 -16292896 -16413800 -16634209 -16906870 -17183978 
2541.655 -17424114 -17598480 -17691634 -17696502 -17613338 -17449354 
2542.017 -17220664 -16951580 -16670018 -16403176 -16168477 -15970699 
2542.379 -15804432 -15661433 -15538624 -15443663 -15392050 -15400589 
2542.741 -15475639 -15606649 -15765293 -15914358 -16022947 -16074676 
2543.103 -16075443 -16047694 -16022660 -16026331 -16073750 -16167520 
2543.464 -16302565 -16470844 -16663993 -16872258 -17079278 -17261012 
2543.826 -17391294 -17448050 -17426468 -17344498 -17242162 -17164964 
2544.188 -17149196 -17206112 -17317340 -17442034 -17532740 -17557496 
2544.550 -17506960 -17396260 -17251810 -17099920 -16954606 -16817564 
2544.912 -16686121 -16564591 -16468897 -16424935 -16453745 -16558690 
2545.273 -16715454 -16879336 -16994756 -17017536 -16932046 -16752215 
2545.635 -16513940 -16255299 -16003786 -15766697 -15536386 -15303552 
2545.997 -15069409 -14851632 -14678688 -14575242 -14550858 -14593440 
2546.359 -14676958 -14772278 -14864664 -14958790 -15076610 -15241557 
2546.721 -15463137 -15726820 -15996952 -16229477 -16386680 -16453106 
2547.083 -16435049 -16353624 -16227659 -16063597 -15850980 -15573053 
2547.444 -15219931 -14804111 -14364909 -13964922 -13668640 -13524325 
2547.806 -13549569 -13724310 -13997905 -14301658 -14573287 -14766513 
2548.168 -14864599 -14880545 -14853489 -14836069 -14876254 -15008117 
2548.530 -15235863 -15532485 -15842419 -16102869 -16260788 -16292896 
2548.892 -16216040 -16083553 -15966643 -15923524 -15982771 -16127773 
2549.253 -16307959 -16453490 -16507018 -16444365 -16280035 -16059127 
2549.615 -15838426 -15667889 -15573340 -15557069 -15603996 -15694765 
2549.977 -15811428 -15939815 -16066950 -16174702 -16241446 -16249076 
2550.339 -16191620 -16084256 -15961118 -15866986 -15836189 -15878582 
2550.701 -15971307 -16070398 -16125569 -16107468 -16023234 -15918447 
2551.062 -15859159 -15902124 -16073432 -16350050 -16667277 -16933894 
2551.424 -17070996 -17033658 -16825500 -16492823 -16107915 -15743179 
2551.786 -15444463 -15226456 -15071905 -14946848 -14812052 -14639863 
2552.148 -14418087 -14150946 -13853956 -13549633 -13266243 -13033507 
2552.510 -12883900 -12850317 -12957874 -13218710 -13623141 -14138599 
2552.872 -14707869 -15260687 -15730303 -16060755 -16224466 -16225137 
2553.233 -16095527 -15885610 -15651492 -15444559 -15298242 -15228856 
2553.595 -15234455 -15300641 -15403371 -15514934 -15607544 -15653538 
2553.957 -15631068 -15529384 -15352905 -15124581 -14885315 -14688810 
2554.319 -14584501 -14609267 -14773623 -15060064 -15426076 -15817659 
2554.681 -16187375 -16500000 -16739622 -16903524 -16990868 -16993194 
2555.042 -16891764 -16662048 -16289067 -15781332 -15181185 -14556818 
2555.404 -13995145 -13575710 -13345390 -13310848 -13435542 -13658044 
2555.766 -13907935 -14134686 -14317463 -14467091 -14613272 -14789604 
2556.128 -15016408 -15290981 -15586319 -15858840 -16064394 -16163880 
2556.490 -16137190 -15986318 -15735542 -15427004 -15113733 -14854801 
2556.852 -14699125 -14678080 -14796553 -15030427 -15329620 -15629567 
2557.213 -15873088 -16019849 -16061010 -16017614 -15933523 -15857562 
2557.575 -15826797 -15859351 -15950132 -16078316 -16216103 -16341656 
2557.937 -16442610 -16515758 -16564270 -16591955 -16601076 -16593453 
2558.299 -16574446 -16555117 -16551513 -16582387 -16660517 -16788588 
2558.661 -16956104 -17143880 -17328610 -17489170 -17611144 -17683968 
2559.022 -17696438 -17632874 -17471634 -17191208 -16781958 -16257087 
2559.384 -15659004 -15054783 -14529358 -14157906 -13990205 -14037462 
2559.746 -14269885 -14624101 -15020505 -15389236 -15676325 -15855357 
2560.108 -15924452 -15896982 -15792673 -15629886 -15425628 -15196702 
2560.470 -14963335 -14752902 -14595202 -14519808 -14546725 -14678945 
2560.832 -14898506 -15166178 -15431800 -15638612 -15739825 -15709786 
2561.193 -15548374 -15283655 -14964935 -14655624 -14413984 -14283672 
2561.555 -14284153 -14406997 -14618142 -14866904 -15102181 -15276842 
2561.917 -15360325 -15341070 -15223226 -15022873 -14761357 -14464175 
2562.279 -14155693 -13861338 -13607535 -13418387 -13315250 -13312293 
2562.641 -13412507 -13606636 -13873725 -14186513 -14513207 -14825918 
2563.002 -15104740 -15337968 -15524236 -15669230 -15783537 -15878517 
2563.364 -15963610 -16043959 -16119536 -16183767 -16226126 -16234010 
2563.726 -16196249 -16106669 -15967092 -15789064 -15591529 -15397838 
2564.088 -15231576 -15108325 -15032603 -14995090 -14976235 -14950690 
2564.450 -14897673 -14810803 -14703577 -14609716 -14573063 -14637812 
2564.812 -14827424 -15133477 -15508954 -15880914 -16168222 -16306171 
2565.173 -16274704 -16105680 -15879411 -15691763 -15630078 -15733881 
2565.535 -15979994 -16283289 -16526220 -16600501 -16437283 -16038179 
2565.897 -15472633 -14863702 -14339328 -14006471 -13922472 -14084328 
2566.259 -14439689 -14906607 -15402379 -15852068 -16202474 -16423531 
2566.621 -16502488 -16443759 -16268799 -16018763 -15747493 -15517235 
2566.982 -15385399 -15384790 -15516340 -15744170 -16009757 -16242340 
2567.344 -16382564 -16398391 -16287215 -16072601 -15792673 -15490858 
2567.706 -15204125 -14962247 -14788931 -14700983 -14708029 -14807697 
2568.068 -14981997 -15193279 -15390100 -15522351 -15550516 -15464032 
2568.430 -15284935 -15066465 -14875294 -14774231 -14807345 -14985550 
2568.792 -15287334 -15664404 -16060371 -16420277 -16705731 -16903142 
2569.153 -17020086 -17080648 -17113076 -17141426 -17175536 -17209266 
2569.515 -17224328 -17199424 -17120786 -16990614 -16828816 -16669158 
2569.877 -16549025 -16494226 -16513301 -16593773 -16709715 -16831112 
2570.239 -16937972 -17026648 -17109986 -17208818 -17342204 -17519468 
2570.601 -17736104 -17975490 -18214712 -18431954 -18606392 -18717802 
2570.962 -18746584 -18669560 -18466918 -18130092 -17670606 -17124864 
2571.324 -16550876 -16021445 -15601023 -15336369 -15246515 -15322584 
2571.686 -15535777 -15849255 -16230179 -16649803 -17083994 -17508774 
2572.048 -17893716 -18205624 -18414422 -18500766 -18465774 -18332256 
2572.410 -18140928 -17935846 -17756842 -17627688 -17552914 -17520614 
2572.771 -17507662 -17489520 -17439996 -17336792 -17161492 -16898202 
2573.133 -16538883 -16086809 -15562952 -15005205 -14469239 -14020587 
2573.495 -13715354 -13594690 -13669154 -13915957 -14281716 -14694928 
2573.857 -15084963 -15389748 -15572893 -15624389 -15556462 -15394257 
2574.219 -15167619 -14906766 -14638902 -14396098 -14218677 -14150626 
2574.581 -14236570 -14504042 -14947649 -15518961 -16131764 -16681084 
2574.942 -17064878 -17223500 -17153784 -16914136 -16597664 -16307607 
2575.304 -16118929 -16053027 -16078636 -16128059 -16133456 -16050536 
2575.666 -15882606 -15676230 -15505342 -15435957 -15501505 -15686905 
2576.028 -15934577 -16159602 -16277799 -16238542 -16034219 -15706079 
2576.390 -15324662 -14976843 -14734006 -14634608 -14678688 -14829185 
2576.751 -15027866 -15210716 -15332659 -15376859 -15358118 -15311932 
2577.113 -15281448 -15298338 -15370399 -15482290 -15603453 -15705535 
2577.475 -15773792 -15814975 -15852673 -15914997 -16017104 -16150951 
2577.837 -16283162 -16368207 -16360516 -16233308 -15987212 -15649416 
2578.199 -15263694 -14874589 -14522116 -14232914 -14023635 -13907261 
2578.561 -13895291 -13997263 -14215021 -14536791 -14931289 -15348907 
2578.922 -15735639 -16038561 -16222423 -16277641 -16219582 -16083106 
2579.284 -15910462 -15744139 -15614001 -15533572 -15498116 -15488524 
2579.646 -15476374 -15433015 -15341614 -15203326 -15041853 -14895977 
2580.008 -14812917 -14829729 -14959494 -15185856 -15465503 -15742445 
2580.370 -15961405 -16089013 -16118132 -16066661 -15963577 -15838841 
2580.731 -15712086 -15590475 -15475894 -15373309 -15296355 -15267757 
2581.093 -15310045 -15432311 -15621481 -15840342 -16035274 -16149865 
2581.455 -16147567 -16019944 -15792450 -15512343 -15237174 -15014007 
2581.817 -14864311 -14780797 -14730707 -14669591 -14553133 -14355035 
2582.179 -14074096 -13737569 -13391881 -13093600 -12894675 -12825547 
2582.541 -12890493 -13065243 -13308116 -13568742 -13806166 -13999926 
2582.902 -14152133 -14283062 -14418888 -14579343 -14766642 -14961638 
2583.264 -15128229 -15228248 -15231320 -15128837 -14938621 -14703513 
2583.626 -14481545 -14327594 -14284922 -14368115 -14560470 -14814614 
2583.988 -15067681 -15256497 -15333171 -15281800 -15119812 -14894952 
2584.350 -14664690 -14486352 -14398310 -14412542 -14517341 -14684742 
2584.711 -14883170 -15082914 -15263215 -15410567 -15515764 -15573756 
2585.073 -15586128 -15565541 -15536993 -15538367 -15610517 -15781045 
2585.435 -16054368 -16403655 -16778482 -17113714 -17354494 -17471476 
2585.797 -17466860 -17369646 -17222704 -17066090 -16922740 -16798438 
2586.159 -16686058 -16577188 -16468992 -16366962 -16279077 -16208986 
2586.521 -16149450 -16084574 -15995258 -15872288 -15722057 -15569345 
2586.882 -15446605 -15384855 -15400429 -15489931 -15632732 -15800087 
2587.244 -15967218 -16116854 -16241001 -16335946 -16395455 -16408760 
2587.606 -16364537 -16258204 -16099421 -15915539 -15746918 -15631389 
2587.968 -15594406 -15636822 -15736341 -15854176 -15952494 -16009757 
2588.330 -16026651 -16024927 -16036455 -16090449 -16199058 -16353272 
2588.691 -16524753 -16676812 -16773924 -16792254 -16726326 -16588861 
2589.053 -16408121 -16219551 -16062895 -15970955 -15963800 -16044501 
2589.415 -16196536 -16387446 -16574541 -16720301 -16798852 -16804718 
2589.777 -16749728 -16656881 -16548324 -16434411 -16311597 -16166210 
2590.139 -15985582 -15767943 -15529640 -15302976 -15127269 -15033051 
2590.500 -15032315 -15113189 -15247411 -15399437 -15539966 -15655136 
2590.862 -15745193 -15817659 -15877655 -15921833 -15938601 -15917201 
2591.224 -15857466 -15777722 -15714420 -15712822 -15806604 -16005542 
2591.586 -16284725 -16591987 -16858364 -17020692 -17042992 -16921050 
2591.948 -16682966 -16374236 -16047183 -15743084 -15489164 -15301153 
2592.310 -15186112 -15148964 -15191872 -15311836 -15493863 -15707932 
2592.671 -15914166 -16065801 -16124612 -16071483 -15910653 -15668528 
2593.033 -15384151 -15099620 -14845227 -14634608 -14463822 -14316566 
2593.395 -14171536 -14011605 -13832293 -13645201 -13477718 -13365953 
2593.757 -13348796 -13453210 -13684180 -14017250 -14402381 -14771638 
2594.119 -15053663 -15199007 -15190176 -15049406 -14828608 -14597990 
2594.480 -14421356 -14336859 -14353337 -14451067 -14595202 -14748418 
2594.842 -14884611 -14991793 -15067105 -15109925 -15115460 -15072961 
2595.204 -14972362 -14812757 -14610325 -14398118 -14222845 -14129971 
2595.566 -14148477 -14283511 -14511957 -14788900 -15056480 -15263694 
2595.928 -15374941 -15377947 -15284679 -15127781 -14951747 -14800108 
2596.290 -14711585 -14710464 -14803343 -14979596 -15215355 -15480019 
2596.651 -15740750 -15970986 -16151365 -16268767 -16315140 -16284980 
2597.013 -16176138 -15993344 -15753374 -15488364 -15241301 -15062560 
2597.375 -14993713 -15055135 -15237814 -15504222 -15796956 -16052485 
2597.737 -16223572 -16287565 -16251564 -16144790 -16009184 -15884459 
2598.099 -15796540 -15757814 -15767401 -15818713 -15904615 -16019849 
2598.460 -16160496 -16318936 -16481148 -16625216 -16722724 -16747687 
2598.822 -16681593 -16520733 -16278788 -15987851 -15691955 -15436948 
2599.184 -15266958 -15211324 -15280297 -15463329 -15731644 -16042713 
2599.546 -16348295 -16606688 -16786548 -16872098 -16863240 -16772043 
2599.908 -16617659 -16421426 -16206017 -15993152 -15802708 -15654337 
2600.270 -15562568 -15534627 -15566244 -15642064 -15736852 -15821014 
2600.631 -15871873 -15878359 -15847212 -15799800 -15767593 -15780278 
2600.993 -15854526 -15988106 -16158581 -16329436 -16458370 -16514450 
2601.355 -16486444 -16389074 -16258683 -16146576 -16102422 -16157048 
2601.717 -16314149 -16543763 -16791618 -16986026 -17060260 -16968342 
2602.079 -16692625 -16247576 -15673930 -15030363 -14376289 -13770023 
2602.440 -13262548 -12893291 -12695787 -12692569 -12890397 -13275434 
2602.802 -13807995 -14426516 -15049471 -15599106 -16014164 -16264427 
2603.164 -16358506 -16338371 -16267363 -16206432 -16203271 -16279204 
2603.526 -16428126 -16622538 -16826204 -17004888 -17131838 -17192544 
2603.888 -17182704 -17105050 -16966876 -16779376 -16558945 -16326116 
2604.250 -16107468 -15932724 -15829161 -15818873 -15912952 -16108744 
2604.611 -16388595 -16722374 -17072494 -17396134 -17656386 -17826812 
2604.973 -17895274 -17866784 -17760214 -17602776 -17419688 -17229902 
2605.335 -17039902 -16844116 -16628565 -16377427 -16079817 -15733657 
2605.697 -15347276 -14938877 -14534965 -14163711 -13854759 -13634829 
2606.059 -13523040 -13528757 -13648572 -13865414 -14149022 -14462060 
2606.420 -14767570 -15032155 -15234071 -15364098 -15425213 -15430009 
2606.782 -15398126 -15355048 -15325974 -15334130 -15393681 -15503455 
2607.144 -15641522 -15766347 -15827594 -15774174 -15576282 -15236663 
2607.506 -14797257 -14328748 -13915733 -13637719 -13542985 -13644301 
2607.868 -13917048 -14312911 -14770037 -15227417 -15636312 -15956614 
2608.229 -16161837 -16239883 -16196249 -16057657 -15873119 -15710138 
2608.591 -15633563 -15691571 -15894745 -16210007 -16562900 -16858172 
2608.953 -17012630 -16970634 -16724668 -16310990 -15799640 -15266958 
2609.315 -14777850 -14375936 -14076951 -13876935 -13758531 -13700200 
2609.677 -13677051 -13662154 -13630045 -13558241 -13436697 -13274631 
2610.039 -13106557 -12986463 -12974918 -13125524 -13461882 -13967970 
2610.400 -14584277 -15224826 -15791364 -16199600 -16404836 -16408218 
2610.762 -16257884 -16029589 -15812483 -15678372 -15662935 -15759796 
2611.124 -15924228 -16090386 -16190056 -16180798 -16054144 -15839193 
2611.486 -15586287 -15353128 -15181217 -15082979 -15040156 -15013367 
2611.848 -14958790 -14842441 -14652869 -14404080 -14130324 -13874817 
2612.209 -13679684 -13579340 -13591767 -13718789 -13944226 -14238429 
2612.571 -14557363 -14852688 -15083075 -15219802 -15258640 -15220026 
2612.933 -15145284 -15080066 -15060864 -15101060 -15184577 -15269517 
2613.295 -15299394 -15224857 -15014967 -14671545 -14228842 -13752624 
2613.657 -13324536 -13024215 -12920791 -13051578 -13415013 -13965788 
2614.019 -14625350 -15290853 -15855454 -16240202 -16402984 -16353527 
2614.380 -16145077 -15864940 -15607640 -15449164 -15437204 -15578391 
2614.742 -15843121 -16173011 -16501404 -16763786 -16910440 -16919364 
2615.104 -16797642 -16582226 -16327647 -16098177 -15947161 -15899729 
2615.466 -15946809 -16045108 -16132243 -16141821 -16031537 -15794495 
2615.828 -15464000 -15099588 -14772566 -14544129 -14446259 -14481192 
2616.189 -14623332 -14833732 -15067233 -15285543 -15461090 -15574076 
2616.551 -15612754 -15571711 -15452361 -15263790 -15024506 -14760621 
2616.913 -14500741 -14273251 -14101681 -14000472 -13976505 -14028608 
2617.275 -14149182 -14324902 -14539034 -14773975 -15013015 -15246196 
2617.637 -15470235 -15689397 -15911516 -16142586 -16380362 -16612684 
2617.999 -16815714 -16959928 -17018334 -16970190 -16808002 -16538627 
2618.360 -16183289 -15772993 -15345708 -14943199 -14601898 -14350323 
2618.722 -14203188 -14158548 -14199693 -14300857 -14437318 -14589787 
2619.084 -14749475 -14914834 -15083235 -15243701 -15373309 -15439507 
2619.446 -15414180 -15285383 -15069474 -14809106 -14569923 -14420362 
2619.808 -14410586 -14563964 -14867865 -15281256 -15740145 -16175596 
2620.169 -16524658 -16735222 -16776474 -16641129 -16347943 -15938153 
2620.531 -15472985 -15021753 -14641400 -14370807 -14219767 -14173781 
2620.893 -14205850 -14292520 -14424657 -14608274 -14855442 -15170210 
2621.255 -15536194 -15916338 -16258938 -16514450 -16654076 -16673399 
2621.617 -16591029 -16434252 -16228775 -15990404 -15729567 -15462305 
2621.979 -15217659 -15036604 -14961030 -15009046 -15158883 -15341679 
2622.340 -15465247 -15436308 -15202718 -14777050 -14239969 -13715546 
2622.702 -13325660 -13163200 -13257920 -13578826 -14049684 -14583284 
2623.064 -15102308 -15551571 -15903817 -16147982 -16283033 -16315235 
2623.426 -16261747 -16153440 -16031824 -15942497 -15916593 -15958531 
2623.788 -16041467 -16118929 -16144374 -16091887 -15972201 -15830152 
2624.149 -15729407 -15721578 -15829416 -16032526 -16276939 -16488517 
2624.511 -16602542 -16583407 -16431062 -16178884 -15879316 -15592136 
2624.873 -15363299 -15220858 -15168962 -15191328 -15256241 -15326870 
2625.235 -15375196 -15388885 -15378394 -15371743 -15406345 -15509658 
2625.597 -15685754 -15907617 -16124612 -16277608 -16318746 -16233819 
2625.958 -16046034 -15811397 -15594726 -15457286 -15436149 -15539071 
2626.320 -15750274 -16039521 -16371747 -16707228 -17005684 -17223626 
2626.682 -17316734 -17253656 -17025916 -16659049 -16208123 -15750274 
2627.044 -15361221 -15090563 -14955427 -14937692 -15000851 -15104612 
2627.406 -15223417 -15348779 -15481522 -15620233 -15751231 -15848713 
2627.768 -15887367 -15856348 -15772225 -15675431 -15621640 -15656447 
2628.129 -15796540 -16023746 -16293501 -16555468 -16773032 -16939216 
2628.491 -17072938 -17205888 -17359650 -17533886 -17704008 -17836350 
2628.853 -17904400 -17907548 -17871426 -17840104 -17851456 -17918010 
2629.215 -18018150 -18103968 -18120526 -18028800 -17825062 -17542094 
2629.577 -17238116 -16970060 -16778768 -16674899 -16643075 -16652929 
2629.938 -16677991 -16705157 -16735094 -16773893 -16822090 -16866074 
2630.300 -16880960 -16839684 -16726805 -16549569 -16339678 -16143830 
2630.662 -16004138 -15946236 -15965909 -16033772 -16103124 -16130358 
2631.024 -16089268 -15977599 -15815614 -15636886 -15476789 -15359909 
2631.386 -15297187 -15285511 -15311644 -15356807 -15401549 -15430361 
2631.748 -15433910 -15413444 -15382136 -15365762 -15393937 -15491274 
2632.109 -15664885 -15895544 -16135594 -16317597 -16378768 -16275503 
2632.471 -16004680 -15605147 -15152676 -14735254 -14425009 -14264915 
2632.833 -14254462 -14356446 -14510195 -14656233 -14748162 -14763920 
2633.195 -14707869 -14606128 -14498562 -14427382 -14433087 -14544129 
2633.557 -14770580 -15101125 -15503455 -15931031 -16329562 -16654139 
2633.918 -16875478 -16984178 -16986918 -16898838 -16735636 -16509378 
2634.280 -16232956 -15926719 -15622887 -15368257 -15211772 -15188480 
2634.642 -15306590 -15537792 -15823219 -16085405 -16258938 -16303523 
2635.004 -16216902 -16029526 -15794400 -15569441 -15400237 -15320568 
2635.366 -15348459 -15488332 -15732251 -16057018 -16421331 -16762991 
2635.728 -17013872 -17110974 -17016804 -16734648 -16310958 -15825646 
2636.089 -15364259 -15004468 -14793287 -14743550 -14841096 -15056480 
2636.451 -15356647 -15705887 -16069280 -16406080 -16670305 -16821516 
2636.813 -16833470 -16707899 -16476968 -16199505 -15941666 -15754076 
2637.175 -15661305 -15653986 -15699400 -15754651 -15787115 -15782066 
2637.537 -15743468 -15685562 -15623142 -15563751 -15507452 -15450411 
2637.898 -15392146 -15338160 -15299938 -15288230 -15307198 -15350218 
2638.260 -15401132 -15439027 -15442545 -15397646 -15297826 -15145413 
2638.622 -14950050 -14729842 -14510483 -14321086 -14193472 -14151652 
2638.984 -14204087 -14340770 -14533811 -14747297 -14946977 -15114341 
2639.346 -15250066 -15371263 -15499075 -15647402 -15812228 -15971594 
2639.708 -16088406 -16123910 -16049579 -15851811 -15536737 -15127237 
2640.069 -14663184 -14194787 -13780552 -13483373 -13354066 -13422146 
2640.431 -13679460 -14078522 -14531312 -14932026 -15190016 -15247955 
2640.793 -15106437 -14820154 -14487410 -14213867 -14085580 -14150273 
2641.155 -14405426 -14806096 -15279241 -15749730 -16149513 -16430264 
2641.517 -16569916 -16567364 -16441271 -16222743 -15953645 -15676422 
2641.878 -15428570 -15239318 -15124037 -15085635 -15116485 -15203166 
2642.240 -15328437 -15472793 -15617644 -15743818 -15835391 -15882319 
2642.602 -15881967 -15839033 -15761968 -15659196 -15534819 -15390132 
2642.964 -15227704 -15057855 -14901612 -14788803 -14744318 -14776121 
2643.326 -14863286 -14959046 -15000115 -14936700 -14756553 -14499684 
2643.688 -14249396 -14104440 -14145815 -14395458 -14804848 -15262255 
2644.049 -15639571 -15826413 -15776476 -15521487 -15162883 -14832675 
2644.411 -14644155 -14665875 -14897450 -15281448 -15724070 -16134063 
2644.773 -16443728 -16621549 -16671868 -16622698 -16510399 -16364664 
2645.135 -16205475 -16040606 -15870690 -15693743 -15510201 -15324439 
2645.497 -15144517 -14978700 -14832579 -14705627 -14590588 -14477187 
2645.858 -14356991 -14231856 -14117847 -14044584 -14044198 -14141870 
2646.220 -14340417 -14614233 -14910160 -15165986 -15329461 -15375612 
2646.582 -15317594 -15201854 -15093411 -15047070 -15095363 -15236918 
2646.944 -15444591 -15677765 -15901580 -16099868 -16273651 -16433487 
2647.306 -16584907 -16717240 -16802772 -16804814 -16692149 -16457412 
2647.667 -16124964 -15751712 -15407625 -15164419 -15070465 -15137637 
2648.029 -15338320 -15615247 -15899345 -16122792 -16241351 -16238734 
2648.391 -16125984 -15931766 -15692752 -15443823 -15211420 -15016760 
2648.753 -14878239 -14813461 -14839976 -14969001 -15197311 -15501154 
2649.115 -15837595 -16153792 -16398007 -16539233 -16574413 -16529538 
2649.477 -16445769 -16366739 -16321873 -16316447 -16335594 -16352283 
2649.838 -16341275 -16283864 -16171254 -15999155 -15762608 -15455782 
2650.200 -15078818 -14649762 -14210724 -13831009 -13594176 -13568902 
2650.562 -13791241 -14244490 -14864503 -15551667 -16208379 -16767867 
2650.924 -17207608 -17549382 -17839978 -18126722 -18432842 -18749790 
2651.286 -19042342 -19267696 -19389076 -19390312 -19276256 -19066444 
2651.647 -18784442 -18450372 -18082134 -17696246 -17312246 -16953556 
2652.009 -16641065 -16387701 -16192259 -16041467 -15914997 -15795965 
2652.371 -15678883 -15570591 -15484367 -15429754 -15405482 -15397679 
2652.733 -15387957 -15364067 -15331124 -15313627 -15349259 -15468924 
2653.095 -15682973 -15967602 -16270619 -16519425 -16645657 -16607836 
2653.457 -16399603 -16053218 -15626881 -15194175 -14822268 -14564316 
2653.818 -14457124 -14517950 -14748867 -15135813 -15651716 -16252713 
2654.180 -16882074 -17480610 -17988014 -18357318 -18561154 -18592204 
2654.542 -18463076 -18201334 -17846910 -17444134 -17041144 -16686408 
2654.904 -16417854 -16259225 -16209528 -16241735 -16302438 -16326563 
2655.266 -16258907 -16067684 -15762417 -15391155 -15033051 -14768275 
2655.627 -14657578 -14722539 -14939069 -15244468 -15554863 -15797243 
2655.989 -15918894 -15903337 -15765516 -15543834 -15283432 -15024825 
2656.351 -14802510 -14642297 -14566719 -14597445 -14750628 -15030971 
2656.713 -15421919 -15883565 -16351325 -16750460 -17018588 -17119352 
2657.075 -17059496 -16885710 -16677257 -16516587 -16466506 -16553363 
2657.437 -16759388 -17029388 -17288970 -17473162 -17540090 -17484492 
2657.798 -17333194 -17135500 -16943262 -16793020 -16701266 -16661059 
2658.160 -16652385 -16650282 -16636824 -16604392 -16553715 -16488517 
2658.522 -16409462 -16311405 -16186418 -16027832 -15837179 -15627073 
2658.884 -15420128 -15240950 -15108389 -15030075 -15001107 -15007445 
2659.246 -15033403 -15069282 -15113573 -15172226 -15252018 -15355527 
2659.607 -15476789 -15603549 -15720619 -15817180 -15890496 -15945947 
2659.969 -15993599 -16042266 -16097793 -16160974 -16231520 -16310863 
2660.331 -16402889 -16511356 -16633796 -16755657 -16847590 -16870824 
2660.693 -16789034 -16578592 -16242182 -15809575 -15337585 -14891527 
2661.055 -14534837 -14316791 -14259528 -14357696 -14578638 -14872059 
2661.417 -15172866 -15416226 -15552210 -15554896 -15433655 -15233016 
2661.778 -15026074 -14889318 -14879839 -15016600 -15270157 -15570943 
2662.140 -15828906 -15970092 -15952718 -15782481 -15502113 -15176513 
2662.502 -14864183 -14601802 -14403887 -14269532 -14197673 -14197737 
2662.864 -14287006 -14481097 -14777082 -15144965 -15526283 -15850564 
2663.226 -16063150 -16140735 -16104626 -16009184 -15926719 -15916210 
2663.587 -16004520 -16180001 -16400496 -16609240 -16751386 -16791808 
2663.949 -16715359 -16524753 -16233500 -15861906 -15435605 -14984046 
2664.311 -14545796 -14162525 -13872121 -13704695 -13673263 -13772110 
2664.673 -13980515 -14270077 -14609364 -14967784 -15320345 -15643375 
2665.035 -15916593 -16125826 -16263438 -16331956 -16341275 -16303683 
2665.396 -16226573 -16106924 -15930776 -15680768 -15346604 -14937148 
2665.758 -14483692 -14040509 -13672685 -13436087 -13370099 -13485781 
2666.120 -13767455 -14177181 -14666484 -15183873 -15675783 -16096229 
2666.482 -16406685 -16580792 -16612332 -16518692 -16341211 -16133903 
2666.844 -15955528 -15850661 -15837723 -15905574 -16018411 -16130103 
2667.206 -16194940 -16183320 -16085500 -15909279 -15672682 -15399502 
2667.567 -15115012 -14843690 -14612984 -14452541 -14388213 -14439497 
2667.929 -14610036 -14884771 -15229816 -15601567 -15956614 -16258586 
2668.291 -16487846 -16638992 -16717687 -16732736 -16690712 -16593836 
2668.653 -16441589 -16234744 -15981175 -15697354 -15410471 -15153220 
2669.015 -14957028 -14847693 -14836390 -14917267 -15064416 -15238614 
2669.376 -15390643 -15471930 -15449611 -15312220 -15078275 -14791333 
2669.738 -14515962 -14319740 -14255200 -14350195 -14597317 -14956485 
2670.100 -15362116 -15744586 -16042650 -16217284 -16260533 -16192354 
2670.462 -16052868 -15887111 -15736885 -15627777 -15565637 -15537792 
2670.824 -15518801 -15479316 -15392498 -15243093 -15031515 -14776537 
2671.186 -14511636 -14283800 -14145366 -14139754 -14294797 -14610228 
2671.547 -15054783 -15564998 -16061010 -16465357 -16716348 -16789862 
2671.909 -16701905 -16505582 -16267683 -16054017 -15908672 -15841940 
2672.271 -15834145 -15846029 -15838234 -15781235 -15665524 -15499427 
2672.633 -15301633 -15090884 -14879839 -14674780 -14479206 -14299190 
2672.995 -14147579 -14039066 -13986483 -13991809 -14043268 -14116019 
2673.356 -14182600 -14224834 -14242213 -14255296 -14298997 -14412349 
2673.718 -14621281 -14929977 -15317529 -15746728 -16172595 -16555946 
2674.080 -16872992 -17114670 -17282856 -17382540 -17415232 -17376078 
2674.442 -17257318 -17052550 -16763628 -16404485 -16003275 -15595173 
2674.804 -15220602 -14917811 -14714275 -14624197 -14643323 -14749411 
2675.166 -14902060 -15051614 -15149924 -15157187 -15055776 -14852752 
2675.527 -14580176 -14283608 -14013048 -13811880 -13706204 -13706075 
2675.889 -13807033 -13997681 -14261356 -14579696 -14931930 -15291140 
2676.251 -15627746 -15914295 -16131699 -16278246 -16371174 -16444109 
2676.613 -16531132 -16656563 -16821262 -17002052 -17156172 -17239772 
2676.975 -17225888 -17115020 -16937878 -16745137 -16595623 -16534545 
2677.336 -16584810 -16743096 -16984878 -17271966 -17559882 -17809162 
2677.698 -17982644 -18050828 -17995900 -17814186 -17521090 -17149930 
2678.060 -16749568 -16369035 -16045108 -15794111 -15606873 -15457190 
2678.422 -15314619 -15160515 -14996210 -14843338 -14733365 -14697651 
2678.784 -14754375 -14902957 -15127973 -15406378 -15714483 -16029237 
2679.146 -16329436 -16590806 -16785242 -16888386 -16888546 -16799204 
2679.507 -16661091 -16540764 -16510015 -16619699 -16883510 -17265694 
2679.869 -17690870 -18058486 -18279302 -18295980 -18096022 -17710276 
2680.231 -17201398 -16645720 -16111042 -15655585 -15321144 -15133189 
2680.593 -15103525 -15227321 -15479635 -15810248 -16152259 -16431859 
2680.955 -16581781 -16564399 -16378768 -16064394 -15685210 -15318586 
2681.316 -15032475 -14868890 -14842985 -14942623 -15140325 -15400141 
2681.678 -15688919 -15979482 -16248310 -16475564 -16641129 -16723713 
2682.040 -16704837 -16572373 -16326724 -15984785 -15582995 -15172962 
2682.402 -14809298 -14543937 -14409432 -14412125 -14531985 -14731059 
2682.764 -14966888 -15205917 -15436373 -15668591 -15928093 -16239308 
2683.125 -16612811 -17035378 -17473098 -17878328 -18207404 -18435224 
2683.487 -18558456 -18594616 -18570456 -18511276 -18430810 -18330414 
2683.849 -18204132 -18047268 -17863732 -17667902 -17480418 -17322498 
2684.211 -17208118 -17140342 -17111420 -17108076 -17115020 -17117632 
2684.573 -17103712 -17062108 -16981404 -16852180 -16668966 -16433040 
2684.935 -16154813 -15852930 -15551411 -15273739 -15041565 -14869786 
2685.296 -14766033 -14730547 -14754632 -14820282 -14898858 -14958341 
2685.658 -14967784 -14910512 -14792998 -14650819 -14543233 -14533523 
2686.020 -14675581 -14989519 -15452936 -16002029 -16551387 -17017696 
2686.382 -17337334 -17486180 -17477300 -17351214 -17155822 -16935042 
2686.744 -16718101 -16517384 -16334828 -16167231 -16010780 -15860341 
2687.105 -15710138 -15552274 -15380985 -15198302 -15018776 -14871003 
2687.467 -14788451 -14800268 -14916531 -15121637 -15372958 -15614097 
2687.829 -15795549 -15886791 -15889985 -15835200 -15770435 -15739026 
2688.191 -15765611 -15848458 -15962780 -16071931 -16141469 -16153887 
2688.553 -16110787 -16032431 -15946459 -15882447 -15861364 -15892988 
2688.915 -15975937 -16099038 -16244320 -16387191 -16502202 -16565483 
2689.276 -16560158 -16482551 -16344210 -16170902 -15992863 -15838744 
2689.638 -15724007 -15646955 -15589676 -15527721 -15439762 -15316891 
2690.000 -15166467 -15009750 -14873916 -14779804 -14736599 -14738297 
2690.362 -14769267 -14810611 -14849134 -14883266 -14921525 -14978988 
2690.724 -15068321 -15194815 -15352553 -15525675 -15692912 -15835134 
2691.085 -15941219 -16011674 -16058583 -16103955 -16174063 -16290853 
2691.447 -16468547 -16706305 -16986184 -17272220 -17517368 -17672324 
2691.809 -17692652 -17553710 -17254454 -16820496 -16295353 -15735256 
2692.171 -15195775 -14719336 -14335705 -14059211 -13894072 -13840027 
2692.533 -13894168 -14050807 -14295887 -14603949 -14937340 -15247444 
2692.895 -15490219 -15632540 -15664438 -15599361 -15471642 -15322936 
2693.256 -15188128 -15089507 -15032731 -15011158 -15015159 -15038460 
2693.618 -15081123 -15146628 -15235063 -15338576 -15439955 -15519729 
2693.980 -15563015 -15568513 -15549877 -15531334 -15536993 -15578104 
2694.342 -15648745 -15727393 -15787276 -15806701 -15780820 -15721578 
2694.704 -15652196 -15593736 -15557325 -15539262 -15526731 -15506460 
2695.065 -15475894 -15445998 -15438164 -15470043 -15544473 -15639603 
2695.427 -15714707 -15720109 -15612946 -15376444 -15025306 -14604526 
2695.789 -14174487 -13801512 -13539773 -13419896 -13447684 -13602558 
2696.151 -13844842 -14118874 -14368275 -14547237 -14630700 -14625190 
2696.513 -14568482 -14521251 -14542975 -14676734 -14928697 -15266989 
2696.875 -15629247 -15948597 -16178755 -16305756 -16350783 -16352028 
2697.236 -16343348 -16331637 -16290948 -16173042 -15934609 -15559020 
2697.598 -15074818 -14548231 -14070054 -13722352 -13551014 -13557919 
2697.960 -13704599 -13933157 -14184717 -14421709 -14628906 -14806865 
2698.322 -14959046 -15082083 -15163011 -15187936 -15150276 -15061825 
2698.684 -14950434 -14855057 -14809394 -14829537 -14907567 -15014647 
2699.045 -15112581 -15164867 -15152164 -15076034 -14956933 -14825662 
2699.407 -14716133 -14656008 -14661166 -14736216 -14874941 -15064481 
2699.769 -15286279 -15520656 -15748166 -15950035 -16110308 -16214890 
2700.131 -16252171 -16213901 -16095750 -15899122 -15629886 -15299138 
2700.493 -14920437 -14505676 -14067295 -13617521 -13172681 -12760849 
2700.854 -12420115 -12198684 -12147199 -12300669 -12668176 -13222406 
2701.216 -13903699 -14625222 -15295203 -15840534 -16214604 -16408887 
2701.578 -16446661 -16375672 -16250703 -16123910 -16038179 -16017741 
2701.940 -16067397 -16169084 -16287183 -16369674 -16362846 -16229127 
2702.302 -15959425 -15585072 -15170722 -14805743 -14571813 -14519488 
2702.664 -14652709 -14926968 -15262767 -15568386 -15775995 -15853025 
2703.025 -15810821 -15691090 -15550420 -15434678 -15364642 -15332627 
2703.387 -15309597 -15260207 -15156387 -14991152 -14782750 -14571813 
2703.749 -14406419 -14331794 -14373211 -14526313 -14755304 -14999795 
2704.111 -15194815 -15283688 -15240502 -15076514 -14838695 -14591646 
2704.473 -14397124 -14297490 -14300953 -14386258 -14512886 -14642970 
2704.834 -14750211 -14829025 -14888548 -14943583 -15003156 -15066657 
2705.196 -15126725 -15178369 -15226264 -15287750 -15384982 -15533987 
2705.558 -15730590 -15946938 -16133009 -16231775 -16201548 -16027672 
2705.920 -15732348 -15366306 -15000467 -14703320 -14525576 -14494011 
2706.282 -14607377 -14841481 -15154532 -15499299 -15825966 -16088853 
2706.644 -16256001 -16310416 -16256703 -16120078 -15945692 -15788106 
2707.005 -15698409 -15717264 -15861107 -16119791 -16456392 -16817978 
2707.367 -17142572 -17372354 -17468834 -17417716 -17235122 -16960278 
2707.729 -16651046 -16365908 -16148172 -16018348 -15967697 -15964121 
2708.091 -15961215 -15917009 -15803730 -15615887 -15369696 -15097988 
2708.453 -14841929 -14638517 -14520001 -14507695 -14610869 -14827007 
2708.814 -15140932 -15525740 -15942689 -16350178 -16709238 -16990964 
2709.176 -17184518 -17296228 -17345484 -17354334 -17340262 -17308328 
2709.538 -17250694 -17150982 -16992908 -16767995 -16481817 -16155196 
2709.900 -15821014 -15521456 -15295779 -15176610 -15181537 -15308349 
2710.262 -15533796 -15816221 -16107563 -16359303 -16539011 -16637877 
2710.624 -16672155 -16675854 -16688418 -16742013 -16848258 -16996826 
2710.985 -17159708 -17304634 -17403996 -17443880 -17423764 -17351820 
2711.347 -17235442 -17076634 -16870602 -16611472 -16298799 -15944064 
2711.709 -15571008 -15211708 -14901675 -14669046 -14533523 -14505740 
2712.071 -14587738 -14774680 -15051806 -15393649 -15755674 -16081221 
2712.433 -16310640 -16392870 -16306968 -16071547 -15746536 -15413221 
2712.794 -15155076 -15031323 -15055967 -15198463 -15394481 -15576378 
2713.156 -15690548 -15719725 -15682174 -15621033 -15580373 -15585967 
2713.518 -15636312 -15705600 -15757814 -15764909 -15721962 -15650470 
2713.880 -15589772 -15578551 -15640754 -15773056 -15946841 -16115544 
2714.242 -16233947 -16272757 -16224977 -16106477 -15947098 -15780788 
2714.604 -15631964 -15513143 -15423870 -15356071 -15298786 -15242453 
2714.965 -15180865 -15108837 -15021657 -14913970 -14781982 -14627432 
2715.327 -14460522 -14303709 -14185358 -14135648 -14176635 -14311212 
2715.689 -14518847 -14756169 -14970602 -15107621 -15132133 -15039132 
2716.051 -14857907 -14643323 -14460522 -14368724 -14398855 -14548231 
2716.413 -14780092 -15040604 -15271500 -15428666 -15494375 -15475894 
2716.774 -15399502 -15296995 -15197023 -15115973 -15056159 -15009046 
2717.136 -14959333 -14889766 -14784032 -14632687 -14436292 -14212104 
2717.498 -13994793 -13837685 -13802218 -13938066 -14269147 -14774231 
2717.860 -15387253 -16000528 -16499650 -16791870 -16831524 -16636377 
2718.222 -16280193 -15871968 -15512855 -15277610 -15191711 -15234903 
2718.583 -15356007 -15498820 -15624644 -15719213 -15793122 -15867496 
2718.945 -15960256 -16072951 -16187981 -16274353 -16302181 -16252521 
2719.307 -16126815 -15944893 -15739601 -15543419 -15376444 -15242965 
2719.669 -15131461 -15025114 -14912562 -14800140 -14714819 -14701335 
2720.031 -14803951 -15052479 -15443216 -15934959 -16449405 -16890234 
2720.393 -17172194 -17234136 -17059496 -16673462 -16134445 -15511640 
2720.754 -14870042 -14263985 -13730345 -13297030 -12988232 -12823038 
2721.116 -12813129 -12953211 -13217457 -13556955 -13912170 -14232273 
2721.478 -14485102 -14670071 -14813078 -14953603 -15122917 -15330292 
2721.840 -15555119 -15756376 -15885003 -15904488 -15805487 -15609750 
2722.202 -15364002 -15122277 -14936348 -14837766 -14833667 -14908656 
2722.563 -15032379 -15168034 -15279945 -15341358 -15334066 -15248019 
2722.925 -15079875 -14830434 -14506894 -14125160 -13717087 -13332088 
2723.287 -13032285 -12889239 -12959899 -13269232 -13794547 -14466290 
2723.649 -15176065 -15803089 -16256098 -16490972 -16526476 -16428573 
2724.011 -16288778 -16184917 -16154047 -16186481 -16236788 -16250417 
2724.373 -16187087 -16040765 -15836956 -15618796 -15422974 -15267853 
2724.734 -15148036 -15046366 -14947937 -14853649 -14780989 -14756521 
2725.096 -14798154 -14902732 -15042365 -15174370 -15256944 -15263694 
2725.458 -15192864 -15064321 -14909072 -14755080 -14622723 -14524358 
2725.820 -14469719 -14472988 -14552653 -14723788 -14987919 -15323383 
2726.182 -15684316 -16006980 -16232254 -16318778 -16256735 -16068099 
2726.543 -15799958 -15509849 -15247892 -15053279 -14946977 -14933979 
2726.905 -15005461 -15141413 -15312124 -15479731 -15608598 -15673865 
2727.267 -15671181 -15620425 -15561289 -15538176 -15578232 -15679074 
2727.629 -15803089 -15892286 -15884874 -15746631 -15487629 -15166882 
2727.991 -14872508 -14697267 -14710816 -14931930 -15325719 -15809288 
2728.353 -16284214 -16652195 -16845198 -16840322 -16657455 -16350305 
2728.714 -15987275 -15640657 -15366210 -15197983 -15146213 -15198719 
2729.076 -15324343 -15477237 -15607960 -15664788 -15605147 -15405482 
2729.438 -15067009 -14621538 -14126186 -13660420 -13303200 -13114529 
2729.800 -13123016 -13314703 -13638683 -14020523 -14391258 -14700278 
2730.162 -14930585 -15094915 -15223161 -15343470 -15465439 -15576186 
2730.523 -15646474 -15644750 -15551315 -15368608 -15121317 -14849422 
2730.885 -14593440 -14386707 -14249204 -14185519 -14189078 -14244330 
2731.247 -14330864 -14423311 -14497569 -14536663 -14538169 -14520802 
2731.609 -14522468 -14593665 -14775929 -15086883 -15504574 -15972137 
2731.971 -16404741 -16714020 -16837838 -16749442 -16465612 -16034156 
2732.333 -15522798 -14996306 -14506445 -14092540 -13778176 -13577509 
2732.694 -13495867 -13527247 -13652682 -13839514 -14050101 -14247633 
2733.056 -14408022 -14525897 -14611734 -14684390 -14759628 -14843434 
2733.418 -14930042 -15007317 -15066561 -15109860 -15153508 -15223226 
2733.780 -15342606 -15524236 -15760306 -16023330 -16268129 -16443823 
2734.142 -16506029 -16423276 -16187662 -15816029 -15351210 -14851375 
2734.503 -14383244 -14009936 -13773683 -13691853 -13754807 -13934408 
2734.865 -14192318 -14493755 -14814806 -15137669 -15446190 -15718224 
2735.227 -15919851 -16015697 -15978238 -15804145 -15520688 -15185985 
2735.589 -14873949 -14649217 -14555569 -14602603 -14772182 -15029850 
2735.951 -15342957 -15691314 -16066151 -16463060 -16870506 -17260822 
2736.312 -17595172 -17829866 -17931490 -17887610 -17708556 -17421344 
2736.674 -17055768 -16638195 -16184533 -15705343 -15215419 -14740603 
2737.036 -14320285 -14004867 -13839385 -13853379 -14050550 -14406837 
2737.398 -14872604 -15382105 -15870947 -16278278 -16561687 -16702160 
2737.760 -16704200 -16595781 -16419895 -16228585 -16066311 -15963513 
2738.122 -15930839 -15960416 -16033772 -16131252 -16241096 -16359814 
2738.483 -16489919 -16632264 -16780556 -16920606 -17035920 -17114860 
2738.845 -17158308 -17181556 -17209424 -17264196 -17357040 -17480164 
2739.207 -17610538 -17713998 -17757670 -17720614 -17596920 -17398298 
2739.569 -17149548 -16889182 -16661251 -16512951 -16489474 -16619509 
2739.931 -16906966 -17319760 -17793006 -18233426 -18540804 -18639312 
2740.292 -18491304 -18114202 -17573056 -16971082 -16417310 -16001327 
2740.654 -15781235 -15768358 -15932979 -16212050 -16530653 -16810456 
2741.016 -16986088 -17019480 -16900528 -16650440 -16310863 -15938506 
2741.378 -15588141 -15300225 -15098884 -14988815 -14960998 -14997906 
2741.740 -15079427 -15181313 -15273707 -15324471 -15299778 -15176225 
2742.102 -14952003 -14655560 -14343720 -14085419 -13948238 -13971596 
2742.463 -14157810 -14471739 -14858708 -15262095 -15640626 -15978141 
2742.825 -16277608 -16548038 -16790978 -16993098 -17128588 -17170760 
2743.187 -17101864 -16922900 -16653374 -16327647 -15984338 -15662456 
2743.549 -15400525 -15231447 -15182881 -15267661 -15473848 -15755769 
2743.911 -16036902 -16229829 -16255140 -16078126 -15723655 -15281289 
2744.272 -14874589 -14626600 -14624485 -14887204 -15366049 -15961757 
2744.634 -16566567 -17086032 -17465652 -17694592 -17792560 -17792274 
2744.996 -17723190 -17607516 -17459284 -17289828 -17113076 -16943454 
2745.358 -16793466 -16669381 -16571511 -16498692 -16454382 -16449915 
2745.720 -16503030 -16628182 -16825788 -17074596 -17334436 -17557432 
2746.082 -17699684 -17738650 -17676746 -17536272 -17344498 -17122282 
2746.443 -16874648 -16593197 -16266311 -15891807 -15485775 -15083618 
2746.805 -14729329 -14461355 -14302940 -14253597 -14292873 -14386835 
2747.167 -14500516 -14603052 -14670936 -14689963 -14652965 -14560952 
2747.529 -14425362 -14272001 -14140299 -14075764 -14125737 -14322337 
2747.891 -14673338 -15155876 -15719756 -16293501 -16795856 -17158116 
2748.252 -17329662 -17291708 -17058156 -16674452 -16206879 -15724869 
2748.614 -15294275 -14959046 -14736759 -14621634 -14592703 -14624133 
2748.976 -14695249 -14794888 -14918067 -15059168 -15206077 -15336976 
2749.338 -15426268 -15454696 -15418177 -15332627 -15228408 -15140677 
2749.700 -15092036 -15084131 -15096324 -15098180 -15064160 -14990064 
2750.062 -14897930 -14831875 -14839496 -14948930 -15156708 -15422110 
2750.423 -15681567 -15862642 -15912794 -15813634 -15584816 -15274955 
2750.785 -14947553 -14664017 -14463983 -14363851 -14356350 -14419305 
2751.147 -14524871 -14650563 -14785857 -14932347 -15100612 -15301697 
2751.509 -15537441 -15792355 -16030131 -16196249 -16234905 -16102232 
2751.871 -15785772 -15312380 -14749315 -14188469 -13717247 -13404765 
2752.232 -13278520 -13323894 -13493329 -13728645 -13980676 -14221531 
2752.594 -14450394 -14683013 -14938493 -15224569 -15531590 -15834752 
2752.956 -16106222 -16324265 -16485102 -16602861 -16704550 -16817372 
2753.318 -16956104 -17115688 -17270566 -17380248 -17399094 -17293108 
2753.680 -17047262 -16672220 -16202601 -15692402 -15202782 -14785728 
2754.042 -14479751 -14298837 -14234967 -14263280 -14354235 -14481353 
2754.403 -14626184 -14781053 -14942079 -15103620 -15252946 -15369504 
2754.765 -15429466 -15415523 -15323383 -15166882 -14974411 -14784896 
2755.127 -14632943 -14542270 -14520449 -14558356 -14634352 -14719784 
2755.489 -14786658 -14808562 -14765489 -14647807 -14458407 -14217074 
2755.851 -13959019 -13735547 -13600052 -13596777 -13750217 -14054913 
2756.212 -14476642 -14959109 -15443951 -15878422 -16227562 -16477671 
2756.574 -16628757 -16688354 -16664185 -16564049 -16398517 -16185971 
2756.936 -15958371 -15755322 -15617932 -15578743 -15648969 -15816061 
2757.298 -16046194 -16297394 -16526923 -16703498 -16812622 -16852084 
2757.660 -16827638 -16747687 -16622283 -16463794 -16291905 -16137702 
2758.021 -16037667 -16029717 -16140351 -16372323 -16699003 -17064242 
2758.383 -17398552 -17627688 -17697392 -17587886 -17319854 -16949668 
2758.745 -16554767 -16216613 -15991107 -15895896 -15901677 -15943648 
2759.107 -15935982 -15802132 -15505310 -15060864 -14540797 -14048882 
2759.469 -13703763 -13594273 -13757472 -14168939 -14752165 -15399437 
2759.831 -15998198 -16467940 -16766625 -16894952 -16882204 -16771087 
2760.192 -16600724 -16395902 -16172148 -15938153 -15704194 -15486862 
2760.554 -15307550 -15187232 -15142532 -15178465 -15287686 -15450250 
2760.916 -15638357 -15817787 -15953580 -16018892 -15998198 -15896054 
2761.278 -15737493 -15568194 -15440018 -15396591 -15459332 -15616334 
2761.640 -15823474 -16016049 -16134702 -16142394 -16041212 -15869573 
2762.001 -15691090 -15567554 -15533987 -15588333 -15692210 -15788170 
2762.363 -15820280 -15761042 -15620553 -15446445 -15305151 -15263950 
2762.725 -15370655 -15638134 -16043607 -16534194 -17044140 -17501614 
2763.087 -17849200 -18053242 -18107274 -18034362 -17879916 -17702354 
2763.449 -17552278 -17459698 -17421790 -17405014 -17352552 -17207512 
2763.811 -16937050 -16546059 -16081413 -15615887 -15230712 -14983438 
2764.172 -14892615 -14933979 -15054463 -15192128 -15295683 -15343726 
2764.534 -15341135 -15311132 -15277162 -15252114 -15232951 -15206013 
2764.896 -15158212 -15087876 -15008821 -14948897 -14937373 -14994898 
2765.258 -15125381 -15314075 -15532836 -15746791 -15926527 -16049674 
2765.620 -16105328 -16092461 -16019147 -15900783 -15758678 -15619499 
2765.981 -15509211 -15447596 -15444367 -15495175 -15584625 -15692113 
2766.343 -15802259 -15910015 -16022660 -16154654 -16318936 -16516300 
2766.705 -16732002 -16934594 -17087720 -17160758 -17138560 -17026840 
2767.067 -16849790 -16643999 -16444780 -16281471 -16172051 -16121516 
2767.429 -16125474 -16171604 -16243171 -16317245 -16368078 -16370887 
2767.791 -16306108 -16169084 -15975650 -15765451 -15592361 -15516755 
2768.152 -15587342 -15822962 -16205186 -16675217 -17151204 -17538148 
2768.514 -17759134 -17774812 -17591066 -17256778 -16847462 -16445322 
2768.876 -16109351 -15865132 -15699847 -15575835 -15447692 -15285191 
2769.238 -15087235 -14884066 -14726030 -14661390 -14721033 -14901772 
2769.600 -15167011 -15453512 -15694957 -15837787 -15855517 -15756153 
2769.961 -15577944 -15379546 -15219931 -15150724 -15200607 -15368864 
2770.323 -15625125 -15916914 -16183034 -16364248 -16425159 -16360613 
2770.685 -16198579 -15986828 -15778840 -15613042 -15497860 -15411334 
2771.047 -15312891 -15166626 -14959877 -14718343 -14499940 -14383052 
2771.409 -14433567 -14683301 -15115621 -15671181 -16262226 -16796940 
2771.771 -17210220 -17469024 -17577798 -17564464 -17468674 -17325488 
2772.132 -17156970 -16975224 -16784954 -16591540 -16406272 -16245628 
2772.494 -16129401 -16075633 -16093196 -16180001 -16321361 -16494960 
2772.856 -16674610 -16840226 -16984718 -17116198 -17254548 -17422682 
2773.218 -17634720 -17884782 -18143058 -18359192 -18481810 -18471108 
2773.580 -18316660 -18040560 -17692112 -17329852 -16998164 -16718579 
2773.941 -16484082 -16270109 -16048877 -15806701 -15549364 -15298850 
2774.303 -15080323 -14911473 -14795945 -14726447 -14694768 -14703385 
2774.665 -14768339 -14914738 -15161923 -15507803 -15920140 -16342327 
2775.027 -16709525 -16966652 -17090524 -17093296 -17016038 -16907602 
2775.389 -16808670 -16739558 -16700374 -16681816 -16680095 -16704710 
2775.750 -16778516 -16924048 -17147542 -17426946 -17712660 -17939788 
2776.112 -18047362 -18003750 -17816032 -17529112 -17204742 -16903618 
2776.474 -16660454 -16473236 -16307926 -16116247 -15859542 -15525579 
2776.836 -15138469 -14751429 -14433311 -14240835 -14202387 -14307493 
2777.198 -14511829 -14746272 -14939197 -15038300 -15017560 -14884066 
2777.560 -14669174 -14420395 -14184846 -13998258 -13882712 -13842884 
2777.921 -13870773 -13950227 -14065338 -14202098 -14353337 -14519488 
2778.283 -14706684 -14922678 -15170978 -15444910 -15724614 -15979547 
2778.645 -16172117 -16272821 -16269309 -16174605 -16023394 -15865037 
2779.007 -15746823 -15696492 -15715666 -15779831 -15851555 -15892636 
2779.369 -15881170 -15817020 -15718926 -15611891 -15516052 -15439027 
2779.730 -15376507 -15319769 -15265645 -15222554 -15208828 -15242773 
2780.092 -15329972 -15454759 -15579734 -15658939 -15650567 -15537216 
2780.454 -15332819 -15082531 -14845547 -14680162 -14628329 -14703833 
2780.816 -14893928 -15166434 -15483089 -15803697 -16094185 -16328510 
2781.178 -16484337 -16545741 -16503988 -16360421 -16129050 -15837085 
2781.540 -15523181 -15227256 -14986511 -14826559 -14756072 -14764880 
2781.901 -14825118 -14897321 -14933242 -14887364 -14727440 -14440971 
2782.263 -14043782 -13578473 -13112568 -12719631 -12468219 -12405947 
2782.625 -12545676 -12865050 -13310301 -13815667 -14311148 -14743518 
2782.987 -15084835 -15330612 -15494375 -15596804 -15655393 -15677316 
2783.349 -15660282 -15599361 -15495527 -15363875 -15235607 -15148484 
2783.710 -15139109 -15225113 -15397039 -15615950 -15825359 -15969295 
2784.072 -16006820 -15929179 -15759572 -15546423 -15341487 -15187521 
2784.434 -15105925 -15095524 -15140709 -15223801 -15334833 -15472921 
2784.796 -15642479 -15844943 -16070111 -16295927 -16493715 -16635356 
2785.158 -16705889 -16706750 -16655670 -16578177 -16502073 -16449660 
2785.520 -16434794 -16466409 -16549248 -16684813 -16868816 -17086924 
2785.881 -17312596 -17504734 -17619098 -17615916 -17471412 -17186876 
2786.243 -16789862 -16329691 -15861554 -15440946 -15108933 -14884611 
2786.605 -14766289 -14733044 -14753959 -14793094 -14821979 -14824477 
2786.967 -14800620 -14764336 -14739354 -14751749 -14820378 -14954627 
2787.329 -15152676 -15404074 -15692817 -15999187 -16300937 -16567875 
2787.690 -16765222 -16856482 -16810646 -16616797 -16291810 -15885003 
2788.052 -15464032 -15105637 -14873756 -14801197 -14890053 -15113573 
2788.414 -15432728 -15805295 -16197238 -16582737 -16936284 -17232002 
2788.776 -17442416 -17546710 -17542668 -17453778 -17326794 -17213978 
2789.138 -17157796 -17168658 -17222544 -17267476 -17248786 -17133684 
2789.500 -16923792 -16655479 -16382501 -16155738 -16000178 -15912026 
2789.861 -15866252 -15836796 -15810279 -15794272 -15807947 -15868424 
2790.223 -15973382 -16097696 -16197685 -16232798 -16182587 -16056316 
2790.585 -15889315 -15729951 -15622184 -15588525 -15629344 -15726915 
2790.947 -15857818 -15999284 -16134255 -16251214 -16339615 -16392712 
2791.309 -16412556 -16416799 -16437825 -16515790 -16681530 -16934946 
2791.670 -17232864 -17491304 -17615408 -17522936 -17183882 -16633412 
2792.032 -15970284 -15322584 -14805872 -14498434 -14416484 -14523269 
2792.394 -14748162 -15021848 -15292132 -15533796 -15744394 -15929595 
2792.756 -16092844 -16229765 -16332308 -16395519 -16423244 -16427711 
2793.118 -16423244 -16419033 -16414408 -16400306 -16364248 -16296884 
2793.479 -16196696 -16067684 -15916338 -15746471 -15560266 -15362468 
2793.841 -15166115 -14998099 -14893959 -14887204 -14997362 -15216571 
2794.203 -15507772 -15809927 -16060403 -16208123 -16228585 -16128348 
2794.565 -15938250 -15700806 -15454535 -15232151 -15055231 -14938749 
2794.927 -14896168 -14938877 -15074369 -15301505 -15608311 -15971147 
2795.289 -16358474 -16738378 -17078832 -17351214 -17531084 -17595172 
2795.650 -17527266 -17323198 -16999056 -16594889 -16169850 -15796956 
2796.012 -15538367 -15434102 -15488812 -15673323 -15931478 -16197238 
2796.374 -16417246 -16556012 -16604042 -16573360 -16490111 -16385054 
2796.736 -16286321 -16217157 -16190311 -16206911 -16254149 -16306873 
2797.098 -16330998 -16292544 -16171925 -15971562 -15721099 -15468445 
2797.459 -15270860 -15172066 -15188608 -15304799 -15478645 -15657309 
2797.821 -15793217 -15862098 -15864845 -15822770 -15762512 -15705185 
2798.183 -15655840 -15605913 -15540126 -15449963 -15342382 -15242709 
2798.545 -15188032 -15214523 -15346572 -15584177 -15900495 -16243745 
2798.907 -16552662 -16764425 -16831016 -16733754 -16487719 -16144438 
2799.269 -15780278 -15490507 -15361221 -15449003 -15766058 -16272055 
2799.630 -16879336 -17468770 -17928850 -18173786 -18167654 -17928246 
2799.992 -17517114 -17016454 -16499298 -16021062 -15607256 -15261967 
2800.354 -14981613 -14767314 -14629931 -14586937 -14650370 -14816215 
2800.716 -15058111 -15334258 -15596580 -15806604 -15949525 -16034730 
2801.078 -16088694 -16141597 -16216805 -16321458 -16448960 -16585512 
2801.439 -16720587 -16851096 -16981692 -17117854 -17258084 -17388016 
2801.801 -17482900 -17511798 -17448750 -17282444 -17019226 -16682040 
2802.163 -16303331 -15921129 -15570144 -15279305 -15072386 -14963783 
2802.525 -14958629 -15048606 -15211772 -15411334 -15602749 -15745290 
2802.887 -15807947 -15780341 -15673226 -15515189 -15342254 -15188416 
2803.249 -15079810 -15029371 -15038908 -15101668 -15206653 -15338576 
2803.610 -15479220 -15610101 -15711384 -15767751 -15772449 -15728865 
2803.972 -15650598 -15556813 -15469052 -15403627 -15371902 -15380633 
2804.334 -15434550 -15539262 -15699752 -15916115 -16178437 -16462358 
2804.696 -16733691 -16952822 -17089824 -17136394 -17110624 -17051340 
2805.058 -17006704 -17016644 -17094314 -17220952 -17347520 -17415264 
2805.419 -17369328 -17180506 -16854220 -16428860 -15962204 -15511704 
2805.781 -15125669 -14828384 -14623332 -14500325 -14445939 -14449401 
2806.143 -14505131 -14608755 -14750276 -14909264 -15057759 -15164163 
2806.505 -15205821 -15178882 -15101220 -15008661 -14941598 -14933435 
2806.867 -14995250 -15112837 -15249171 -15362307 -15416674 -15399182 
2807.229 -15323575 -15228473 -15164163 -15176321 -15296899 -15533987 
2807.590 -15873022 -16281629 -16720939 -17152668 -17542986 -17867198 
2807.952 -18105812 -18242448 -18264338 -18160790 -17928502 -17575092 
2808.314 -17124798 -16618360 -16107947 -15654305 -15308478 -15102277 
2808.676 -15038365 -15089124 -15202974 -15317529 -15383608 -15374908 
2809.038 -15297890 -15185185 -15084163 -15036251 -15061632 -15154116 
2809.399 -15286438 -15422815 -15532581 -15601375 -15630942 -15631326 
2809.761 -15609462 -15561001 -15470171 -15319545 -15101060 -14828608 
2810.123 -14537625 -14281203 -14109989 -14055458 -14119258 -14271840 
2810.485 -14461963 -14630732 -14733654 -14749924 -14687913 -14579888 
2810.847 -14475488 -14427926 -14478501 -14650915 -14940830 -15314491 
2811.208 -15710041 -16053379 -16274001 -16322160 -16187662 -15901517 
2811.570 -15529000 -15141477 -14799467 -14528556 -14316213 -14122530 
2811.932 -13905175 -13645554 -13363319 -13113436 -12966525 -12984212 
2812.294 -13188753 -13553937 -14007337 -14458855 -14820058 -15030202 
2812.656 -15069217 -14952835 -14721642 -14422894 -14105595 -13810691 
2813.018 -13571665 -13418515 -13372540 -13444440 -13628856 -13903859 
2813.379 -14232369 -14569859 -14878239 -15128613 -15307134 -15412293 
2813.741 -15450667 -15432663 -15371359 -15285351 -15198111 -15137637 
2814.103 -15131461 -15196702 -15332723 -15518546 -15719851 -15896183 
2814.465 -16016049 -16066853 -16055327 -16002828 -15933523 -15866475 
2814.827 -15809385 -15759252 -15707741 -15647274 -15573181 -15483216 
2815.188 -15374749 -15242261 -15077922 -14876862 -14640504 -14380424 
2815.550 -14114255 -13862236 -13638843 -13450318 -13298701 -13188272 
2815.912 -13133914 -13164517 -13313000 -13604773 -14039162 -14580881 
2816.274 -15158083 -15679106 -16063021 -16254149 -16244575 -16068514 
2816.636 -15793154 -15489131 -15214108 -15004116 -14872315 -14820603 
2816.998 -14850030 -14965287 -15169826 -15455399 -15793761 -16131220 
2817.359 -16400656 -16542263 -16518883 -16334381 -16033262 -15692336 
2817.721 -15394449 -15211228 -15188576 -15337937 -15641969 -16062574 
2818.083 -16554257 -17066376 -17549892 -17961884 -18263640 -18429414 
2818.445 -18452278 -18348234 -18154434 -17922206 -17705058 -17539102 
2818.807 -17435062 -17372290 -17308870 -17191462 -16976722 -16648432 
2819.168 -16226286 -15764812 -15339759 -15036380 -14919541 -15020409 
2819.530 -15326326 -15783761 -16308757 -16804910 -17194042 -17426278 
2819.892 -17493562 -17425960 -17282346 -17129736 -17021136 -16987682 
2820.254 -17026840 -17107694 -17176970 -17178404 -17063000 -16801370 
2820.616 -16392807 -15865900 -15276906 -14694928 -14197288 -13851807 
2820.978 -13701838 -13765047 -14027292 -14450715 -14977099 -15544314 
2821.339 -16092492 -16569024 -16937176 -17174518 -17274640 -17246588 
2821.701 -17115656 -16920446 -16705602 -16519267 -16400401 -16371077 
2822.063 -16433487 -16569214 -16743543 -16910344 -17023718 -17041750 
2822.425 -16933162 -16685579 -16309554 -15844112 -15351817 -14918132 
2822.787 -14630252 -14554063 -14718727 -15099588 -15621736 -16170902 
2823.148 -16632168 -16914072 -16972642 -16819764 -16511260 -16123462 
2823.510 -15719118 -15336976 -14981741 -14637652 -14286173 -13926033 
2823.872 -13580431 -13296226 -13125942 -13111765 -13272093 -13596199 
2824.234 -14047599 -14573928 -15123237 -15645996 -16102679 -16464846 
2824.596 -16713351 -16841566 -16857566 -16788078 -16675217 -16570523 
2824.958 -16528388 -16589308 -16774340 -17078610 -17475104 -17917912 
2825.319 -18351664 -18724212 -18988776 -19113752 -19086898 -18916774 
2825.681 -18631978 -18276126 -17903224 -17561760 -17287728 -17094952 
2826.043 -16971974 -16886154 -16790916 -16643872 -16412748 -16088055 
2826.405 -15684348 -15238806 -14800845 -14420459 -14140459 -13982537 
2826.767 -13944612 -14000985 -14111304 -14230253 -14320285 -14362954 
2827.128 -14360068 -14329294 -14292778 -14266775 -14251288 -14230060 
2827.490 -14176186 -14066653 -13894232 -13676217 -13451700 -13274085 
2827.852 -13197721 -13257566 -13463810 -13795253 -14208063 -14640920 
2828.214 -15032219 -15333970 -15516596 -15576825 -15535522 -15432632 
2828.576 -15313435 -15218331 -15171618 -15174177 -15204510 -15227448 
2828.938 -15210428 -15135237 -15009462 -14865112 -14752806 -14723276 
2829.299 -14810323 -15020921 -15331475 -15693551 -16042905 -16320340 
2829.661 -16478628 -16492153 -16361346 -16110405 -15782833 -15430329 
2830.023 -15109381 -14866744 -14731956 -14714819 -14804911 -14977612 
2830.385 -15200063 -15442065 -15675878 -15876282 -16018411 -16074581 
2830.747 -16017869 -15832739 -15525452 -15133381 -14719944 -14367762 
2831.108 -14149182 -14103574 -14222878 -14453311 -14711040 -14908912 
2831.470 -14991600 -14947200 -14810676 -14642970 -14512054 -14465009 
2831.832 -14514232 -14637748 -14790180 -14920373 -14980941 -14943551 
2832.194 -14799467 -14561560 -14259817 -13939959 -13657241 -13462236 
2832.556 -13393231 -13460726 -13642857 -13886658 -14125481 -14301402 
2832.917 -14379751 -14363146 -14284377 -14191580 -14122658 -14090102 
2833.279 -14075122 -14038264 -13936301 -13744086 -13469720 -13156127 
2833.641 -12869843 -12680051 -12646968 -12801934 -13144008 -13639581 
2834.003 -14231920 -14847629 -15406121 -15840182 -16101018 -16172467 
2834.365 -16072026 -15848681 -15567011 -15285639 -15047710 -14867193 
2834.727 -14733396 -14622947 -14516059 -14408151 -14313680 -14257316 
2835.088 -14263472 -14343559 -14490871 -14683397 -14894119 -15102020 
2835.450 -15296643 -15479987 -15659196 -15841683 -16028918 -16217094 
2835.812 -16399506 -16570363 -16725020 -16857822 -16959546 -17015912 
2836.174 -17009540 -16928062 -16769014 -16543794 -16273810 -15985008 
2836.536 -15697610 -15420736 -15154980 -14898378 -14654727 -14438984 
2836.897 -14273251 -14179105 -14166662 -14228714 -14342085 -14477892 
2837.259 -14617020 -14756361 -14910736 -15101412 -15342510 -15626689 
2837.621 -15922630 -16180256 -16351391 -16404644 -16339136 -16184183 
2837.983 -15995100 -15838042 -15771938 -15845038 -16082915 -16484655 
2838.345 -17018428 -17621484 -18203972 -18655468 -18878548 -18807256 
2838.707 -18435766 -17823630 -17091702 -16390892 -15849736 -15551922 
2839.068 -15505022 -15650310 -15883055 -16097346 -16219582 -16222423 
2839.430 -16126655 -15980376 -15835742 -15723303 -15645612 -15578647 
2839.792 -15488013 -15339984 -15116421 -14819514 -14471674 -14110695 
2840.154 -13780712 -13529335 -13393970 -13394870 -13528597 -13766845 
2840.516 -14060334 -14350099 -14588603 -14748898 -14834372 -14873564 
2840.877 -14910609 -14986767 -15125541 -15329173 -15578647 -15843282 
2841.239 -16087703 -16282683 -16406143 -16443918 -16390733 -16250798 
2841.601 -16039871 -15783377 -15514901 -15265358 -15051775 -14872188 
2841.963 -14705082 -14522500 -14303806 -14054207 -13809344 -13631779 
2842.325 -13585441 -13717697 -14036756 -14508592 -15062304 -15613106 
2842.687 -16089652 -16443662 -16659943 -16746731 -16723234 -16606880 
2843.048 -16409431 -16142268 -15822068 -15477973 -15151236 -14882658 
2843.410 -14705531 -14633584 -14660974 -14767922 -14933435 -15144932 
2843.772 -15399533 -15700391 -16044438 -16411854 -16765317 -17054270 
2844.134 -17227480 -17254356 -17131678 -16888830 -16575433 -16251309 
2844.496 -15966006 -15747333 -15599457 -15506460 -15441873 -15377243 
2844.857 -15291653 -15174018 -15022201 -14841224 -14639638 -14427510 
2845.219 -14213963 -14007241 -13813484 -13635471 -13472836 -13321452 
2845.581 -13174160 -13022607 -12860901 -12689576 -12520631 -12379026 
2845.943 -12302730 -12338448 -12525557 -12886859 -13412219 -14055811 
2846.305 -14734646 -15349419 -15813187 -16068546 -16112959 -15997782 
2846.667 -15818106 -15676966 -15658332 -15800310 -16083010 -16435305 
2847.028 -16757697 -16959896 -16977900 -16796844 -16447810 -15999507 
2847.390 -15532485 -15119973 -14817176 -14649057 -14615514 -14696210 
2847.752 -14862037 -15081731 -15327766 -15583122 -15837595 -16087512 
2848.114 -16330840 -16561497 -16766751 -16926820 -17016454 -17014320 
2848.476 -16910090 -16712012 -16446503 -16156793 -15893148 -15697706 
2848.837 -15597923 -15598370 -15682302 -15816189 -15960032 -16078828 
2849.199 -16146481 -16151909 -16098974 -16003883 -15888197 -15774399 
2849.561 -15679969 -15611667 -15564102 -15522031 -15467805 -15388245 
2849.923 -15284839 -15176577 -15098884 -15091876 -15185760 -15388948 
2850.285 -15680034 -16011514 -16320469 -16553905 -16682327 -16713765 
2850.646 -16688991 -16672410 -16728399 -16897150 -17185186 -17559342 
2851.008 -17959594 -18309798 -18545120 -18623980 -18536390 -18304112 
2851.370 -17973646 -17605322 -17256522 -16977708 -16801880 -16740451 
2851.732 -16783360 -16900082 -17045860 -17165218 -17205444 -17127314 
2852.094 -16912990 -16573649 -16149227 -15703235 -15302496 -15007797 
2852.456 -14855057 -14844875 -14943839 -15092772 -15228025 -15293284 
2852.817 -15260239 -15132485 -14943039 -14737817 -14561272 -14442350 
2853.179 -14386161 -14376481 -14385938 -14390809 -14378982 -14356158 
2853.541 -14341860 -14362569 -14440651 -14586840 -14799019 -15063681 
2853.903 -15361859 -15673162 -15981430 -16273459 -16537830 -16763085 
2854.265 -16935488 -17039298 -17060546 -16990774 -16831972 -16600661 
2854.626 -16331606 -16071836 -15875228 -15792355 -15853154 -16056987 
2854.988 -16364248 -16706400 -16992558 -17133176 -17068606 -16779726 
2855.350 -16298193 -15694989 -15070113 -14521923 -14126892 -13930943 
2855.712 -13940505 -14128849 -14443535 -14823613 -15205629 -15534978 
2856.074 -15775932 -15912473 -15951632 -15918734 -15853217 -15796253 
2856.436 -15780341 -15825167 -15933970 -16098367 -16304480 -16539522 
2856.797 -16791776 -17047262 -17286072 -17477650 -17584798 -17575954 
2857.159 -17434618 -17170314 -16815620 -16418906 -16022148 -15646411 
2857.521 -15285383 -14913266 -14504042 -14055073 -13600149 -13211317 
2857.883 -12978069 -12970834 -13217135 -13679877 -14266967 -14844490 
2858.245 -15283080 -15492073 -15436660 -15147461 -14705467 -14221883 
2858.606 -13801577 -13531295 -13463617 -13610233 -13946537 -14416644 
2858.968 -14949794 -15464991 -15892796 -16187981 -16333297 -16340828 
2859.330 -16242884 -16080583 -15888005 -15688375 -15495366 -15317722 
2859.692 -15169059 -15069409 -15038621 -15086915 -15203070 -15350762 
2860.054 -15472441 -15510745 -15428762 -15226009 -14942879 -14649665 
2860.416 -14427125 -14333909 -14395650 -14596067 -14888421 -15208157 
2860.777 -15495718 -15711032 -15834847 -15869796 -15831813 -15744777 
2861.139 -15634809 -15528329 -15452106 -15427355 -15467932 -15575035 
2861.501 -15737044 -15930839 -16130071 -16313894 -16470589 -16599322 
2861.863 -16705189 -16792126 -16856418 -16885390 -16860498 -16767867 
2862.225 -16603786 -16381606 -16127357 -15875068 -15655840 -15488524 
2862.586 -15377755 -15315227 -15287207 -15280201 -15286438 -15304703 
2862.948 -15336113 -15379738 -15429082 -15470587 -15488972 -15471322 
2863.310 -15412869 -15319129 -15204829 -15088484 -14984206 -14898025 
2863.672 -14824926 -14752069 -14664433 -14553903 -14423568 -14291270 
2864.034 -14183947 -14132633 -14162878 -14285563 -14493403 -14760877 
2864.396 -15050783 -15319321 -15528777 -15656063 -15696140 -15663542 
2864.757 -15587565 -15504574 -15442896 -15415235 -15410694 -15399246 
2865.119 -15338480 -15191968 -14946881 -14624453 -14281395 -13993638 
2865.481 -13842082 -13880401 -14119226 -14518558 -15002196 -15476182 
2865.843 -15852865 -16080327 -16145363 -16073590 -15911419 -15714068 
2866.205 -15528233 -15384790 -15302880 -15291653 -15354472 -15487885 
2866.566 -15679074 -15902188 -16116630 -16277289 -16342614 -16286258 
2866.928 -16106956 -15828138 -15490826 -15139269 -14815031 -14543937 
2867.290 -14335449 -14184300 -14074897 -13984494 -13885568 -13751694 
2867.652 -13560359 -13299954 -12977781 -12624633 -12295418 -12054557 
2868.014 -11969179 -12086428 -12419309 -12940378 -13586662 -14273732 
2868.375 -14908912 -15418625 -15757751 -15916754 -15920395 -15819704 
2868.737 -15680417 -15562312 -15513047 -15553553 -15674887 -15839927 
2869.099 -15994556 -16084256 -16064970 -15919788 -15660282 -15324119 
2869.461 -14958790 -14612631 -14321599 -14102580 -13955136 -13866665 
2869.823 -13818877 -13791241 -13765400 -13727264 -13668928 -13593791 
2870.185 -13519378 -13479678 -13516039 -13668736 -13959756 -14380776 
2870.546 -14887076 -15405450 -15858743 -16181342 -16344944 -16364090 
2870.908 -16289448 -16185811 -16106414 -16079178 -16098687 -16137829 
2871.270 -16165221 -16165923 -16147854 -16139075 -16167935 -16247608 
2871.632 -16361602 -16468195 -16511165 -16447842 -16266661 -15995100 
2871.994 -15688311 -15407145 -15194431 -15054720 -14953988 -14833475 
2872.355 -14640215 -14346124 -13965275 -13547128 -13164260 -12884221 
2872.717 -12748076 -12765128 -12915259 -13163714 -13473736 -13819871 
2873.079 -14187058 -14565726 -14947745 -15323063 -15684571 -16034380 
2873.441 -16387032 -16764265 -17182004 -17634814 -18085948 -18471554 
2873.803 -18713518 -18753568 -18574774 -18216650 -17760914 -17312596 
2874.165 -16962096 -16752534 -16674515 -16673207 -16680000 -16636601 
2874.526 -16521340 -16350528 -16166562 -16012281 -15912665 -15867049 
2874.888 -15855005 -15851108 -15840694 -15827691 -15830344 -15869189 
2875.250 -15952878 -16071707 -16199792 -16308470 -16376853 -16404102 
2875.612 -16409270 -16425509 -16485326 -16609335 -16799138 -17035570 
2875.974 -17281806 -17490414 -17616456 -17621198 -17485606 -17215538 
2876.335 -16846250 -16435241 -16050473 -15755802 -15587342 -15544410 
2876.697 -15587342 -15655264 -15683357 -15628129 -15483089 -15278057 
2877.059 -15065985 -14899274 -14817080 -14831522 -14933499 -15103077 
2877.421 -15323415 -15587565 -15895830 -16247958 -16633635 -17027350 
2877.783 -17394732 -17699522 -17915720 -18033916 -18058454 -17999872 
2878.145 -17865352 -17653840 -17358822 -16975732 -16513748 -16000625 
2878.506 -15482194 -15014903 -14647647 -14413536 -14320670 -14354042 
2878.868 -14480456 -14659693 -14855090 -15036124 -15183905 -15291684 
2879.230 -15363267 -15411334 -15454600 -15513334 -15601822 -15725605 
2879.592 -15877783 -16043415 -16202889 -16340733 -16450107 -16532440 
2879.954 -16593900 -16639184 -16666448 -16666321 -16625471 -16532727 
2880.315 -16385276 -16191078 -15966708 -15730845 -15500770 -15287494 
2880.677 -15097380 -14935868 -14812404 -14741564 -14743870 -14837446 
2881.039 -15031707 -15319481 -15674919 -16052485 -16392680 -16637782 
2881.401 -16738283 -16668584 -16433805 -16072186 -15648361 -15235319 
2881.763 -14905133 -14705883 -14653029 -14729105 -14893063 -15093315 
2882.125 -15281192 -15425309 -15510553 -15536577 -15510905 -15444303 
2882.486 -15348523 -15237014 -15127717 -15040956 -14994705 -15000019 
2882.848 -15056928 -15154980 -15278889 -15418082 -15568833 -15732251 
2883.210 -15904425 -16064906 -16171126 -16170360 -16014261 -15689621 
2883.572 -15235350 -14748354 -14356382 -14179810 -14296176 -14705563 
2883.934 -15330932 -16038403 -16691828 -17181652 -17459190 -17539136 
2884.295 -17480832 -17356532 -17222288 -17109222 -17021520 -16948552 
2884.657 -16876052 -16792510 -16687524 -16547685 -16358761 -16112288 
2885.019 -15819384 -15516436 -15268461 -15150436 -15217115 -15483568 
2885.381 -15907522 -16400464 -16844848 -17139802 -17225730 -17098072 
2885.743 -16799490 -16399093 -15966868 -15550707 -15178209 -14861237 
2886.104 -14607954 -14430587 -14342662 -14348432 -14431228 -14550762 
2886.466 -14651331 -14675645 -14590685 -14398823 -14139850 -13874785 
2886.828 -13668800 -13566975 -13579885 -13683634 -13830752 -13970248 
2887.190 -14060463 -14085291 -14055106 -14002590 -13968548 -13990429 
2887.552 -14090391 -14266742 -14494171 -14730290 -14931738 -15065025 
2887.914 -15121060 -15119269 -15104485 -15130277 -15240469 -15454791 
2888.275 -15757272 -16100571 -16414918 -16633635 -16705699 -16610038 
2888.637 -16358569 -15992193 -15569633 -15150020 -14788707 -14523622 
2888.999 -14371512 -14329903 -14379302 -14490871 -14633647 -14784096 
2889.361 -14928984 -15064577 -15190303 -15301281 -15379738 -15397646 
2889.723 -15319545 -15116869 -14780829 -14329646 -13807386 -13273538 
2890.084 -12793215 -12416251 -12171299 -12061743 -12070315 -12164501 
2890.446 -12305307 -12457497 -12592060 -12693535 -12763101 -12819370 
2890.808 -12893388 -13017558 -13215431 -13487902 -13808894 -14129587 
2891.170 -14398375 -14576043 -14653670 -14655207 -14629355 -14627593 
2891.532 -14680899 -14789732 -14923574 -15038460 -15093828 -15073410 
2891.894 -14989968 -14878592 -14777723 -14715524 -14700278 -14723083 
2892.255 -14766738 -14817560 -14870491 -14925079 -14978060 -15016760 
2892.617 -15017048 -14953443 -14811316 -14598118 -14343783 -14093149 
2892.979 -13891120 -13763603 -13713138 -13720522 -13759687 -13809440 
2893.341 -13863456 -13927829 -14011636 -14113645 -14216785 -14289924 
2893.703 -14302684 -14239231 -14109733 -13947820 -13803277 -13724406 
2894.064 -13741164 -13860985 -14069733 -14343463 -14655720 -14985487 
2894.426 -15317722 -15637334 -15926048 -16162347 -16324872 -16401550 
2894.788 -16394913 -16323531 -16215561 -16102232 -16007522 -15943201 
2895.150 -15909024 -15895735 -15889347 -15872128 -15824208 -15724294 
2895.512 -15550931 -15290309 -14944095 -14535926 -14108545 -13718853 
2895.874 -13423334 -13258434 -13234105 -13329163 -13501585 -13697182 
2896.235 -13868559 -13983885 -14027581 -13997199 -13896350 -13728869 
2896.597 -13498629 -13213085 -12890043 -12558745 -12261855 -12047498 
2896.959 -11955028 -12009178 -12208574 -12525814 -12908184 -13291952 
2897.321 -13615210 -13829083 -13914096 -13883289 -13782702 -13674997 
2897.683 -13628086 -13693073 -13887173 -14189976 -14547942 -14896361 
2898.044 -15174018 -15348363 -15424062 -15437620 -15440402 -15477269 
2898.406 -15568833 -15702404 -15836380 -15916945 -15903274 -15780214 
2898.768 -15570336 -15324919 -15115333 -15008246 -15047582 -15246644 
2899.130 -15581748 -15999539 -16422989 -16773351 -16976754 -16978762 
2899.492 -16755657 -16318139 -15713621 -15015415 -14319323 -13720169 
2899.854 -13290763 -13073442 -13065050 -13222053 -13468564 -13723379 
2900.215 -13915251 -14001338 -13975703 -13864740 -13715193 -13572756 
2900.577 -13473351 -13431269 -13441356 -13486681 -13550982 -13628311 
2900.939 -13726333 -13864387 -14065274 -14346765 -14712994 -15151908 
2901.301 -15635671 -16130168 -16595813 -16996890 -17305686 -17502092 
2901.663 -17575284 -17523798 -17354302 -17080362 -16721545 -16301926 
2902.024 -15845837 -15377563 -14919285 -14488404 -14099725 -13762897 
2902.386 -13483790 -13264990 -13106492 -13007686 -12968326 -12989678 
2902.748 -13073795 -13219706 -13419896 -13657787 -13905624 -14131093 
2903.110 -14302491 -14398535 -14416100 -14373115 -14304511 -14250293 
2903.472 -14249556 -14325703 -14483852 -14711681 -14986319 -15281960 
2903.833 -15575355 -15851108 -16098879 -16309714 -16474033 -16578624 
2904.195 -16610388 -16561145 -16433358 -16245181 -16029973 -15834240 
2904.557 -15705727 -15682654 -15784176 -16000943 -16293693 -16597630 
2904.919 -16840864 -16954574 -16892784 -16645402 -16240425 -15738802 
2905.281 -15215771 -14751204 -14405265 -14208544 -14159189 -14226438 
2905.643 -14361062 -14505900 -14614938 -14658122 -14628425 -14540284 
2906.004 -14423568 -14311725 -14230156 -14190169 -14185422 -14197641 
2906.366 -14205690 -14197801 -14177854 -14164802 -14181798 -14244586 
2906.728 -14347887 -14463887 -14546629 -14550089 -14448311 -14245195 
2907.090 -13975703 -13691371 -13445179 -13269232 -13168825 -13128095 
2907.452 -13127003 -13156964 -13232016 -13381376 -13634123 -13995498 
2907.813 -14432671 -14870202 -15209724 -15363715 -15276586 -14951747 
2908.175 -14448247 -13871415 -13333694 -12933142 -12731891 -12744053 
2908.537 -12943048 -13271770 -13661576 -14038071 -14335416 -14508785 
2908.899 -14536920 -14432927 -14242822 -14042723 -13916085 -13933830 
2909.261 -14133083 -14501831 -14978765 -15467133 -15870340 -16109446 
2909.623 -16151717 -16015602 -15764013 -15479571 -15235703 -15080675 
2909.984 -15020153 -15023897 -15038204 -15012503 -14916210 -14753254 
2910.346 -14560150 -14397413 -14328332 -14393598 -14601097 -14917492 
2910.708 -15281544 -15615407 -15853696 -15959809 -15932469 -15802259 
2911.070 -15618380 -15431224 -15273611 -15155460 -15064321 -14976491 
2911.432 -14866904 -14723243 -14550698 -14372314 -14221499 -14130677 
2911.793 -14125320 -14213226 -14383757 -14608306 -14850190 -15069313 
2912.155 -15232760 -15323128 -15339632 -15298754 -15226904 -15157283 
2912.517 -15120164 -15139013 -15228696 -15393297 -15626498 -15909024 
2912.879 -16211763 -16495502 -16715806 -16836434 -16835288 -16714370 
2913.241 -16500287 -16240489 -15988456 -15788522 -15669070 -15635831 
2913.603 -15677923 -15775230 -15907554 -16057786 -16208665 -16340733 
2913.964 -16427074 -16437475 -16348390 -16152803 -15867753 -15530471 
2914.326 -15192480 -14897769 -14671288 -14514809 -14412831 -14347117 
2914.688 -14310250 -14312270 -14375423 -14518718 -14741052 -15011606 
2915.050 -15273707 -15465343 -15534244 -15461090 -15262959 -14986959 
2915.412 -14690508 -14424048 -14222332 -14099468 -14057127 -14092540 
2915.773 -14203156 -14384784 -14626600 -14907278 -15193376 -15446701 
2916.135 -15634714 -15735639 -15743371 -15664278 -15512855 -15306047 
2916.497 -15064416 -14815127 -14589852 -14423760 -14343720 -14355293 
2916.859 -14433824 -14526825 -14572838 -14518751 -14346188 -14079004 
2917.221 -13778048 -13512024 -13332376 -13251396 -13237833 -13231855 
2917.583 -13171653 -13023186 -12789870 -12510426 -12237052 -12019105 
2917.944 -11882301 -11827393 -11837002 -11888104 -11959476 -12030998 
2918.306 -12080789 -12078630 -11987970 -11779928 -11445136 -11008240 
2918.668 -10523528 -10067996 -9713768 -9506610 -9460350 -9558572 -9774516 
2919.090 -10086416 -10491607 -11001327 -11626790 -12360347 -13164164 
2919.452 -13970344 -14702712 -15288710 -15681727 -15869094 -15863439 
2919.814 -15693616 -15390995 -14990640 -14530607 -14061938 -13653548 
2920.176 -13378613 -13304902 -13471327 -13872057 -14452349 -15118181 
2920.537 -15764205 -16284278 -16598875 -16664343 -16470302 -16039712 
2920.899 -15422815 -14696018 -13946665 -13267754 -12741994 -12418408 
2921.261 -12306402 -12370878 -12549153 -12767155 -12969741 -13138383 
2921.623 -13292113 -13474346 -13727392 -14069797 -14480552 -14898730 
2921.985 -15236950 -15414084 -15371902 -15097572 -14627176 -14043236 
2922.346 -13455876 -12975015 -12699777 -12688643 -12949094 -13432843 
2922.708 -14048529 -14678336 -15199774 -15524301 -15608694 -15466078 
2923.070 -15154020 -14760684 -14377219 -14072203 -13887526 -13831747 
2923.432 -13890414 -14033612 -14229516 -14448054 -14661678 -14848845 
2923.794 -14992753 -15084675 -15126469 -15131621 -15121765 -15119525 
2924.156 -15141669 -15191520 -15257392 -15313372 -15328181 -15274251 
2924.517 -15134308 -14909616 -14622179 -14314706 -14039868 -13855882 
2924.879 -13811847 -13933028 -14215888 -14624485 -15102181 -15581492 
2925.241 -16007427 -16351836 -16617499 -16832098 -17032480 -17246682 
2925.603 -17478890 -17705726 -17885196 -17976698 -17954032 -17819562 
2925.965 -17601884 -17348826 -17108680 -16914518 -16778930 -16690904 
2926.326 -16624069 -16545357 -16428063 -16258139 -16039424 -15792673 
2926.688 -15555023 -15373213 -15291397 -15344205 -15542108 -15865132 
2927.050 -16258586 -16643010 -16929432 -17029740 -16882012 -16457541 
2927.412 -15766187 -14853328 -13795991 -12694146 -11649951 -10767342 
2927.774 -10129697 -9783684 -9734116 -9939254 -10324037 -10792649 -11260984 
2928.196 -11673241 -12008373 -12276544 -12500800 -12694532 -12847069 
2928.558 -12921756 -12872481 -12669849 -12323246 -11893198 -11477051 
2928.919 -11191822 -11126233 -11314059 -11719750 -12253062 -12795081 
2929.281 -13237737 -13524421 -13658461 -13700682 -13735996 -13849110 
2929.643 -14088081 -14451708 -14895177 -15351977 -15761266 -16086075 
2930.005 -16326308 -16511802 -16686473 -16884212 -17117090 -17366814 
2930.367 -17596284 -17759800 -17824108 -17780538 -17647988 -17467052 
2930.729 -17286390 -17151936 -17091606 -17111070 -17193850 -17307914 
2931.090 -17411732 -17462976 -17430258 -17296326 -17066218 -16766656 
2931.452 -16446311 -16164742 -15976992 -15924547 -16017964 -16234616 
2931.814 -16520925 -16810138 -17037002 -17152798 -17138782 -17005494 
2932.176 -16786038 -16521977 -16256353 -16022531 -15839895 -15716560 
2932.538 -15650118 -15629886 -15638517 -15655264 -15658461 -15630974 
2932.899 -15568386 -15481330 -15398190 -15355719 -15392530 -15533188 
2933.261 -15776571 -16090002 -16411664 -16664598 -16767101 -16661314 
2933.623 -16326850 -15793504 -15135717 -14464111 -13901613 -13545008 
2933.985 -13450768 -13613508 -13972302 -14420619 -14841640 -15142532 
2934.347 -15269645 -15224153 -15048319 -14807057 -14557363 -14334871 
2934.708 -14148734 -13991199 -13853603 -13740458 -13672814 -13682221 
2935.070 -13793680 -14011636 -14313328 -14656168 -14995057 -15298338 
2935.432 -15563111 -15813986 -16091790 -16429562 -16836306 -17285150 
2935.794 -17720296 -18066400 -18252172 -18232124 -17993038 -17560330 
2936.156 -16989498 -16363004 -15769254 -15294148 -15010550 -14959238 
2936.518 -15141669 -15512248 -15989255 -16461274 -16816512 -16976306 
2936.879 -16908718 -16643010 -16256098 -15855646 -15540062 -15372798 
2937.241 -15368704 -15494151 -15682366 -15856858 -15960863 -15965110 
2937.603 -15871042 -15699560 -15476822 -15221114 -14937469 -14621826 
2937.965 -14269243 -13881300 -13471423 -13060324 -12671072 -12322924 
2938.327 -12027614 -11792182 -11623661 -11531971 -11528132 -11614822 
2938.688 -11776897 -11970887 -12130315 -12182930 -12070154 -11778670 
2939.050 -11352730 -10896354 -10538210 -10402589 -10565893 -11026911 
2939.412 -11705237 -12462745 -13154520 -13654801 -13899816 -13894425 
2939.774 -13703153 -13422081 -13151145 -12977781 -12956684 -13113018 
2940.136 -13445982 -13934793 -14541470 -15214171 -15896088 -16525071 
2940.498 -17047612 -17426564 -17642164 -17693226 -17589858 -17348030 
2940.859 -16984846 -16519744 -15982389 -15412421 -14863094 -14393502 
2941.221 -14049203 -13854117 -13798399 -13845259 -13939959 -14034799 
2941.583 -14105338 -14155693 -14215021 -14319676 -14497024 -14749603 
2941.945 -15052959 -15363012 -15635032 -15835039 -15951345 -15994811 
2942.307 -15992768 -15977183 -15974691 -16003052 -16067142 -16160879 
2942.668 -16268320 -16365653 -16423021 -16407484 -16292607 -16064268 
2943.030 -15730493 -15322488 -14896361 -14520193 -14256322 -14152903 
2943.392 -14226950 -14462477 -14813365 -15219162 -15617133 -15955018 
2943.754 -16204773 -16360261 -16434986 -16449086 -16421234 -16359558 
2944.116 -16259927 -16110405 -15901230 -15632572 -15321816 -15000019 
2944.478 -14705178 -14473598 -14325735 -14264209 -14273540 -14329999 
2944.839 -14408182 -14491224 -14572935 -14655656 -14743902 -14838343 
2945.201 -14932474 -15014519 -15070626 -15090819 -15073410 -15026714 
2945.563 -14968649 -14921686 -14910128 -14953795 -15061184 -15225401 
2945.925 -15420480 -15607065 -15735447 -15762798 -15667185 -15454855 
2946.287 -15159139 -14831875 -14525128 -14270429 -14072107 -13909988 
2946.648 -13756733 -13596038 -13439171 -13323154 -13301304 -13415623 
2947.010 -13675704 -14049492 -14473693 -14875742 -15198302 -15422271 
2947.372 -15565509 -15670190 -15774781 -15896726 -16021159 -16111266 
2947.734 -16123462 -16031217 -15837274 -15572702 -15283847 -15016152 
2948.096 -14801741 -14650819 -14553485 -14483116 -14403278 -14266935 
2948.458 -14021838 -13622338 -13038685 -12276995 -11386138 -10460426 
2948.819 -9612535 -8939306 -8493805 -8260838 -8166744 -8106583 -7999283 
2949.241 -7819651 -7618425 -7498107 -7580624 -7947558 -8603095 -9465504 
2949.664 -10393046 -11237285 -11879013 -12273677 -12450317 -12495295 
2950.025 -12507142 -12569722 -12724812 -12966589 -13253806 -13528789 
2950.387 -13742223 -13863360 -13890734 -13852512 -13803630 -13811590 
2950.749 -13941211 -14240129 -14717543 -15335729 -16008513 -16628182 
2951.111 -17081796 -17287282 -17218722 -16909196 -16441781 -15917839 
2951.473 -15439859 -15080035 -14871899 -14815255 -14886051 -15048671 
2951.834 -15264207 -15499523 -15723526 -15908768 -16035017 -16088342 
2952.196 -16065640 -15973797 -15827404 -15644973 -15445102 -15249555 
2952.558 -15083170 -14976299 -14964135 -15075330 -15321272 -15683165 
2952.920 -16111139 -16526157 -16841214 -16991348 -16948330 -16736433 
2953.282 -16422223 -16100731 -15859159 -15752127 -15787978 -15927134 
2953.644 -16094888 -16201643 -16175596 -15974533 -15600480 -15095011 
2954.005 -14531985 -13996622 -13561516 -13278294 -13162009 -13193929 
2954.367 -13328810 -13512794 -13698081 -13853571 -13970409 -14055908 
2954.729 -14124391 -14184846 -14236922 -14271648 -14279215 -14256771 
2955.091 -14213418 -14167624 -14139721 -14139016 -14156751 -14163775 
2955.453 -14122370 -13997520 -13774646 -13469624 -13132178 -12836421 
2955.814 -12658232 -12663349 -12882710 -13304228 -13870677 -14494556 
2956.176 -15079683 -15537984 -15820472 -15922535 -15884906 -15772993 
2956.538 -15659036 -15597059 -15605466 -15669039 -15750082 -15810566 
2956.900 -15826350 -15797786 -15743339 -15685178 -15631037 -15566212 
2957.262 -15455047 -15259792 -14957605 -14557363 -14099821 -13651334 
2957.624 -13281926 -13043347 -12965367 -13051449 -13288161 -13654897 
2957.985 -14129138 -14684646 -15284231 -15880531 -16416544 -16836592 
2958.347 -17103170 -17198468 -17121774 -16874012 -16440218 -15782291 
2958.709 -14852304 -13614953 -12084752 -10344452 -8550890 -6885939 -5512891 
2959.131 -4522755 -3902698 -3550767 -3324141 -3116183 -2899073 -2749488 
2959.553 -2810855 -3245679 -4152127 -5521168 -7225535 -9067240 -10831336 
2959.975 -12340026 -13503094 -14309769 -14811348 -15082466 -15199518 
2960.337 -15226360 -15211868 -15204669 -15250770 -15386262 -15623494 
2960.699 -15936749 -16263278 -16515056 -16617594 -16532950 -16281342 
2961.061 -15932182 -15585616 -15335281 -15232568 -15277546 -15420064 
2961.423 -15584017 -15686871 -15669869 -15508220 -15213852 -14829185 
2961.784 -14420555 -14072299 -13866762 -13878956 -14154186 -14690156 
2962.146 -15425661 -16243776 -17001478 -17547504 -17774462 -17643786 
2962.508 -17194200 -16525805 -15771490 -15065505 -14502696 -14135648 
2962.870 -13975543 -14007306 -14205850 -14545956 -15003796 -15546775 
2963.232 -16127709 -16684271 -17139196 -17422746 -17486434 -17317340 
2963.594 -16943994 -16433358 -15878325 -15369856 -14986991 -14776474 
2963.955 -14744575 -14859957 -15065185 -15296099 -15494503 -15628831 
2964.317 -15696108 -15718766 -15728353 -15751008 -15793346 -15839383 
2964.679 -15857019 -15811525 -15683580 -15476374 -15217722 -14948449 
2965.041 -14713186 -14544385 -14456259 -14446195 -14498979 -14594113 
2965.403 -14709182 -14824125 -14919860 -14980397 -14996050 -14966152 
2965.764 -14900779 -14816280 -14728400 -14642553 -14548551 -14422318 
2966.126 -14238782 -13988151 -13689253 -13390629 -13162203 -13072734 
2966.488 -13160596 -13419928 -13795638 -14205401 -14557747 -14787682 
2966.850 -14874941 -14845131 -14756105 -14671737 -14643419 -14689066 
2967.212 -14794311 -14921365 -15029402 -15086563 -15082627 -15029754 
2967.573 -14957253 -14898378 -14876318 -14894824 -14933371 -14953475 
2967.935 -14908431 -14765136 -14519392 -14205914 -13887974 -13645072 
2968.297 -13544463 -13612512 -13825937 -14114800 -14391803 -14574024 
2968.659 -14616924 -14522596 -14330992 -14093567 -13845837 -13590676 
2969.021 -13296933 -12914617 -12397639 -11726459 -10912253 -9991973 -9010386 
2969.443 -8014149 -7047180 -6157998 -5416630 -4912037 -4739088 -4976114 
2969.865 -5646025 -6698506 -8006244 -9406756 -10731041 -11852124 -12715319 
2970.287 -13327814 -13738018 -13997199 -14137893 -14162909 -14059821 
2970.649 -13825295 -13485332 -13100480 -12755476 -12526233 -12460427 
2971.011 -12559614 -12784014 -13064889 -13327396 -13512634 -13579275 
2971.373 -13509229 -13304067 -12985917 -12597178 -12202872 -11889265 
2971.734 -11740488 -11821751 -12153804 -12699906 -13368974 -14038520 
2972.096 -14597765 -14967432 -15126277 -15104612 -14966953 -14778587 
2972.458 -14581938 -14388213 -14181798 -13938323 -13644462 -13311298 
2972.820 -12975400 -12689672 -12503344 -12452217 -12545419 -12765546 
2973.182 -13070419 -13405535 -13716091 -13953147 -14087697 -14112202 
2973.543 -14040221 -13898532 -13719141 -13528532 -13340056 -13156127 
2973.905 -12973503 -12793923 -12631874 -12515996 -12480485 -12555333 
2974.267 -12750231 -13046851 -13397761 -13741036 -14011508 -14154539 
2974.629 -14140972 -13965981 -13650691 -13234555 -12775424 -12339575 
2974.991 -11990097 -11782249 -11743842 -11868567 -12110176 -12395867 
2975.353 -12641143 -12771660 -12749105 -12576707 -12298897 -11979623 
2975.714 -11689981 -11484377 -11389850 -11407053 -11513419 -11673563 
2976.076 -11843000 -11981137 -12054653 -12046145 -11960831 -11828039 
2976.438 -11696787 -11616080 -11621951 -11716396 -11865795 -12006052 
2976.800 -12069542 -12012949 -11832875 -11569527 -11288490 -11056372 
2977.162 -10908924 -10841580 -10815565 -10784310 -10717691 -10623061 
2977.523 -10541832 -10533036 -10641362 -10872119 -11180972 -11487442 
2977.885 -11702237 -11752775 -11613629 -11310088 -10912963 -10510138 
2978.247 -10191455 -10024708 -10041641 -10238254 -10576305 -10997192 
2978.609 -11428935 -11808079 -12093711 -12274547 -12370395 -12419760 
2978.971 -12460910 -12508623 -12542425 -12507110 -12334486 -11960992 
2979.333 -11352698 -10514052 -9483335 -8315645 -7064947 -5784775 -4527674 
2979.755 -3362677 -2392369 -1738174 -1523676 -1832846 -2666838 -3925619 
2980.177 -5418364 -6926345 -8238666 -9226603 -9869298 -10246117 -10495650 
2980.599 -10757354 -11129818 -11632564 -12212279 -12768185 -13201868 
2980.961 -13443733 -13478168 -13339927 -13099065 -12833236 -12601008 
2981.323 -12434024 -12330010 -12263079 -12196622 -12101025 -11965279 
2981.684 -11802307 -11645016 -11537715 -11520775 -11613790 -11808402 
2982.046 -12067576 -12339028 -12567469 -12716124 -12778416 -12777837 
2982.408 -12758500 -12768088 -12844656 -13000805 -13223371 -13476563 
2982.770 -13716734 -13899655 -13992290 -13979970 -13867468 -13678464 
2983.132 -13448808 -13223081 -13039938 -12921950 -12869585 -12859324 
2983.493 -12850543 -12798362 -12672681 -12465192 -12192208 -11883398 
2983.855 -11569302 -11265730 -10969020 -10660114 -10319280 -9940291 -9538605 
2984.277 -9148648 -8811529 -8560020 -8404052 -8328777 -8301602 -8289120 
2984.699 -8268542 -8237852 -8213565 -8224132 -8296435 -8446201 -8674100 
2985.122 -8966278 -9298025 -9637392 -9953373 -10218577 -10415755 -10544711 
2985.544 -10625551 -10697487 -10806482 -10993994 -11276481 -11636307 
2985.906 -12019235 -12350589 -12558809 -12593701 -12446227 -12147489 
2986.267 -11757870 -11341432 -10952867 -10625907 -10373473 -10199061 
2986.629 -10108203 -10112411 -10228318 -10466895 -10823191 -11270410 
2986.991 -11763707 -12248423 -12670847 -12992252 -13190522 -13260073 
2987.353 -13208168 -13050196 -12808046 -12507722 -12181512 -11863247 
2987.715 -11582626 -11361962 -11210840 -11127234 -11103109 -11131562 
2988.076 -11209742 -11339334 -11520065 -11742907 -11985069 -12214147 
2988.438 -12393871 -12497839 -12518410 -12467510 -12369139 -12247167 
2988.800 -12115880 -11974884 -11817011 -11639629 -11457302 -11306698 
2989.162 -11238092 -11292332 -11480472 -11760772 -12042632 -12189631 
2989.524 -12062098 -11558364 -10645210 -9383605 -7924231 -6492973 -5323423 
2989.946 -4625739 -4537740 -5090714 -6212093 -7741314 -9479898 -11209936 
2990.368 -12747882 -13970601 -14811956 -15267565 -15374716 -15199422 
2990.730 -14815062 -14299029 -13731758 -13187211 -12739323 -12450896 
2991.092 -12360541 -12476075 -12767155 -13172039 -13603168 -13971436 
2991.453 -14204952 -14258919 -14128143 -13843847 -13469689 -13083537 
2991.815 -12771724 -12613690 -12663510 -12944560 -13437244 -14082628 
2992.177 -14781950 -15421727 -15897077 -16126305 -16076146 -15762351 
2992.539 -15244916 -14604879 -13930846 -13301239 -12770147 -12373068 
2992.901 -12127803 -12040441 -12108565 -12319220 -12647033 -13047623 
2993.262 -13463296 -13830206 -14086926 -14193985 -14140299 -13947596 
2993.624 -13659907 -13335847 -13029617 -12775874 -12588551 -12459204 
2993.986 -12368560 -12295773 -12230996 -12179160 -12158573 -12191146 
2994.348 -12291844 -12458012 -12666567 -12876630 -13040839 -13124238 
2994.710 -13113886 -13028363 -12911143 -12822684 -12817762 -12927128 
2995.072 -13148895 -13446078 -13758178 -14014107 -14158451 -14160248 
2995.433 -14022288 -13775127 -13469270 -13158570 -12885925 -12680212 
2995.795 -12552919 -12503440 -12523592 -12603486 -12733017 -12900175 
2996.157 -13090578 -13284690 -13457932 -13585988 -13647480 -13630655 
2996.519 -13537975 -13386387 -13205435 -13028331 -12888274 -12806759 
2996.881 -12790224 -12827670 -12895576 -12964402 -13006304 -13005371 
2997.242 -12959031 -12878141 -12778738 -12674612 -12568016 -12446678 
2997.604 -12286980 -12064160 -11767029 -11409215 -11033631 -10706345 
2997.966 -10506419 -10496005 -10706894 -11125782 -11698496 -12338899 
2998.328 -12953757 -13470620 -13846735 -14076277 -14180099 -14188854 
2998.690 -14124134 -13989499 -13773073 -13461144 -13054890 -12585977 
2999.052 -12114269 -11721879 -11488411 -11460852 -11639017 -11964601 
2999.413 -12336644 -12623603 -12704250 -12494780 -11962990 -11139539 
2999.775 -10107976 -8994482 -7933178 -7057221 -6476749 -6257525 -6421644 
3000.197 -6940106 -7744373 -8727297 -9765899 -10741935 -11547878 -12114817 
3000.619 -12417925 -12480742 -12366241 -12167336 -11987970 -11913444 
3000.981 -12001927 -12267396 -12679215 -13166768 -13637719 -14002621 
3001.343 -14186770 -14153737 -13908159 -13494807 -12982250 -12448804 
3001.705 -11968180 -11589594 -11337107 -11207580 -11177548 -11211390 
3002.067 -11272090 -11330909 -11370290 -11387945 -11393400 -11406407 
3002.428 -11448976 -11539973 -11691239 -11902741 -12162890 -12449802 
3002.790 -12737876 -12999229 -13210321 -13355126 -13425005 -13418868 
3003.152 -13342016 -13204343 -13019971 -12805859 -12583144 -12373841 
3003.514 -12201423 -12088425 -12052300 -12104537 -12247360 -12472694 
3003.876 -12761010 -13082348 -13401873 -13680262 -13883706 -13989146 
3004.238 -13987349 -13884862 -13702062 -13467055 -13207010 -12944849 
3004.599 -12695304 -12464935 -12256766 -12073473 -11919472 -11800953 
3004.961 -11722879 -11686852 -11689916 -11727458 -11797470 -11905223 
3005.323 -12063419 -12290813 -12603937 -13007686 -13489861 -14019080 
3005.685 -14554286 -15049919 -15471002 -15799703 -16032718 -16176011 
3006.047 -16233914 -16203623 -16074197 -15832642 -15473688 -15007669 
3006.408 -14461803 -13875972 -13288289 -12731344 -12224101 -11777606 
3006.770 -11403438 -11120840 -10958198 -10946404 -11101236 -11410990 
3007.132 -11825620 -12270456 -12657396 -12914971 -13013797 -12973567 
3007.494 -12856622 -12739935 -12693438 -12748525 -12890943 -13065211 
3007.856 -13199554 -13229541 -13118290 -12869875 -12527391 -12161698 
3008.218 -11848448 -11659080 -11642242 -11814238 -12157703 -12622669 
3008.579 -13136744 -13611388 -13968292 -14154378 -14156302 -14003776 
3008.941 -13760842 -13505375 -13297544 -13165417 -13094597 -13039842 
3009.303 -12941440 -12753963 -12463679 -12093034 -11691078 -11313445 
3009.665 -11008240 -10798952 -10687950 -10662895 -10710127 -10821188 
3010.027 -10993832 -11226436 -11508320 -11814786 -12111691 -12359994 
3010.388 -12531511 -12617841 -12633290 -12608089 -12578573 -12575548 
3010.750 -12613882 -12692118 -12795146 -12903905 -13000227 -13071641 
3011.112 -13112054 -13119512 -13093086 -13031836 -12934106 -12798813 
3011.474 -12625663 -12417056 -12176583 -11910962 -11629662 -11344822 
3011.836 -11072166 -10828298 -10626101 -10473041 -10367456 -10300287 
3012.198 -10258220 -10231198 -10217153 -10224337 -10267410 -10360888 
3012.559 -10510397 -10707024 -10926049 -11132337 -11293333 -11384265 
3012.921 -11395272 -11329198 -11191983 -10982880 -10686819 -10273623 
3013.283 -9710204 -8976470 -8085021 -7089102 -6084948 -5196051 -4533839 
3013.705 -4178578 -4151471 -4415057 -4883567 -5452526 -6028060 -6536483 
3014.127 -6939617 -7227457 -7406356 -7487360 -7479185 -7386551 -7214943 
3014.549 -6976431 -6692861 -6391704 -6104290 -5857876 -5671960 -5561930 
3014.971 -5538769 -5609818 -5771795 -6002147 -6248903 -6427128 -6439828 
3015.394 -6194683 -5640465 -4791721 -3742323 -2652151 -1701706 -1067359 
3015.816 -860334 -1106525 -1745302 -2654193 -3677801 -4649146 -5425694 
3016.238 -5882066 -5920277 -5482889 -4563414 -3230419 -1630707 -3048 1369865 
3016.720 2228937 2389362 1819618 655289 -809637 -2214721 -3186708 -3419257 
3017.203 -2755381 -1202953 1043483 3655212 6185265 8181094 9294102 9337602 
3017.685 8366667 6660390 4681937 2919923 1790072 1530770 2140556 3402141 
3018.167 4956567 6451263 7619386 8379842 8829242 9181326 9645988 10328391 
3018.650 11181961 12023995 12606338 12706155 12229587 11237857 9935404 
3019.072 8578545 7416605 6606257 6179080 6054006 6074536 6065867 5860484 
3019.554 5342489 4450058 3171645 1540213 -373359 -2463539 -4610724 -6682094 
3020.037 -8556154 -10147468 -11407956 -12336032 -12963469 -13342788 
3020.399 -13527055 -13559975 -13477205 -13308695 -13088649 -12863249 
3020.760 -12683527 -12602424 -12660195 -12871998 -13222824 -13668125 
3021.122 -14146714 -14587353 -14929721 -15135333 -15192032 -15115237 
3021.484 -14939997 -14712033 -14471130 -14244650 -14042081 -13857968 
3021.846 -13680230 -13500139 -13320841 -13157638 -13032447 -12962151 
3022.208 -12950637 -12983762 -13035019 -13076849 -13094629 -13094854 
3022.570 -13103342 -13151113 -13259077 -13421953 -13605319 -13752913 
3022.931 -13809537 -13744471 -13568035 -13333244 -13119802 -13015918 
3023.293 -13083023 -13340120 -13757312 -14268345 -14786498 -15228312 
3023.655 -15537377 -15685562 -15677284 -15539071 -15313979 -15049471 
3024.017 -14789283 -14572070 -14421549 -14345483 -14334006 -14364460 
3024.379 -14405683 -14427221 -14409272 -14343207 -14231504 -14080832 
3024.740 -13896190 -13677020 -13419447 -13123916 -12804025 -12491303 
3025.102 -12236053 -12092003 -12104892 -12295322 -12649704 -13118709 
3025.464 -13627283 -14097576 -14457829 -14663440 -14704570 -14604622 
3025.826 -14413984 -14197993 -14029506 -13968933 -14057158 -14306114 
3026.188 -14695377 -15174562 -15673641 -16124709 -16470876 -16682582 
3026.550 -16758144 -16716443 -16582482 -16373344 -16093291 -15737748 
3026.911 -15305024 -14812597 -14302491 -13840091 -13499144 -13333437 
3027.273 -13363447 -13563219 -13871383 -14202483 -14477796 -14647070 
3027.635 -14692654 -14628906 -14486609 -14298035 -14083943 -13853828 
3027.997 -13611998 -13366724 -13135876 -12945813 -12821622 -12779445 
3028.359 -12819403 -12927514 -13081930 -13263994 -13463103 -13674419 
3028.720 -13891376 -14095555 -14251160 -14314353 -14244298 -14022641 
3029.082 -13665429 -13223435 -12764613 -12345050 -11989227 -11672886 
3029.444 -11334879 -10897356 -10308634 -9571536 -8761524 -8006146 -7461761 
3029.866 -7266364 -7490682 -8125771 -9081486 -10222104 -11390463 -12454471 
3030.288 -13332473 -13991649 -14446612 -14738713 -14922038 -15043614 
3030.650 -15138725 -15227256 -15311996 -15379450 -15401772 -15344973 
3031.012 -15174722 -14872860 -14449144 -13950227 -13454077 -13052993 
3031.374 -12836806 -12859292 -13123981 -13575261 -14116501 -14624293 
3031.736 -14983054 -15120260 -15016504 -14712129 -14287070 -13844232 
3032.097 -13477205 -13250142 -13194861 -13307024 -13558368 -13906908 
3032.459 -14314931 -14752710 -15202334 -15653251 -16093099 -16499011 
3032.821 -16838188 -17069052 -17156810 -17087594 -16877486 -16570777 
3033.183 -16227530 -15909152 -15653506 -15469500 -15337457 -15226553 
3033.545 -15113125 -15000211 -14919989 -14927832 -15075106 -15382904 
3033.906 -15825167 -16329117 -16796812 -17128588 -17263432 -17192036 
3034.268 -16959036 -16638037 -16309012 -16030483 -15822515 -15672043 
3034.630 -15547510 -15422367 -15288197 -15164035 -15088228 -15107364 
3034.992 -15256752 -15548310 -15963353 -16456679 -16958144 -17384896 
3035.354 -17662144 -17731078 -17566758 -17184836 -16642310 -16024575 
3035.716 -15424029 -14928536 -14595139 -14443407 -14454208 -14582098 
3036.077 -14767218 -14951779 -15096324 -15181217 -15208029 -15193376 
3036.439 -15164131 -15148676 -15168930 -15236598 -15346156 -15476023 
3036.801 -15590283 -15651908 -15634714 -15534371 -15370591 -15182017 
3037.163 -15009398 -14876639 -14783999 -14706524 -14611638 -14475744 
3037.525 -14304062 -14132986 -14024437 -14038457 -14212713 -14548295 
3037.886 -15011447 -15546807 -16098974 -16633986 -17138304 -17613626 
3038.248 -18060266 -18463996 -18794788 -19018622 -19112168 -19078874 
3038.610 -18950112 -18774986 -18595854 -18431064 -18265006 -18058392 
3038.972 -17765176 -17356786 -16837550 -16244031 -15631836 -15053023 
3039.334 -14547141 -14132954 -13817657 -13611100 -13533928 -13616655 
3039.696 -13888167 -14355293 -14989840 -15723271 -16468003 -17129928 
3040.057 -17640066 -17971674 -18138990 -18186114 -18163522 -18110102 
3040.419 -18036682 -17927324 -17748540 -17468930 -17075646 -16586948 
3040.781 -16051942 -15547318 -15159267 -14956741 -14980589 -15224122 
3041.143 -15634425 -16117748 -16566472 -16883764 -17001478 -16899636 
3041.505 -16603021 -16171414 -15673770 -15175873 -14726383 -14351734 
3041.866 -14064536 -13868976 -13765304 -13749447 -13809280 -13922920 
3042.228 -14059084 -14189078 -14294797 -14378629 -14463086 -14583829 
3042.590 -14774231 -15049727 -15400845 -15794560 -16189227 -16544336 
3042.952 -16837134 -17064976 -17238658 -17372098 -17471062 -17528570 
3043.314 -17527774 -17449544 -17281710 -17025566 -16695496 -16314149 
3043.676 -15904136 -15485679 -15073378 -14679105 -14317880 -14009102 
3044.037 -13777792 -13651365 -13650724 -13784757 -14041664 -14388918 
3044.399 -14771317 -15118629 -15362403 -15443056 -15330036 -15029019 
3044.761 -14584853 -14070086 -13565017 -13143526 -12847100 -12681917 
3045.123 -12621671 -12624890 -12650701 -12676029 -12702898 -12755025 
3045.485 -12866755 -13066818 -13368685 -13761998 -14214028 -14671993 
3045.846 -15077635 -15378554 -15539742 -15558572 -15470139 -15347020 
3046.208 -15278538 -15355400 -15636727 -16125984 -16762767 -17433376 
3046.570 -18006930 -18359796 -18422774 -18192596 -17728852 -17122856 
3046.932 -16470047 -15842482 -15274091 -14772246 -14334166 -13965082 
3047.294 -13686394 -13529046 -13517356 -13655283 -13919294 -14265588 
3047.656 -14643323 -15014967 -15363171 -15686616 -15987851 -16258331 
3048.017 -16470876 -16588256 -16577030 -16431604 -16183928 -15906373 
3048.379 -15688693 -15607640 -15703874 -15958820 -16295480 -16587904 
3048.741 -16700279 -16509060 -15935374 -14968585 -13674098 -12193400 
3049.103 -10711872 -9450105 -8606116 -8310510 -8606214 -9431819 -10643851 
3049.525 -12042632 -13438497 -14678432 -15671244 -16395103 -16876976 
3049.887 -17167160 -17311354 -17342714 -17278366 -17128938 -16909260 
3050.249 -16641129 -16348455 -16050026 -15752414 -15451562 -15142180 
3050.610 -14830209 -14540925 -14317880 -14206107 -14238013 -14414754 
3050.972 -14704730 -15050654 -15393681 -15695693 -15950227 -16181979 
3051.334 -16431412 -16733246 -17095652 -17494294 -17877086 -18186370 
3051.696 -18372500 -18412008 -18308718 -18089222 -17789188 -17442384 
3052.058 -17081414 -16735891 -16439419 -16233467 -16159698 -16251022 
3052.419 -16516842 -16932302 -17432134 -17917880 -18282956 -18423824 
3052.781 -18269264 -17796726 -17036526 -16068738 -15007317 -13994055 
3053.143 -13164325 -12635060 -12488695 -12753159 -13397696 -14330640 
3053.505 -15419968 -16499490 -17403072 -18002320 -18215410 -18032710 
3053.867 -17511290 -16767612 -15942849 -15176225 -14583380 -14226790 
3054.229 -14115699 -14209121 -14437382 -14716677 -14973259 -15162467 
3054.590 -15270060 -15312924 -15326390 -15354408 -15432855 -15581620 
3054.952 -15801109 -16073175 -16366355 -16640140 -16856004 -16979748 
3055.314 -16988256 -16875032 -16652195 -16351677 -16017964 -15705792 
3055.676 -15464096 -15325494 -15300737 -15375612 -15517395 -15684700 
3056.038 -15844272 -15977502 -16085150 -16182873 -16291492 -16425764 
3056.399 -16585704 -16753107 -16895652 -16974332 -16949890 -16794326 
3056.761 -16496619 -16068738 -15545784 -14986414 -14468630 -14069958 
3057.123 -13859284 -13875234 -14112843 -14517405 -14995858 -15443408 
3057.485 -15762320 -15896054 -15836827 -15620394 -15304895 -14953187 
3057.847 -14619839 -14341059 -14141100 -14027934 -13987221 -13962933 
3058.208 -13842178 -13463810 -12624279 -11146450 -8946090 -6095860 -2849009 
3058.631 374974 3048068 4704445 5027523 3963332 1723735 -1262954 -4489013 
3059.113 -7528393 -10081495 -12038539 -13438947 -14410650 -15093763 
3059.475 -15595461 -15976992 -16258746 -16449247 -16566344 -16639534 
3059.837 -16702861 -16774340 -16844020 -16873312 -16812178 -16623080 
3060.198 -16298544 -15870947 -15405290 -14986799 -14691725 -14575338 
3060.560 -14660814 -14936348 -15358246 -15858967 -16362941 -16792318 
3060.922 -17087242 -17219774 -17198404 -17065676 -16881278 -16705444 
3061.284 -16574988 -16496746 -16451638 -16412525 -16361123 -16301289 
3061.646 -16256895 -16259128 -16324425 -16440026 -16561592 -16628468 
3062.008 -16590934 -16428350 -16161134 -15841525 -15534083 -15283240 
3062.369 -15101668 -14966888 -14840424 -14686952 -14495581 -14283126 
3062.731 -14085580 -13937007 -13850844 -13815153 -13800324 -13777856 
3063.093 -13738500 -13700682 -13704021 -13791882 -13987221 -14280690 
3063.455 -14629290 -14975499 -15263342 -15461634 -15569696 -15612147 
3063.817 -15621128 -15619530 -15612339 -15587278 -15527242 -15422686 
3064.178 -15281736 -15129860 -15000243 -14918163 -14892615 -14911217 
3064.540 -14947937 -14971658 -14960486 -14907919 -14823165 -14726127 
3064.902 -14640343 -14589211 -14592063 -14665330 -14822012 -15068385 
3065.264 -15398830 -15791619 -16210230 -16606944 -16938324 -17180888 
3065.626 -17336920 -17431722 -17500120 -17568348 -17638570 -17686894 
3065.988 -17670448 -17548458 -17297534 -16925290 -16466696 -15975298 
3066.349 -15503711 -15087139 -14744095 -14479302 -14296047 -14205850 
3066.711 -14227591 -14378180 -14658859 -15045566 -15488013 -15920332 
3067.073 -16286353 -16549727 -16706431 -16776474 -16793912 -16789066 
3067.435 -16781066 -16779152 -16785496 -16794804 -16781448 -16682837 
3067.797 -16377077 -15679330 -14391162 -12345855 -9505898 -6021950 -2278768 
3068.219 1170013 3751856 4980597 4644962 2851345 1789 -3362677 -6689044 
3068.701 -9537891 -11693045 -13134236 -13997328 -14474174 -14751717 
3069.063 -14946881 -15095524 -15179169 -15161283 -15021977 -14776249 
3069.425 -14471770 -14176026 -13961778 -13885504 -13982377 -14257604 
3069.787 -14684646 -15202878 -15726915 -16169116 -16453777 -16548101 
3070.148 -16470078 -16286768 -16085597 -15942754 -15897237 -15934832 
3070.510 -15998900 -16015314 -15930584 -15729854 -15445646 -15138725 
3070.872 -14878496 -14713795 -14658827 -14695665 -14787810 -14896553 
3071.234 -14991856 -15060032 -15100260 -15122437 -15142725 -15185056 
3071.596 -15279785 -15455943 -15734551 -16113948 -16563473 -17022476 
3071.958 -17417970 -17688548 -17800956 -17765176 -17627212 -17452984 
3072.319 -17298872 -17196524 -17145598 -17122666 -17097692 -17050798 
3072.681 -16981596 -16904670 -16837358 -16788876 -16752724 -16710864 
3073.043 -16643425 -16538978 -16401134 -16247766 -16104402 -15992800 
3073.405 -15928125 -15915347 -15950387 -16021509 -16108967 -16185524 
3073.767 -16214507 -16158389 -15989574 -15702244 -15322232 -14906222 
3074.128 -14534388 -14282613 -14210371 -14343720 -14673338 -15162787 
3074.490 -15761394 -16419098 -17083482 -17703690 -18227104 -18596868 
3074.852 -18767212 -18716818 -18463296 -18063412 -17605226 -17184934 
3075.214 -16871940 -16697759 -16645370 -16666543 -16697982 -16689660 
3075.576 -16617149 -16480988 -16298352 -16090002 -15875388 -15669679 
3075.938 -15491562 -15366402 -15321272 -15374908 -15521551 -15724964 
3076.299 -15917584 -16022852 -15985008 -15787562 -15466782 -15099588 
3076.661 -14783231 -14596003 -14576940 -14715524 -14960390 -15231864 
3077.023 -15438099 -15490570 -15292900 -14745600 -13758114 -12261050 
3077.385 -10248803 -7809172 -5157121 -2603211 -510957 770154 1025216 216651 
3077.867 -1490888 -3799642 -6334530 -8752821 -10826521 -12439596 -13590226 
3078.289 -14340866 -14776474 -14964808 -14950594 -14770933 -14472700 
3078.651 -14130484 -13846350 -13716253 -13806487 -14118360 -14584052 
3079.013 -15075234 -15449387 -15600767 -15488332 -15154980 -14706171 
3079.375 -14281203 -13997776 -13925969 -14074353 -14398471 -14821979 
3079.737 -15263759 -15665587 -15994301 -16243776 -16425924 -16562549 
3080.098 -16677704 -16796144 -16945302 -17148688 -17422584 -17766226 
3080.460 -18156912 -18547058 -18870364 -19062828 -19073420 -18882672 
3080.822 -18506038 -17990146 -17396578 -16783266 -16200399 -15682079 
3081.184 -15252498 -14936476 -14761133 -14755016 -14938589 -15308349 
3081.546 -15823761 -16402984 -16943008 -17330966 -17484746 -17379802 
3081.907 -17060420 -16630128 -16219135 -15952941 -15901165 -16061425 
3082.269 -16356017 -16667916 -16872960 -16886856 -16695527 -16353782 
3082.631 -15962714 -15623749 -15412037 -15346156 -15391890 -15478420 
3082.993 -15534435 -15513015 -15406633 -15246196 -15086435 -14984238 
3083.355 -14975564 -15069537 -15245300 -15463392 -15672939 -15825359 
3083.717 -15885353 -15833601 -15673289 -15429082 -15147013 -14882658 
3084.078 -14692398 -14621378 -14687689 -14879456 -15154276 -15454087 
3084.440 -15714580 -15886854 -15949780 -15914645 -15820503 -15722122 
3084.802 -15678627 -15732188 -15899377 -16164135 -16483061 -16792510 
3085.164 -17025374 -17132316 -17089218 -16905660 -16616670 -16274067 
3085.526 -15927326 -15611348 -15344077 -15126885 -14954404 -14821371 
3085.887 -14727087 -14671898 -14651523 -14652869 -14652068 -14617469 
3086.249 -14515450 -14303453 -13922599 -13288064 -12270907 -10718596 
3086.611 -8486559 -5488517 -1762661 2478627 6823941 10754100 13691707 
3087.033 15159348 14923730 13036165 9830731 5798795 1512781 -2542736 
3087.455 -6038484 -8801171 -10818311 -12183735 -13052832 -13584959 -13928344 
3087.877 -14199437 -14469079 -14772470 -15108868 -15453161 -15767943 
3088.239 -16022053 -16203973 -16326850 -16422831 -16530335 -16678628 
3088.601 -16873182 -17093996 -17300020 -17445216 -17485256 -17388652 
3088.963 -17142318 -16751960 -16245820 -15673066 -15108581 -14637268 
3089.325 -14338174 -14264626 -14418952 -14745343 -15135973 -15470171 
3089.687 -15640274 -15591114 -15333618 -14937725 -14502728 -14117911 
3090.048 -13845451 -13704342 -13681868 -13750859 -13888359 -14080929 
3090.410 -14319676 -14590845 -14867160 -15108868 -15279049 -15353224 
3090.772 -15331571 -15235798 -15098180 -14944543 -14782943 -14605615 
3091.134 -14399207 -14160792 -13907325 -13671337 -13490407 -13388444 
3091.496 -13364058 -13392010 -13435799 -13467504 -13478168 -13479229 
3091.857 -13488993 -13517259 -13552749 -13565594 -13522076 -13408203 
3092.219 -13243747 -13086816 -13010034 -13080869 -13331316 -13744535 
3092.581 -14256193 -14775032 -15212956 -15498628 -15598530 -15517939 
3092.943 -15297602 -15002900 -14717799 -14536471 -14539291 -14780381 
3093.305 -15264046 -15936812 -16684463 -17360224 -17830978 -18002670 
3093.667 -17857944 -17453334 -16902536 -16328255 -15827499 -15449515 
3094.028 -15190528 -15013526 -14874653 -14748898 -14635858 -14554415 
3094.390 -14524807 -14553838 -14625030 -14703833 -14746496 -14719176 
3094.752 -14609204 -14430459 -14219543 -14029859 -13920803 -13940119 
3095.114 -14117398 -14451356 -14908271 -15423070 -15915507 -16312299 
3095.476 -16557669 -16625121 -16507560 -16193025 -15642256 -14773623 
3095.837 -13467858 -11616693 -9167724 -6188737 -2882846 395800 3211700 
3096.260 5167122 5961148 5498061 3891548 1435981 -1500233 -4557447 -7436160 
3096.742 -9958717 -12044534 -13691660 -14941598 -15856858 -16501149 
3097.104 -16926532 -17177672 -17285882 -17269132 -17135724 -16889946 
3097.466 -16541913 -16121419 -15679810 -15289254 -15028859 -14955652 
3097.827 -15087715 -15387381 -15771938 -16124964 -16335338 -16333329 
3098.189 -16106350 -15706526 -15231160 -14801549 -14517565 -14437638 
3098.551 -14563259 -14845451 -15198271 -15526443 -15757399 -15852802 
3098.913 -15819959 -15702499 -15568546 -15484687 -15493767 -15604411 
3099.275 -15784239 -15969453 -16079210 -16047247 -15838202 -15466430 
3099.636 -14993361 -14520321 -14161498 -14006631 -14106076 -14450555 
3099.998 -14978892 -15592232 -16190663 -16701521 -17093104 -17380502 
3100.360 -17609456 -17834858 -18093640 -18395432 -18719262 -19027534 
3100.722 -19277746 -19438222 -19494964 -19447632 -19305002 -19078906 
3101.084 -18785268 -18444118 -18082516 -17733622 -17425800 -17175536 
3101.446 -16978410 -16812528 -16647603 -16462997 -16263820 -16086809 
3101.807 -15991459 -16037572 -16267076 -16680924 -17236620 -17852252 
3102.169 -18435162 -18898660 -19182616 -19265226 -19158236 -18898724 
3102.531 -18533756 -18116046 -17693510 -17302852 -16968914 -16697122 
3102.893 -16476076 -16283641 -16101465 -15927518 -15785230 -15715571 
3103.255 -15762959 -15949205 -16255714 -16616607 -16936444 -17126008 
3103.616 -17128048 -16945748 -16639695 -16310256 -16053889 -15934512 
3103.978 -15965654 -16114045 -16317436 -16511867 -16656531 -16734935 
3104.340 -16751513 -16717048 -16638482 -16515248 -16342456 -16115129 
3104.702 -15828362 -15469596 -15007509 -14390393 -13547000 -12405528 
3105.064 -10924337 -9113868 -7054450 -4883796 -2792222 -982240 370596 
3105.486 1124300 1201809 592343 -644905 -2389766 -4467500 -6662321 -8768896 
3105.968 -10605698 -12053428 -13075049 -13705915 -14032104 -14151748 
3106.330 -14153256 -14090904 -13987382 -13853603 -13703603 -13567778 
3106.692 -13490503 -13511284 -13649567 -13893237 -14204214 -14529966 
3107.054 -14826463 -15071874 -15265997 -15420863 -15546584 -15640914 
3107.416 -15692402 -15689844 -15636215 -15554001 -15480435 -15451210 
3107.777 -15480467 -15551667 -15621352 -15642416 -15584146 -15454439 
3108.139 -15297954 -15183873 -15171778 -15285159 -15496230 -15735159 
3108.501 -15910110 -15939718 -15786508 -15464831 -15038428 -14591550 
3108.863 -14211815 -13959917 -13856331 -13883449 -13995724 -14138053 
3109.225 -14259913 -14334198 -14360710 -14365775 -14388246 -14468085 
3109.586 -14629290 -14869306 -15157123 -15440850 -15666451 -15788680 
3109.948 -15789416 -15680481 -15502049 -15308734 -15155364 -15088484 
3110.310 -15132261 -15289381 -15538975 -15843920 -16152451 -16408186 
3110.672 -16562326 -16580027 -16451703 -16194398 -15850564 -15473944 
3111.034 -15117029 -14823965 -14621089 -14522116 -14534164 -14662127 
3111.396 -14907823 -15264207 -15707772 -16191429 -16648559 -17010114 
3111.757 -17214838 -17230696 -17060196 -16736625 -16308917 -15827691 
3112.119 -15336913 -14867641 -14447093 -14104664 -13869425 -13767712 
3112.481 -13808541 -13975606 -14223647 -14492730 -14728337 -14898058 
3112.843 -15004756 -15080323 -15171010 -15310269 -15506493 -15735958 
3113.205 -15955817 -16119089 -16192354 -16166179 -16052740 -15876122 
3113.566 -15661081 -15427611 -15184864 -14930137 -14642618 -14278798 
3113.928 -13766556 -13007815 -11909447 -10410579 -8530780 -6388440 -4218219 
3114.350 -2324911 -998240 -460617 -779904 -1861187 -3469749 -5322376 
3114.772 -7158986 -8796333 -10166598 -11288490 -12229449 -13053539 -13798848 
3115.195 -14466964 -15041661 -15509466 -15876377 -16166657 -16408728 
3115.556 -16613672 -16764712 -16817882 -16726805 -16466314 -16056571 
3115.918 -15564006 -15093732 -14758571 -14642266 -14784288 -15165667 
3116.280 -15720779 -16349284 -16948998 -17437290 -17759418 -17900076 
3116.642 -17875212 -17724240 -17493594 -17228978 -16965026 -16717909 
3117.004 -16488772 -16267715 -16043352 -15811589 -15580149 -15366817 
3117.365 -15195103 -15082466 -15033468 -15036124 -15065025 -15088387 
3117.727 -15079970 -15030650 -14953155 -14883010 -14867608 -14958693 
3118.089 -15193983 -15584242 -16105328 -16696930 -17271394 -17722300 
3118.451 -17957910 -17916642 -17588870 -17021520 -16314182 -15595621 
3118.813 -14981966 -14561656 -14365070 -14365550 -14490359 -14653125 
3119.175 -14784096 -14848653 -14856882 -14849198 -14872796 -14954148 
3119.536 -15087076 -15235223 -15353576 -15408296 -15399278 -15361604 
3119.898 -15355463 -15435957 -15627585 -15909119 -16219040 -16479073 
3120.260 -16623782 -16632041 -16532440 -16392870 -16285811 -16265959 
3120.622 -16344720 -16491132 -16646072 -16751163 -16774690 -16721545 
3120.984 -16630255 -16554352 -16542902 -16619636 -16778482 -16988766 
3121.345 -17211940 -17412240 -17567742 -17672992 -17733114 -17757670 
3121.707 -17752994 -17719692 -17651550 -17538562 -17369710 -17139100 
3122.069 -16849280 -16515950 -16164932 -15829448 -15539742 -15309949 
3122.431 -15133637 -14982445 -14820603 -14617565 -14366672 -14088274 
3122.793 -13820577 -13593823 -13406532 -13209453 -12918637 -12440303 
3123.155 -11714526 -10752537 -9653011 -8584287 -7727285 -7236386 -7176488 
3123.577 -7512664 -8126389 -8875422 -9646077 -10382079 -11089479 -11803855 
3123.999 -12550505 -13314446 -14037462 -14638869 -15055903 -15267502 
3124.361 -15307934 -15247444 -15169059 -15129925 -15147364 -15201918 
3124.722 -15258064 -15287430 -15285447 -15271948 -15279113 -15331923 
3125.084 -15434454 -15567107 -15694799 -15784111 -15810790 -15768040 
3125.446 -15662456 -15509402 -15327829 -15139813 -14974347 -14864183 
3125.808 -14843722 -14937244 -15148516 -15454759 -15811397 -16169529 
3126.170 -16488930 -16754797 -16978122 -17184966 -17396834 -17613022 
3126.531 -17803342 -17917880 -17903478 -17726498 -17390850 -16940362 
3126.893 -16450809 -16003435 -15671819 -15497508 -15482577 -15590922 
3127.255 -15760498 -15921736 -16010333 -15990404 -15860757 -15655711 
3127.617 -15431160 -15249491 -15155716 -15158979 -15230872 -15316795 
3127.979 -15362851 -15338320 -15254161 -15156964 -15112741 -15172130 
3128.341 -15349515 -15615088 -15911195 -16175404 -16370185 -16499011 
3128.702 -16599864 -16721927 -16893962 -17106482 -17309666 -17437514 
3129.064 -17432580 -17278366 -17004536 -16677385 -16366132 -16119249 
3129.426 -15947098 -15826061 -15717456 -15593479 -15455207 -15334034 
3129.788 -15276554 -15319865 -15474935 -15718479 -16002350 -16268928 
3130.150 -16475661 -16604360 -16663356 -16677193 -16675759 -16682072 
3130.511 -16707039 -16750876 -16807300 -16867764 -16923856 -16967862 
3130.873 -16993958 -16999056 -16983604 -16953108 -16914868 -16872706 
3131.235 -16822346 -16748102 -16627768 -16440919 -16180480 -15860565 
3131.597 -15517555 -15198175 -14939293 -14751974 -14608370 -14444881 
3131.959 -14175577 -13726526 -13059970 -12196461 -11214263 -10240227 
3132.321 -9418040 -8862079 -8639541 -8748600 -9129603 -9683829 -10314588 
3132.743 -10954482 -11577173 -12195816 -12840924 -13532065 -14256193 
3133.104 -14960390 -15564646 -15995100 -16207071 -16211348 -16070303 
3133.466 -15886920 -15768008 -15791653 -15995547 -16369738 -16872960 
3133.828 -17448844 -18047172 -18623948 -19136742 -19541498 -19784672 
3134.190 -19813322 -19594552 -19129162 -18461964 -17670384 -16853740 
3134.552 -16101688 -15481235 -15035324 -14781790 -14724685 -14856530 
3134.914 -15157827 -15586383 -16071388 -16523605 -16843764 -16956742 
3135.275 -16839048 -16532727 -16137000 -15776731 -15571486 -15587374 
3135.637 -15825296 -16222041 -16683316 -17108680 -17423222 -17593994 
3135.999 -17620976 -17525514 -17332240 -17065038 -16745903 -16400784 
3136.361 -16066566 -15782291 -15579478 -15467837 -15426364 -15407817 
3136.723 -15353353 -15220218 -14996850 -14714467 -14433311 -14228393 
3137.084 -14158900 -14247376 -14475199 -14789252 -15122212 -15410119 
3137.446 -15616941 -15739633 -15806030 -15859256 -15943360 -16084351 
3137.808 -16279588 -16496459 -16681340 -16779312 -16749376 -16584555 
3138.170 -16317373 -16018858 -15775101 -15668496 -15753468 -16036423 
3138.532 -16473267 -16974840 -17436274 -17750226 -17839088 -17673342 
3138.894 -17276234 -16718835 -16099837 -15531334 -15102725 -14865848 
3139.255 -14825278 -14941246 -15143909 -15355975 -15520144 -15608119 
3139.617 -15625283 -15597220 -15555822 -15521391 -15495974 -15469084 
3139.979 -15428858 -15374653 -15321368 -15293700 -15313180 -15384886 
3140.341 -15492233 -15600160 -15669039 -15671084 -15594822 -15443408 
3140.703 -15223226 -14933691 -14566078 -14114864 -13598961 -13075049 
3141.064 -12639920 -12412257 -12483254 -12882548 -13546454 -14336154 
3141.426 -15060032 -15542460 -15683612 -15479283 -15021048 -14451420 
3141.788 -13922375 -13535373 -13326207 -13270935 -13315122 -13404765 
3142.150 -13509518 -13629113 -13781258 -13984975 -14246126 -14554735 
3142.512 -14890566 -15231864 -15559691 -15857402 -16105680 -16277386 
3142.874 -16344273 -16284183 -16095653 -15803954 -15461186 -15132261 
3143.235 -14870907 -14709119 -14647103 -14661486 -14717478 -14786305 
3143.597 -14854289 -14920469 -14990160 -15066913 -15147332 -15225817 
3143.959 -15299778 -15375996 -15468253 -15590890 -15746983 -15922280 
3144.321 -16085468 -16200431 -16243074 -16211411 -16129624 -16038019 
3144.683 -15978333 -15973382 -16020359 -16091185 -16147630 -16152548 
3145.044 -16083201 -15936110 -15722664 -15463744 -15183425 -14909712 
3145.406 -14671929 -14500516 -14423504 -14454656 -14586744 -14785089 
3145.768 -14998963 -15170466 -15256848 -15246867 -15163875 -15058432 
3146.130 -14984750 -14986767 -15077858 -15241653 -15438963 -15627330 
3146.492 -15772386 -15856698 -15878806 -15847435 -15775388 -15676325 
3146.854 -15567554 -15472345 -15417187 -15428155 -15516788 -15672524 
3147.215 -15856348 -16012663 -16085947 -16041404 -15883405 -15658332 
3147.577 -15443759 -15314491 -15320985 -15462593 -15687224 -15900878 
3147.939 -16002731 -15922599 -15640978 -15202270 -14699573 -14253404 
3148.301 -13966045 -13899655 -14058570 -14395618 -14826975 -15261168 
3148.663 -15630493 -15899792 -16072091 -16175946 -16248213 -16313735 
3149.024 -16375704 -16415397 -16403336 -16313480 -16135052 -15879508 
3149.386 -15577273 -15267341 -14980045 -14730354 -14510804 -14298677 
3149.748 -14065531 -13793198 -13484528 -13169275 -12897183 -12724458 
3150.110 -12699713 -12843433 -13142401 -13549569 -14000825 -14426805 
3150.472 -14774039 -15016920 -15156964 -15216603 -15224474 -15206557 
3150.833 -15179425 -15153060 -15140613 -15163715 -15254065 -15444559 
3151.195 -15751136 -16156601 -16602160 -17000204 -17248116 -17265440 
3151.557 -17023270 -16556202 -15958181 -15353960 -14878111 -14629547 
3151.919 -14658411 -14959302 -15480243 -16134860 -16818966 -17435318 
3152.281 -17894828 -18132698 -18119764 -17864528 -17416218 -16853582 
3152.643 -16276650 -15776476 -15419233 -15236119 -15220250 -15338160 
3153.004 -15542523 -15790757 -16047886 -16289800 -16501276 -16672570 
3153.366 -16801084 -16895396 -16977614 -17078386 -17225824 -17431592 
3153.728 -17677956 -17917786 -18084804 -18124530 -18013098 -17775576 
3154.090 -17477206 -17207512 -17042418 -17013554 -17097436 -17223786 
3154.452 -17306036 -17270852 -17093518 -16804654 -16483413 -16222296 
3154.813 -16103284 -16168030 -16406240 -16760249 -17142572 -17467242 
3155.175 -17663702 -17701400 -17594948 -17400940 -17198818 -17068256 
3155.537 -17067268 -17208850 -17456388 -17730888 -17943794 -18018722 
3155.899 -17923478 -17681326 -17363504 -17061886 -16854188 -16784190 
3156.261 -16846220 -16996190 -17167576 -17300878 -17354684 -17309410 
3156.623 -17162638 -16920096 -16592178 -16195739 -15765259 -15355527 
3156.984 -15032411 -14863798 -14889221 -15104164 -15452936 -15848521 
3157.346 -16197111 -16429178 -16524913 -16513493 -16456934 -16415907 
3157.708 -16428605 -16493205 -16574636 -16618807 -16578848 -16432593 
3158.070 -16186481 -15870372 -15526986 -15202654 -14937373 -14764880 
3158.432 -14711425 -14788803 -14989904 -15281481 -15610005 -15906213 
3158.793 -16110053 -16191110 -16159378 -16063150 -15967665 -15931286 
3159.155 -15974948 -16071739 -16152803 -16139043 -15968049 -15625220 
3159.517 -15151812 -14637812 -14190907 -13897698 -13805363 -13901645 
3159.879 -14126668 -14387604 -14596292 -14691757 -14656873 -14521346 
3160.241 -14353786 -14240962 -14257604 -14452797 -14831939 -15357510 
3160.603 -15956040 -16541274 -17040890 -17409886 -17645886 -17781492 
3160.964 -17869582 -17954382 -18054324 -18149414 -18190436 -18112518 
3161.326 -17864304 -17432040 -16849630 -16196409 -15572733 -15083266 
3161.688 -14800748 -14751204 -14909424 -15210908 -15568098 -15890753 
3162.050 -16111363 -16190153 -16121482 -15928635 -15657661 -15367265 
3162.412 -15115237 -14956485 -14928825 -15047230 -15298434 -15642479 
3162.773 -16018093 -16354326 -16593836 -16705699 -16696485 -16607231 
3163.135 -16503317 -16450746 -16492281 -16638674 -16865724 -17129832 
3163.497 -17383590 -17597558 -17766160 -17903956 -18028290 -18146046 
3163.859 -18242798 -18289404 -18255158 -18128152 -17927100 -17701018 
3164.221 -17511416 -17404538 -17394796 -17452472 -17518100 -17523286 
3164.583 -17425928 -17227162 -16975638 -16742842 -16599672 -16582770 
3164.944 -16678277 -16823844 -16929432 -16913148 -16720429 -16348710 
3165.306 -15844112 -15293635 -14796905 -14446003 -14310218 -14416997 
3165.668 -14750852 -15252466 -15836285 -16397560 -16839080 -17097500 
3166.030 -17151936 -17032032 -16802772 -16546730 -16330041 -16184630 
3166.392 -16102519 -16047344 -15975138 -15857913 -15698697 -15529928 
3166.753 -15398446 -15341518 -15372766 -15476182 -15617644 -15759444 
3167.115 -15880754 -15983379 -16085310 -16203942 -16339231 -16462071 
3167.477 -16521785 -16458433 -16225168 -15808394 -15232472 -14555248 
3167.839 -13848147 -13187275 -12633483 -12227066 -11991387 -11932367 
3168.201 -12039732 -12285305 -12623956 -12994052 -13327011 -13568228 
3168.562 -13687358 -13692270 -13623495 -13543210 -13509390 -13553551 
3168.924 -13671787 -13828088 -13971596 -14057416 -14068547 -14021485 
3169.286 -13959853 -13933381 -13981863 -14118072 -14324549 -14560823 
3169.648 -14777370 -14933147 -15001363 -14978156 -14880320 -14743358 
3170.010 -14613240 -14541726 -14577677 -14752422 -15070530 -15499970 
3170.372 -15980218 -16428318 -16766751 -16951772 -16985292 -16919872 
3170.733 -16837008 -16823844 -16932746 -17164964 -17467402 -17757480 
3171.095 -17950248 -17991100 -17874606 -17640606 -17354334 -17072938 
3171.457 -16830314 -16625121 -16432306 -16222678 -15984178 -15730238 
3171.819 -15497413 -15324791 -15236822 -15228952 -15268813 -15305343 
3172.181 -15288933 -15191616 -15011799 -14775001 -14520545 -14291976 
3172.542 -14123172 -14034671 -14036371 -14129747 -14312302 -14577997 
3172.904 -14917076 -15313276 -15743531 -16181501 -16598269 -16966810 
3173.266 -17265376 -17476440 -17588870 -17599370 -17514440 -17351500 
3173.628 -17138144 -16908814 -16693646 -16512441 -16367951 -16246682 
3173.990 -16125474 -15983922 -15816510 -15638134 -15482034 -15390003 
3174.352 -15402124 -15541213 -15807275 -16173648 -16594442 -17009030 
3174.713 -17350100 -17558736 -17589030 -17421184 -17069022 -16584652 
3175.075 -16052069 -15565541 -15216475 -15060768 -15105189 -15304447 
3175.437 -15579223 -15838841 -16007682 -16051048 -15976001 -15823411 
3175.799 -15643727 -15481682 -15359749 -15276842 -15216731 -15160067 
3176.161 -15094372 -15017048 -14933338 -14851375 -14781405 -14735606 
3176.522 -14734101 -14807858 -14991856 -15317625 -15795870 -16404325 
3176.884 -17080966 -17734768 -18270152 -18603092 -18691776 -18543884 
3177.246 -18214046 -17782414 -17335902 -16947628 -16656818 -16471386 
3177.608 -16369801 -16315937 -16268704 -16195802 -16083522 -15938409 
3177.970 -15787084 -15668368 -15625028 -15686106 -15857402 -16112512 
3178.332 -16398996 -16645307 -16780968 -16760152 -16572818 -16252458 
3178.693 -15864749 -15498276 -15235575 -15134181 -15218362 -15473592 
3179.055 -15855070 -16298799 -16742172 -17132092 -17433630 -17632970 
3179.417 -17729806 -17730602 -17640924 -17463518 -17202608 -16869008 
3179.779 -16490558 -16111394 -15787657 -15578104 -15522159 -15628224 
3180.141 -15865803 -16174957 -16477926 -16703116 -16808702 -16787600 
3180.502 -16668137 -16496938 -16325766 -16189961 -16103508 -16061265 
3180.864 -16048525 -16051048 -16060308 -16073845 -16087959 -16090896 
3181.226 -16063118 -15978940 -15818458 -15578040 -15275914 -14949249 
3181.588 -14643450 -14402766 -14254655 -14206812 -14247376 -14351638 
3181.950 -14487442 -14618174 -14708926 -14723243 -14629643 -14411355 
3182.312 -14075924 -13665525 -13253742 -12944077 -12838383 -13012188 
3182.673 -13493426 -14247729 -15182657 -16164966 -17062236 -17759514 
3183.035 -18187290 -18331590 -18226564 -17939692 -17549096 -17134706 
3183.397 -16760344 -16470589 -16293757 -16242022 -16315235 -16501850 
3183.759 -16781670 -17124576 -17490030 -17834062 -18105812 -18256396 
3184.121 -18247976 -18058232 -17690934 -17177926 -16580187 -15973382 
3184.482 -15434262 -15025466 -14778587 -14691757 -14734358 -14864664 
3184.844 -15042525 -15244852 -15468924 -15725316 -16023489 -16358856 
3185.206 -16704200 -17015402 -17245474 -17360542 -17356116 -17261108 
3185.568 -17130532 -17021934 -16980798 -17021838 -17126646 -17251554 
3185.930 -17345134 -17368406 -17301802 -17149548 -16930548 -16669508 
3186.292 -16386425 -16095335 -15809800 -15548182 -15337968 -15214523 
3186.653 -15206781 -15327637 -15561769 -15866378 -16177064 -16428158 
3187.015 -16574446 -16600277 -16526157 -16397560 -16270747 -16189419 
3187.377 -16174957 -16222870 -16311500 -16413067 -16508931 -16596578 
3187.739 -16689660 -16809596 -16974872 -17192258 -17451232 -17726052 
3188.101 -17979018 -18173310 -18278794 -18278030 -18170864 -17971578 
3188.462 -17706872 -17406416 -17099538 -16806312 -16533429 -16274801 
3188.824 -16015410 -15739281 -15436404 -15108612 -14769523 -14439689 
3189.186 -14135840 -13865157 -13620989 -13388508 -13152559 -12912847 
3189.548 -12689319 -12526007 -12477684 -12590805 -12886827 -13345422 
3189.910 -13903859 -14463021 -14920212 -15187712 -15218362 -15019000 
3190.271 -14648705 -14205049 -13792845 -13511541 -13428281 -13568292 
3190.633 -13917048 -14428055 -15036124 -15666131 -16252905 -16745647 
3190.995 -17112918 -17346724 -17456612 -17464506 -17393778 -17262954 
3191.357 -17078068 -16832768 -16512409 -16106414 -15618635 -15079331 
3191.719 -14544194 -14089749 -13801095 -13744149 -13952409 -14409849 
3192.081 -15054111 -15778616 -16458338 -16982106 -17266584 -17282410 
3192.442 -17057362 -16671613 -16232222 -15848776 -15611316 -15560202 
3192.804 -15682623 -15914997 -16168861 -16351391 -16397115 -16288459 
3193.166 -16057881 -15775645 -15521104 -15362307 -15327637 -15400781 
3193.528 -15526698 -15636215 -15666738 -15581588 -15380153 -15090563 
3193.890 -14757866 -14424369 -14123909 -13876421 -13691949 -13577766 
3194.251 -13541508 -13589713 -13723412 -13931776 -14190778 -14465425 
3194.613 -14722379 -14937629 -15104325 -15232664 -15343022 -15454344 
3194.975 -15574556 -15697099 -15805550 -15883820 -15926080 -15944190 
3195.337 -15966803 -16033517 -16179681 -16427679 -16777622 -17207862 
3195.699 -17677542 -18135654 -18535882 -18839304 -19024108 -19086548 
3196.061 -19037934 -18898344 -18689556 -18427572 -18117284 -17753250 
3196.422 -17324630 -16824290 -16257629 -15648745 -15035676 -14468118 
3196.784 -13992707 -13640705 -13425293 -13339413 -13362644 -13467858 
3197.146 -13629916 -13826933 -14038873 -14245420 -14422414 -14542880 
3197.508 -14584533 -14533715 -14393470 -14183915 -13942173 -13714775 
3197.870 -13547610 -13483437 -13550661 -13761484 -14108995 -14568513 
3198.231 -15098660 -15646603 -16161103 -16598875 -16936634 -17174934 
3198.593 -17334182 -17444262 -17529588 -17599562 -17643246 -17634496 
3198.955 -17541076 -17340708 -17027892 -16616957 -16134094 -15610165 
3199.317 -15073058 -14544098 -14043974 -13595781 -13225041 -12959482 
3199.679 -12818277 -12805505 -12906157 -13090224 -13320969 -13563507 
3200.041 -13794900 -14002621 -14181510 -14328332 -14437830 -14505068 
3200.402 -14530223 -14523044 -14502344 -14486961 -14486897 -14493210 
3200.764 -14478084 -14404689 -14247985 -14011412 -13736606 -13490214 
3201.126 -13348635 -13366724 -13556249 -13882551 -14277548 -14669975 
3201.488 -15004308 -15263215 -15463233 -15639316 -15820503 -16013909 
3201.850 -16198643 -16339168 -16399411 -16361346 -16232606 -16042139 
3202.211 -15827755 -15622023 -15448044 -15317625 -15238454 -15218426 
3202.573 -15264462 -15376156 -15535491 -15706494 -15838234 -15881967 
3202.935 -15814081 -15647721 -15435670 -15251698 -15171810 -15241173 
3203.297 -15458500 -15774749 -16111618 -16386999 -16537575 -16541019 
3203.659 -16415397 -16211411 -15989415 -15807882 -15707230 -15702980 
3204.021 -15789161 -15942594 -16131796 -16321426 -16481051 -16589690 
3204.382 -16636442 -16620146 -16546441 -16422383 -16252905 -16041467 
3204.744 -15796348 -15535491 -15294692 -15124069 -15074786 -15186912 
3205.106 -15467837 -15884748 -16363867 -16815140 -17154166 -17324980 
3205.468 -17317466 -17160886 -16906104 -16598238 -16261937 -15894905 
3205.830 -15480275 -15008950 -14501318 -14014845 -13641893 -13478104 
3206.191 -13594851 -14014492 -14698965 -15556206 -16459677 -17289734 
3206.553 -17945892 -18367830 -18538612 -18475872 -18221416 -17829866 
3206.915 -17368502 -16907220 -16513748 -16249554 -16151462 -16225521 
3207.277 -16439674 -16733788 -17029898 -17254040 -17361052 -17339658 
3207.639 -17213628 -17025374 -16820370 -16625918 -16445322 -16261747 
3208.000 -16054433 -15814591 -15558508 -15325367 -15168226 -15132677 
3208.362 -15235607 -15455047 -15731005 -15987914 -16151175 -16177448 
3208.724 -16068002 -15867338 -15645228 -15470683 -15389588 -15404139 
3209.086 -15473848 -15527786 -15497924 -15338960 -15053855 -14694064 
3209.448 -14353786 -14139754 -14137251 -14392348 -14893224 -15575578 
3209.810 -16334733 -17059940 -17653394 -18047330 -18216300 -18168924 
3210.171 -17938898 -17569844 -17112282 -16617915 -16137032 -15725508 
3210.533 -15435670 -15309725 -15371647 -15614959 -15999187 -16450204 
3210.895 -16878122 -17190506 -17313996 -17213340 -16894218 -16402697 
3211.257 -15810374 -15211100 -14700406 -14360293 -14253340 -14402830 
3211.619 -14787490 -15339471 -15961023 -16538214 -16966620 -17182576 
3211.980 -17170188 -16967512 -16647093 -16301224 -16011354 -15829416 
3212.342 -15775835 -15841333 -16000401 -16222391 -16482806 -16763180 
3212.704 -17047420 -17318868 -17555016 -17729456 -17817908 -17802164 
3213.066 -17677000 -17452028 -17152478 -16815938 -16486347 -16212018 
3213.428 -16032781 -15973000 -16033165 -16186289 -16378863 -16540127 
3213.790 -16604902 -16525518 -16289800 -15924739 -15489579 -15057184 
3214.151 -14689451 -14426163 -14273347 -14209249 -14197095 -14203605 
3214.513 -14210468 -14220281 -14252313 -14335545 -14497216 -14753222 
3214.875 -15107877 -15553201 -16074037 -16649133 -17254198 -17861220 
3215.237 -18435130 -18937742 -19329154 -19573806 -19650196 -19555054 
3215.599 -19307698 -18946370 -18526770 -18110834 -17751182 -17485542 
3215.960 -17323198 -17244454 -17205474 -17154930 -17048504 -16862188 
3216.322 -16599959 -16289353 -15971433 -15682526 -15447341 -15271212 
3216.684 -15143876 -15046461 -14960454 -14875197 -14788034 -14704922 
3217.046 -14638165 -14605903 -14630187 -14736503 -14948834 -15280105 
3217.408 -15724199 -16247958 -16796462 -17296038 -17675570 -17886468 
3217.770 -17910378 -17763904 -17488216 -17136806 -16755147 -16376534 
3218.131 -16022084 -15705887 -15444399 -15259440 -15171970 -15195231 
3218.493 -15323991 -15531622 -15770979 -15988009 -16135339 -16180640 
3218.855 -16114747 -15948534 -15709339 -15430905 -15151012 -14907278 
3219.217 -14729842 -14640664 -14645757 -14732757 -14870554 -15017464 
3219.579 -15133925 -15190784 -15179778 -15111908 -15011606 -14904013 
3219.940 -14809906 -14743902 -14718375 -14751974 -14872604 -15109541 
3220.302 -15483568 -15988456 -16583534 -17189870 -17713138 -18069770 
3220.664 -18207468 -18124148 -17861790 -17490508 -17078768 -16682424 
3221.026 -16336169 -16056508 -15854847 -15742732 -15731452 -15824655 
3221.388 -16007075 -16240489 -16464112 -16614310 -16641226 -16524371 
3221.750 -16279396 -15952399 -15604156 -15287494 -15040317 -14877311 
3222.111 -14794888 -14779452 -14815511 -14891302 -14998418 -15130917 
3222.473 -15283399 -15450154 -15624932 -15800534 -15967505 -16115002 
3222.835 -16229829 -16300045 -16319670 -16290406 -16222678 -16129369 
3223.197 -16020551 -15896374 -15748261 -15565989 -15350826 -15126213 
3223.559 -14942687 -14862197 -14942975 -15213116 -15655264 -16203176 
3223.920 -16759802 -17230760 -17542222 -17666566 -17618334 -17440348 
3224.282 -17178214 -16863876 -16512791 -16130455 -15730303 -15347116 
3224.644 -15033468 -14851023 -14844587 -15019224 -15329716 -15686521 
3225.006 -15982293 -16112160 -16012121 -15674440 -15151716 -14537881 
3225.368 -13949745 -13498372 -13255220 -13242654 -13425005 -13725466 
3225.729 -14041440 -14281170 -14393502 -14379494 -14291334 -14208095 
3226.091 -14208159 -14330287 -14560470 -14832739 -15061984 -15170370 
3226.453 -15121989 -14934139 -14667701 -14398535 -14182440 -14041022 
3226.815 -13956901 -13894232 -13821509 -13734615 -13659553 -13642086 
3227.177 -13720714 -13909828 -14188212 -14510131 -14817976 -15064385 
3227.539 -15224601 -15292005 -15269997 -15160387 -14959238 -14662479 
3227.900 -14277259 -13832870 -13379641 -12980546 -12694983 -12557908 
3228.262 -12576674 -12733113 -13000645 -13355415 -13786362 -14290822 
3228.624 -14860532 -15468892 -16065896 -16581813 -16952536 -17138144 
3228.986 -17139354 -16996284 -16778388 -16561400 -16400337 -16322862 
3229.348 -16323118 -16373344 -16435208 -16474608 -16469153 -16406845 
3229.709 -16285332 -16107563 -15881104 -15618188 -15338512 -15070113 
3230.071 -14844234 -14692654 -14640504 -14698773 -14862389 -15108933 
3230.433 -15403340 -15699239 -15951281 -16120685 -16181724 -16128028 
3230.795 -15970955 -15735894 -15450219 -15135908 -14802670 -14447734 
3231.157 -14064825 -13655989 -13241208 -12862992 -12577608 -12438693 
3231.519 -12483962 -12718473 -13112118 -13603103 -14119002 -14586456 
3231.880 -14947233 -15170082 -15247667 -15198111 -15058368 -14884642 
3232.242 -14742813 -14698420 -14809074 -15104581 -15577625 -16177511 
3232.604 -16821996 -17409344 -17841472 -18053180 -18019612 -17762758 
3232.966 -17338670 -16827668 -16312363 -15860949 -15527274 -15339728 
3233.328 -15303776 -15401996 -15598050 -15838936 -16063852 -16219998 
3233.689 -16269756 -16203623 -16040893 -15825775 -15613394 -15450859 
3234.051 -15368864 -15370719 -15436053 -15528201 -15610836 -15658045 
3234.413 -15659930 -15622631 -15560618 -15488716 -15413668 -15334258 
3234.775 -15244564 -15141669 -15033403 -14940926 -14894248 -14924087 
3235.137 -15046366 -15252754 -15505342 -15749123 -15923429 -15982740 
3235.499 -15913943 -15739441 -15509242 -15279337 -15096772 -14980941 
3235.860 -14923126 -14894920 -14867160 -14825374 -14776697 -14744511 
3236.222 -14756265 -14826783 -14948193 -15090915 -15214971 -15289254 
3236.584 -15303872 -15277386 -15249203 -15269836 -15380441 -15600704 
3236.946 -15923589 -16318044 -16734999 -17116040 -17409120 -17571974 
3237.308 -17583684 -17448750 -17199902 -16893134 -16592082 -16359463 
3237.669 -16235286 -16227307 -16311055 -16440887 -16568130 -16656308 
3238.031 -16694922 -16695432 -16682519 -16677830 -16693551 -16729260 
3238.393 -16779502 -16841884 -16922454 -17032766 -17181844 -17366176 
3238.755 -17566408 -17750958 -17892826 -17981848 -18034362 -18085058 
3239.117 -18174294 -18323076 -18518134 -18708534 -18821090 -18791804 
3239.479 -18586742 -18223450 -17766830 -17316542 -16969360 -16797386 
3239.840 -16830408 -17050194 -17399348 -17795486 -18156372 -18405688 
3240.202 -18488762 -18380886 -18087538 -17645854 -17115020 -16572755 
3240.564 -16090896 -15723655 -15497924 -15409191 -15429562 -15521679 
3240.926 -15654657 -15809800 -15981622 -16170679 -16373375 -16575594 
3241.288 -16755115 -16886856 -16956520 -16968054 -16945748 -16924494 
3241.649 -16938132 -17006352 -17123460 -17257574 -17355576 -17362006 
3242.011 -17228086 -16933256 -16493620 -15967857 -15446253 -15030811 
3242.373 -14816920 -14857939 -15150308 -15625572 -16172722 -16659304 
3242.735 -16971208 -17051626 -16909196 -16615555 -16271545 -15981685 
3243.097 -15812483 -15778679 -15846636 -15954187 -16035624 -16039807 
3243.458 -15943807 -15747974 -15467805 -15123460 -14738842 -14343816 
3243.820 -13976569 -13690247 -13543499 -13584799 -13840091 -14297041 
3244.182 -14905229 -15580693 -16234010 -16784794 -17179614 -17401704 
3244.544 -17464758 -17402850 -17253498 -17050256 -16813580 -16551768 
3244.906 -16266182 -15957924 -15633978 -15311484 -15016119 -14777723 
3245.268 -14625030 -14575082 -14630636 -14778779 -14997522 -15262159 
3245.629 -15555119 -15869670 -16206527 -16564239 -16928668 -17262158 
3245.991 -17508904 -17605734 -17501072 -17179550 -16671007 -16047759 
3246.353 -15396783 -14802350 -14319932 -13967393 -13733556 -13592667 
3246.715 -13523265 -13517901 -13585891 -13744246 -14005348 -14365101 
3247.077 -14799211 -15265550 -15718479 -16115576 -16427808 -16642118 
3247.438 -16757060 -16777016 -16706655 -16548483 -16303714 -15975427 
3247.800 -15574843 -15123685 -14657866 -14228938 -13892563 -13704245 
3248.162 -13703153 -13897345 -14255456 -14708478 -15169762 -15550707 
3248.524 -15795549 -15898099 -15904041 -15890433 -15934769 -16084766 
3248.886 -16333679 -16623175 -16863430 -16976372 -16920670 -16714467 
3249.248 -16422031 -16133456 -15922727 -15820982 -15812580 -15849767 
3249.609 -15883021 -15888292 -15881967 -15912697 -16036008 -16278598 
3249.971 -16616000 -16966652 -17220856 -17263784 -17022220 -16488485 
3250.333 -15723975 -14839527 -13960976 -13206593 -12651248 -12325082 
3250.695 -12217563 -12294775 -12513227 -12832142 -13219610 -13647160 
3251.057 -14086735 -14509746 -14884642 -15184577 -15392978 -15506460 
3251.418 -15536194 -15503903 -15438675 -15368001 -15317146 -15307422 
3251.780 -15354216 -15467325 -15648520 -15888453 -16162794 -16433837 
3252.142 -16658412 -16793020 -16810806 -16709683 -16517194 -16282141 
3252.504 -16064491 -15918862 -15874684 -15933523 -16068993 -16240554 
3252.866 -16404133 -16526699 -16592434 -16597409 -16545389 -16439995 
3253.228 -16283767 -16081605 -15848361 -15615088 -15424669 -15325590 
3253.589 -15354952 -15522478 -15803250 -16139075 -16458657 -16689565 
3253.951 -16784508 -16731141 -16551321 -16288523 -15992193 -15703874 
3254.313 -15443248 -15209820 -14987439 -14755816 -14499075 -14215439 
3254.675 -13918909 -13642664 -13432778 -13339317 -13412090 -13685046 
3255.037 -14168265 -14841417 -15654657 -16531706 -17379164 -18110930 
3255.398 -18655244 -18969904 -19044722 -18895966 -18558900 -18078512 
3255.760 -17511864 -16922198 -16375259 -15937164 -15654594 -15546360 
3256.122 -15594470 -15750721 -15947545 -16119631 -16226541 -16256800 
3256.484 -16226063 -16158644 -16069951 -15951823 -15775293 -15502464 
3256.846 -15113860 -14626984 -14107519 -13651687 -13367110 -13339799 
3257.208 -13603199 -14131190 -14841481 -15626818 -16370088 -16976274 
3257.569 -17386584 -17572420 -17533820 -17290658 -16881278 -16357612 
3257.931 -15788522 -15255601 -14834564 -14586136 -14537721 -14676638 
3258.293 -14953187 -15297187 -15643727 -15945150 -16184725 -16370153 
3258.655 -16519841 -16645243 -16741822 -16790278 -16769301 -16668713 
3259.017 -16501436 -16300427 -16110340 -15967954 -15885195 -15844081 
3259.378 -15803888 -15718382 -15551602 -15294404 -14962407 -14587289 
3259.740 -14197448 -13806262 -13408331 -12989293 -12543358 -12092164 
3260.102 -11689013 -11417542 -11364383 -11587271 -12093163 -12824035 
3260.464 -13669346 -14483212 -15136740 -15543930 -15685722 -15609941 
3260.826 -15415875 -15221274 -15120164 -15167907 -15363171 -15659131 
3261.188 -15978588 -16244670 -16405793 -16447460 -16397720 -16317500 
3261.549 -16285237 -16366739 -16600214 -16978474 -17449576 -17921792 
3261.911 -18286798 -18453294 -18363956 -18020598 -17482806 -16862028 
3262.273 -16283736 -15855005 -15637014 -15622503 -15740145 -15876632 
3262.635 -15924836 -15810886 -15528936 -15139813 -14759531 -14517245 
3262.997 -14510579 -14782687 -15302400 -15977725 -16674865 -17266394 
3263.358 -17655398 -17796154 -17700382 -17426054 -17058698 -16682168 
3263.720 -16369227 -16162986 -16071899 -16074197 -16126910 -16181277 
3264.082 -16192514 -16136393 -16012058 -15840374 -15652804 -15481235 
3264.444 -15347180 -15256497 -15204606 -15184929 -15198302 -15258608 
3264.806 -15387029 -15601151 -15902316 -16266374 -16646296 -16980162 
3265.167 -17215378 -17321860 -17303458 -17193150 -17043822 -16909068 
3265.529 -16824608 -16806056 -16847142 -16929304 -17028848 -17124224 
3265.891 -17196524 -17227480 -17200442 -17102406 -16930102 -16694635 
3266.253 -16423341 -16154207 -15921799 -15749186 -15640082 -15582547 
3266.615 -15559562 -15563559 -15604667 -15710490 -15912665 -16230213 
3266.977 -16654426 -17144612 -17632970 -18041356 -18308020 -18395464 
3267.338 -18299602 -18041960 -17660650 -17195792 -16683124 -16156632 
3267.700 -15648520 -15192320 -14822876 -14566879 -14437542 -14429209 
3268.062 -14520513 -14679457 -14874653 -15084771 -15298242 -15511096 
3268.424 -15719980 -15915668 -16082020 -16201293 -16260693 -16259640 
3268.786 -16212944 -16147630 -16092237 -16071994 -16101018 -16179331 
3269.147 -16295640 -16429499 -16557222 -16652895 -16694538 -16669763 
3269.509 -16580887 -16448863 -16312489 -16223796 -16229255 -16359879 
3269.871 -16617754 -16975924 -17383846 -17784164 -18131776 -18398544 
3270.233 -18577250 -18671750 -18685874 -18616360 -18455008 -18198666 
3270.595 -17861920 -17485002 -17132092 -16870952 -16757762 -16815938 
3270.957 -17030280 -17350992 -17712056 -18054004 -18332542 -18526612 
3271.318 -18630328 -18641310 -18553664 -18358016 -18049652 -17639270 
3271.680 -17161396 -16672475 -16234521 -15905222 -15720077 -15686424 
3272.042 -15788712 -15998485 -16287278 -16628182 -16998164 -17369996 
3272.404 -17703594 -17951646 -18064240 -18006454 -17774018 -17401736 
3272.766 -16959100 -16528517 -16191972 -16002126 -15970252 -16066566 
3273.127 -16232064 -16399188 -16507974 -16527049 -16455531 -16321266 
3273.489 -16166817 -16040318 -15982324 -16016657 -16152451 -16385946 
3273.851 -16707039 -17103170 -17562620 -18071264 -18606488 -19134110 
3274.213 -19606874 -19966480 -20161908 -20157986 -19951448 -19572950 
3274.575 -19085344 -18566202 -18084550 -17692876 -17411986 -17235602 
3274.937 -17137890 -17087720 -17057266 -17024004 -16972450 -16888098 
3275.298 -16757155 -16570523 -16328957 -16049579 -15763503 -15512759 
3275.660 -15334418 -15248115 -15249203 -15309885 -15391155 -15455143 
3276.022 -15481969 -15472697 -15446094 -15425757 -15429466 -15459747 
3276.384 -15504318 -15541181 -15548406 -15511416 -15424573 -15290853 
3276.746 -15117669 -14918132 -14710016 -14521058 -14390809 -14361671 
3277.107 -14471418 -14737144 -15143332 -15636662 -16135499 -16553236 
3277.469 -16812974 -16875032 -16744787 -16471226 -16127709 -15792355 
3277.831 -15530024 -15374589 -15330580 -15378106 -15484720 -15611891 
3278.193 -15723111 -15789479 -15789511 -15713876 -15566404 -15363651 
3278.555 -15130789 -14895304 -14681892 -14505195 -14370070 -14275303 
3278.917 -14219222 -14206620 -14250839 -14371224 -14587834 -14912017 
3279.278 -15340815 -15852610 -16410355 -16968468 -17474594 -17882492 
3279.640 -18154370 -18265324 -18208834 -17999046 -17671400 -17274004 
3280.002 -16864228 -16491834 -16185140 -15946459 -15750624 -15557357 
3280.364 -15325782 -15036764 -14703833 -14377731 -14130324 -14039162 
3280.726 -14163005 -14520161 -15082659 -15779573 -16519489 -17200252 
3281.087 -17737790 -18079750 -18206960 -18133080 -17892794 -17531784 
3281.449 -17090778 -16601266 -16085150 -15556558 -15031867 -14535991 
3281.811 -14102612 -13776571 -13602044 -13609397 -13805363 -14162556 
3282.173 -14621634 -15093924 -15487917 -15725955 -15763598 -15604571 
3282.535 -15299394 -14935100 -14605519 -14395778 -14353433 -14478533 
3282.896 -14724140 -15013719 -15268013 -15424062 -15460259 -15398574 
3283.258 -15297026 -15222106 -15227673 -15331028 -15506397 -15691858 
3283.620 -15812771 -15814273 -15678467 -15437364 -15159139 -14932634 
3283.982 -14831682 -14893255 -15108389 -15427930 -15780022 -16093099 
3284.344 -16321329 -16448321 -16485389 -16456934 -16387478 -16291363 
3284.706 -16172403 -16031472 -15875291 -15721163 -15597763 -15534019 
3285.067 -15548630 -15639475 -15781363 -15929913 -16032878 -16050378 
3285.429 -15962364 -15780214 -15543323 -15316091 -15170626 -15170114 
3285.791 -15358502 -15744969 -16299088 -16949988 -17604366 -18157898 
3286.153 -18518834 -18635502 -18502988 -18167048 -17704898 -17210316 
3286.515 -16760694 -16397912 -16123973 -15905669 -15695341 -15449259 
3286.876 -15149124 -14807601 -14463726 -14164866 -13953596 -13852320 
3287.238 -13857936 -13947436 -14087375 -14246189 -14395714 -14514040 
3287.600 -14580272 -14569314 -14455746 -14220120 -13863231 -13415206 
3287.962 -12943208 -12545128 -12321797 -12363278 -12717411 -13377070 
3288.324 -14277901 -15315834 -16374459 -17339466 -18129044 -18696856 
3288.686 -19027786 -19130782 -19029816 -18760008 -18365006 -17904464 
3289.047 -17451042 -17076920 -16846410 -16792828 -16907602 -17138750 
3289.409 -17407020 -17629374 -17738140 -17704232 -17535666 -17267032 
3289.771 -16936346 -16570650 -16178245 -15757527 -15315291 -14884194 
3290.133 -14525063 -14321920 -14348175 -14637044 -15158883 -15820630 
3290.495 -16484242 -16998674 -17254454 -17204424 -16879780 -16368493 
3290.856 -15792994 -15266254 -14858003 -14590108 -14437029 -14349169 
3291.218 -14272642 -14174230 -14048240 -13915637 -13810050 -13764534 
3291.580 -13797853 -13906427 -14065338 -14236313 -14383244 -14481449 
3291.942 -14529614 -14550858 -14589244 -14694160 -14904910 -15237622 
3292.304 -15676070 -16172307 -16653884 -17047676 -17290562 -17348508 
3292.666 -17222736 -16947310 -16578687 -16179139 -15811525 -15525452 
3293.027 -15352905 -15308126 -15385111 -15559499 -15793346 -16047694 
3293.389 -16290119 -16505964 -16702542 -16905118 -17143688 -17436814 
3293.751 -17778152 -18131490 -18440338 -18641152 -18690888 -18581536 
3294.113 -18345788 -18043834 -17745488 -17505180 -17341696 -17237288 
3294.475 -17147096 -17023208 -16831972 -16572563 -16276460 -16001550 
3294.836 -15809575 -15748324 -15841044 -16079433 -16428860 -16835956 
3295.198 -17244836 -17599562 -17852888 -17972724 -17941854 -17763682 
3295.560 -17462086 -17084056 -16690809 -16345996 -16107276 -16006980 
3295.922 -16046003 -16191652 -16390478 -16579324 -16705954 -16745806 
3296.284 -16703244 -16607678 -16495407 -16395615 -16313799 -16230116 
3296.646 -16105903 -15904041 -15606745 -15230104 -14822108 -14453599 
3297.007 -14196293 -14094657 -14154860 -14338366 -14578991 -14797642 
3297.369 -14932090 -14954980 -14876510 -14737400 -14590492 -14484557 
3297.731 -14445106 -14472283 -14544738 -14633487 -14713379 -14774872 
3298.093 -14827135 -14896521 -15017624 -15220954 -15526986 -15936907 
3298.455 -16432114 -16974140 -17515236 -18004862 -18399498 -18674416 
3298.816 -18825946 -18871124 -18838002 -18757470 -18651150 -18524674 
3299.178 -18368340 -18165016 -17899536 -17570034 -17192354 -16799300 
3299.540 -16433008 -16129274 -15908960 -15771300 -15695885 -15650917 
3299.902 -15604859 -15539519 -15452936 -15358726 -15276490 -15223226 
3300.264 -15202558 -15204125 -15207133 -15194207 -15161123 -15125829 
3300.625 -15124165 -15202622 -15400141 -15730398 -16174160 -16680222 
3300.987 -17184486 -17622280 -17955366 -18180204 -18326348 -18440274 
3301.349 -18565598 -18725514 -18912270 -19092256 -19220658 -19264972 
3301.711 -19216728 -19099612 -18958044 -18845840 -18803196 -18843840 
3302.073 -18952492 -19091590 -19214510 -19276572 -19248932 -19118764 
3302.435 -18889620 -18576806 -18206960 -17817016 -17450596 -17161206 
3302.796 -17001160 -17008870 -17199710 -17552564 -18010362 -18481462 
3303.158 -18866460 -19074308 -19043928 -18762548 -18267422 -17641656 
3303.520 -16989020 -16423181 -16036455 -15877560 -15944254 -16178437 
3303.882 -16482264 -16731746 -16819478 -16677704 -16300714 -15746918 
3304.244 -15126789 -14572678 -14191387 -14044937 -14127726 -14377988 
3304.605 -14695153 -14980108 -15167267 -15236503 -15214075 -15154116 
3304.967 -15116517 -15140132 -15236374 -15389044 -15567107 -15734233 
3305.329 -15857944 -15913656 -15879029 -15736533 -15477781 -15115108 
3305.691 -14691565 -14282646 -13993349 -13922856 -14138406 -14643450 
3306.053 -15368864 -16178755 -16906010 -17411000 -17605830 -17486624 
3306.415 -17121710 -16629202 -16129050 -15706973 -15402988 -15209405 
3306.776 -15094084 -15024058 -14986607 -14990448 -15055807 -15195679 
3307.138 -15400653 -15634330 -15844623 -15976481 -15995355 -15897781 
3307.500 -15713461 -15493767 -15294979 -15166019 -15132837 -15198878 
3307.862 -15346668 -15548757 -15772704 -15989350 -16178884 -16328894 
3308.224 -16434347 -16493747 -16504977 -16462997 -16361155 -16195515 
3308.585 -15971402 -15709786 -15449068 -15233847 -15106533 -15088036 
3308.947 -15168387 -15305535 -15439666 -15517939 -15511800 -15432023 
3309.309 -15320024 -15230424 -15198367 -15221050 -15251346 -15220698 
3309.671 -15065633 -14763375 -14347535 -13905560 -13547257 -13357922 
3310.033 -13372058 -13554836 -13822825 -14072845 -14233909 -14291174 
3310.395 -14292745 -14323844 -14475904 -14810164 -15332786 -15993215 
3310.756 -16697727 -17342204 -17825444 -18076572 -18065384 -17800860 
3311.118 -17330012 -16728049 -16094824 -15530151 -15121733 -14927320 
3311.480 -14958053 -15177313 -15508698 -15863536 -16156346 -16332500 
3311.842 -16378960 -16318936 -16196664 -16057465 -15934864 -15840886 
3312.204 -15769701 -15704578 -15627170 -15523341 -15385143 -15212860 
3312.565 -15013815 -14802670 -14599752 -14431965 -14326793 -14306499 
3312.927 -14384431 -14559446 -14815959 -15123877 -15446445 -15741486 
3313.289 -15966261 -16086841 -16080583 -15945405 -15703140 -15402092 
3313.651 -15107460 -14883297 -14780252 -14813526 -14959846 -15160131 
3314.013 -15342765 -15441457 -15413029 -15248499 -14966056 -14601611 
3314.375 -14193664 -13782895 -13411865 -13127935 -12990483 -13055950 
3314.736 -13358885 -13891665 -14592063 -15348459 -16020041 -16490016 
3315.098 -16693423 -16645020 -16428860 -16174894 -16007619 -15999252 
3315.460 -16153568 -16406240 -16658699 -16809054 -16796940 -16618967 
3315.822 -16327647 -16006341 -15745671 -15618092 -15656095 -15853057 
3316.184 -16166370 -16534289 -16886154 -17160982 -17321096 -17355194 
3316.545 -17278972 -17125308 -16932620 -16726868 -16515503 -16288651 
3316.907 -16030930 -15735894 -15421120 -15126469 -14908431 -14818873 
3317.269 -14884867 -15100772 -15431064 -15825870 -16235989 -16630255 
3317.631 -16995552 -17327592 -17619352 -17851838 -17996504 -18029784 
3317.993 -17947864 -17778440 -17575190 -17406956 -17331126 -17374040 
3318.354 -17525674 -17747586 -17990240 -18208992 -18378946 -18490732 
3318.716 -18542740 -18531722 -18449768 -18290260 -18058584 -17780126 
3319.078 -17497574 -17254708 -17081126 -16972292 -16889978 -16771438 
3319.440 -16560093 -16228233 -15794272 -15317818 -14887108 -14591133 
3319.802 -14489621 -14605455 -14918388 -15377563 -15909757 -16439293 
3320.164 -16899732 -17239104 -17433216 -17488184 -17442830 -17355672 
3320.525 -17291166 -17297090 -17383146 -17517210 -17634242 -17665738 
3320.887 -17561062 -17313804 -16961426 -16574094 -16222391 -15953740 
3321.249 -15781235 -15686871 -15638165 -15608790 -15591337 -15593767 
3321.611 -15626434 -15686648 -15750624 -15780086 -15739953 -15612435 
3321.973 -15408584 -15160483 -14905966 -14668182 -14446292 -14221082 
3322.334 -13973746 -13706108 -13454173 -13278970 -13251877 -13422498 
3322.696 -13796505 -14329839 -14941342 -15541021 -16048525 -16419608 
3323.058 -16645754 -16747784 -16759196 -16716985 -16653216 -16590105 
3323.420 -16542295 -16514098 -16499650 -16484879 -16456297 -16411409 
3323.782 -16370790 -16376916 -16482137 -16726868 -17109796 -17573344 
3324.144 -18005562 -18280476 -18290548 -17995900 -17440536 -16746029 
3324.505 -16068194 -15542428 -15258417 -15236598 -15445166 -15826061 
3324.867 -16327713 -16913498 -17554664 -18215602 -18832546 -19314194 
3325.229 -19570006 -19533008 -19197168 -18622296 -17926466 -17242862 
3325.591 -16678086 -16290758 -16078986 -15999155 -15991107 -16007969 
3325.953 -16022660 -16022852 -15999187 -15933268 -15800310 -15583570 
3326.314 -15289989 -14958341 -14649313 -14428728 -14335449 -14365967 
3326.676 -14472732 -14588634 -14652869 -14637941 -14559958 -14468278 
3327.038 -14420651 -14452413 -14565373 -14726799 -14890309 -15014295 
3327.400 -15083459 -15110373 -15128869 -15174466 -15271212 -15425469 
3327.762 -15626082 -15852354 -16080519 -16289800 -16460827 -16578145 
3328.124 -16633157 -16628023 -16580569 -16521435 -16488230 -16509410 
3328.485 -16592592 -16719503 -16854922 -16960438 -17014222 -17021424 
3328.847 -17011260 -17020086 -17067108 -17142382 -17204870 -17203246 
3329.209 -17097500 -16885356 -16607294 -16337318 -16149100 -16091503 
3329.571 -16168157 -16340157 -16542263 -16711120 -16811188 -16838632 
3329.933 -16814536 -16765125 -16706336 -16635645 -16539617 -16409621 
3330.294 -16256958 -16117780 -16046610 -16091887 -16281087 -16603945 
3330.656 -17016644 -17450276 -17833554 -18113662 -18261862 -18278602 
3331.018 -18184908 -18014750 -17802706 -17579166 -17366590 -17174614 
3331.380 -17000650 -16829040 -16638132 -16406590 -16125379 -15803441 
3331.742 -15469084 -15159715 -14905710 -14718183 -14581298 -14458118 
3332.104 -14305089 -14095651 -13833416 -13556795 -13323187 -13194443 
3332.465 -13213375 -13390725 -13707167 -14123267 -14596644 -15086883 
3332.827 -15561705 -15990468 -16335946 -16557606 -16619254 -16505135 
3333.189 -16235510 -15873695 -15516500 -15262159 -15190272 -15329620 
3333.551 -15653603 -16085820 -16529409 -16899158 -17138240 -17235090 
3333.913 -17216144 -17131616 -17030248 -16948074 -16898838 -16875128 
3334.274 -16856004 -16817756 -16743511 -16628215 -16481306 -16323565 
3334.636 -16183449 -16085373 -16040765 -16041564 -16059414 -16052069 
3334.998 -15977023 -15811844 -15562760 -15270093 -14992305 -14792453 
3335.360 -14711265 -14752966 -14882818 -15040925 -15163683 -15200414 
3335.722 -15131429 -14967561 -14743005 -14497825 -14269724 -14087728 
3336.083 -13971147 -13937745 -14004226 -14182600 -14472797 -14855442 
3336.445 -15290629 -15720716 -16089907 -16358314 -16512312 -16565867 
3336.807 -16551226 -16503477 -16446024 -16387351 -16325064 -16256895 
3337.169 -16192099 -16155995 -16183289 -16310288 -16557351 -16922548 
3337.531 -17378402 -17883352 -18390128 -18856086 -19252292 -19560534 
3337.893 -19771374 -19880870 -19888752 -19799172 -19620080 -19364076 
3338.254 -19043992 -18670798 -18255316 -17810148 -17357486 -16934436 
3338.616 -16587203 -16364696 -16300172 -16393669 -16602064 -16842616 
3338.978 -17017282 -17029292 -16820274 -16385755 -15780086 -15098788 
3339.340 -14454369 -13953051 -13661512 -13601915 -13748258 -14041087 
3339.702 -14398118 -14735735 -14991056 -15126981 -15143717 -15074338 
3340.063 -14979213 -14925431 -14970506 -15148836 -15461986 -15880179 
3340.425 -16349955 -16812688 -17210220 -17493690 -17630042 -17597334 
3340.787 -17390338 -17025374 -16548101 -16033133 -15573597 -15266606 
3341.149 -15175873 -15310333 -15607864 -15953869 -16205633 -16240649 
3341.511 -16005766 -15532229 -14931738 -14348144 -13922407 -13734904 
3341.873 -13787325 -14011252 -14304511 -14572166 -14757418 -14859091 
3342.234 -14916467 -14983214 -15092259 -15239222 -15379354 -15449706 
3342.596 -15388693 -15166819 -14796713 -14331890 -13847441 -13418065 
3342.958 -13104274 -12936777 -12919731 -13036852 -13263254 -13571536 
3343.320 -13936398 -14337725 -14754856 -15168226 -15560298 -15917361 
3343.682 -16233947 -16514387 -16770896 -17017060 -17260026 -17492640 
3344.043 -17692876 -17826588 -17859438 -17773446 -17577384 -17312148 
3344.405 -17038214 -16824034 -16719185 -16737167 -16850586 -17001128 
3344.767 -17120276 -17150502 -17068416 -16887526 -16650537 -16405985 
3345.129 -16193472 -16029429 -15908001 -15813826 -15737493 -15685018 
3345.491 -15678275 -15741646 -15884109 -16085310 -16294332 -16437441 
3345.853 -16438495 -16248373 -15858168 -15308670 -14676350 -14062933 
3346.214 -13566526 -13257823 -13175221 -13315667 -13643788 -14099917 
3346.576 -14620929 -15152260 -15658844 -16132243 -16584333 -17034454 
3346.938 -17490508 -17932762 -18308338 -18543884 -18561948 -18316404 
3347.300 -17815552 -17132762 -16388690 -15720204 -15246867 -15025370 
3347.662 -15041725 -15214363 -15434550 -15593607 -15621832 -15507004 
3348.023 -15288710 -15039260 -14833380 -14732853 -14767666 -14938781 
3348.385 -15224922 -15594118 -16010812 -16438399 -16843830 -17195792 
3348.747 -17467942 -17643850 -17717178 -17693002 -17582316 -17400336 
3349.109 -17161682 -16881662 -16581973 -16292896 -16054815 -15913304 
3349.471 -15902475 -16032558 -16277704 -16579198 -16852594 -17012374 
3349.833 -17000204 -16795856 -16425638 -15948150 -15439698 -14965256 
3350.194 -14565052 -14253051 -14022191 -13859926 -13761645 -13737248 
3350.556 -13808638 -13999413 -14320445 -14760973 -15284295 -15836636 
3350.918 -16351294 -16768664 -17046370 -17164580 -17129992 -16971942 
3351.280 -16736433 -16472088 -16224595 -16024448 -15880018 -15776891 
3351.642 -15682271 -15558603 -15372606 -15111141 -14786338 -14435779 
3352.003 -14109187 -13857744 -13723059 -13726429 -13872282 -14152679 
3352.365 -14554511 -15061856 -15654305 -16302628 -16960278 -17566184 
3352.727 -18054514 -18364464 -18462122 -18348488 -18061316 -17658612 
3353.089 -17203406 -16745456 -16308917 -15899248 -15517203 -15174177 
3353.451 -14904910 -14763727 -14805904 -15067521 -15541916 -16171796 
3353.812 -16851830 -17461928 -17889836 -18058454 -17945606 -17579324 
3354.174 -17027254 -16369451 -15691090 -15062625 -14533971 -14139208 
3354.536 -13894296 -13799907 -13841215 -13991488 -14214637 -14469719 
3354.898 -14723147 -14951650 -15147461 -15316795 -15473721 -15631741 
3355.260 -15795741 -15957734 -16097346 -16189003 -16210103 -16152771 
3355.622 -16031729 -15888548 -15781045 -15773440 -15915891 -16223190 
3355.983 -16664343 -17162192 -17617888 -17929996 -18033950 -17925066 
3356.345 -17664816 -17359618 -17125754 -17055640 -17178818 -17458044 
3356.707 -17800352 -18099774 -18266912 -18265578 -18121258 -17912318 
3357.069 -17739030 -17685558 -17802164 -18089636 -18508164 -18989318 
3357.431 -19459860 -19853174 -20115248 -20214570 -20138912 -19896758 
3357.792 -19513876 -19031338 -18497846 -17956384 -17441238 -16970158 
3358.154 -16545931 -16164327 -15823122 -15528201 -15294979 -15140517 
3358.516 -15075458 -15093572 -15171618 -15271500 -15351977 -15383800 
3358.878 -15355367 -15277194 -15175618 -15084067 -15028059 -15017016 
3359.240 -15039773 -15068033 -15065281 -14998514 -14854577 -14649473 
3359.602 -14433311 -14276650 -14260715 -14445041 -14843082 -15406090 
3359.963 -16028024 -16571702 -16897564 -16918502 -16623622 -16090354 
3360.325 -15454791 -14882914 -14521956 -14452349 -14681282 -15142021 
3360.687 -15729344 -16321713 -16822408 -17176334 -17367514 -17412494 
3361.049 -17342586 -17194488 -16998962 -16783616 -16574541 -16395455 
3361.411 -16268928 -16211124 -16227562 -16310353 -16438974 -16585352 
3361.772 -16717656 -16809786 -16847048 -16828816 -16769269 -16692594 
3362.134 -16626332 -16589914 -16589595 -16615713 -16650504 -16676459 
3362.496 -16688896 -16701203 -16742013 -16838792 -17000078 -17200252 
3362.858 -17380344 -17462180 -17375028 -17090906 -16638642 -16102327 
3363.220 -15586191 -15190655 -14974411 -14941150 -15047806 -15230200 
3363.582 -15433527 -15629120 -15821876 -16033420 -16280385 -16555373 
3363.943 -16822250 -17027796 -17127634 -17102468 -16969200 -16770640 
3364.305 -16560093 -16377203 -16235095 -16122984 -16018316 -15903562 
3364.667 -15776986 -15653603 -15555726 -15499874 -15486063 -15497156 
3365.029 -15506045 -15490922 -15444015 -15377691 -15318521 -15300993 
3365.391 -15353001 -15488268 -15701734 -15969453 -16251022 -16492631 
3365.752 -16639790 -16643107 -16470078 -16116088 -15607608 -14998707 
3366.114 -14354940 -13743732 -13214692 -12794341 -12492977 -12314100 
3366.476 -12267042 -12371007 -12646518 -13100480 -13706814 -14404689 
3366.838 -15098980 -15686871 -16094632 -16296182 -16325861 -16257310 
3367.200 -16180193 -16158804 -16214540 -16327266 -16454095 -16553428 
3367.562 -16605157 -16617212 -16617307 -16634688 -16681371 -16745742 
3367.923 -16797354 -16804018 -16744787 -16622698 -16461624 -16300235 
3368.285 -16175596 -16114939 -16132753 -16231265 -16404675 -16641160 
3368.647 -16922198 -17217608 -17484366 -17673342 -17733910 -17632016 
3369.009 -17361498 -16948202 -16445003 -15918862 -15441553 -15070434 
3369.371 -14847725 -14797354 -14923991 -15216315 -15646955 -16177990 
3369.732 -16760152 -17341568 -17877182 -18328856 -18672734 -18895996 
3370.094 -18992806 -18959344 -18792980 -18494512 -18072092 -17549636 
3370.456 -16967416 -16375259 -15828809 -15374812 -15040413 -14832867 
3370.818 -14739802 -14735991 -14788483 -14864887 -14935100 -14973802 
3371.180 -14964935 -14905229 -14808818 -14706428 -14644347 -14673787 
3371.542 -14834084 -15142821 -15584593 -16111650 -16646741 -17103742 
3371.903 -17402786 -17482550 -17318230 -16923950 -16354868 -15693648 
3372.265 -15044414 -14511701 -14172498 -14067328 -14183466 -14461355 
3372.627 -14803118 -15104388 -15281736 -15288933 -15130885 -14855250 
3372.989 -14537016 -14247985 -14045193 -13957703 -13988890 -14125384 
3373.351 -14346028 -14629451 -14952387 -15290885 -15620553 -15918989 
3373.712 -16176362 -16400911 -16621390 -16876594 -17202164 -17611684 
3374.074 -18085504 -18568838 -18985414 -19264876 -19355994 -19244780 
3374.436 -18948780 -18505116 -17948468 -17299414 -16566919 -15759859 
3374.798 -14908015 -14080063 -13373343 -12904099 -12767252 -12997783 
3375.160 -13550468 -14300055 -15078627 -15705185 -16050825 -16068259 
3375.521 -15799193 -15351850 -14864183 -14462668 -14218934 -14144661 
3375.883 -14196999 -14309705 -14418247 -14490359 -14536343 -14604975 
3376.245 -14763567 -15072065 -15564102 -16227115 -17001256 -17780792 
3376.607 -18445640 -18876518 -18986114 -18746872 -18197840 -17442862 
3376.969 -16618615 -15876377 -15334737 -15052127 -15021913 -15179937 
3377.331 -15433366 -15688661 -15887206 -16013399 -16090002 -16156185 
3377.692 -16247064 -16373023 -16516076 -16637271 -16693646 -16656021 
3378.054 -16516300 -16288651 -16000049 -15683677 -15367744 -15076931 
3378.416 -14835941 -14670296 -14609427 -14680739 -14898602 -15256560 
3378.778 -15721610 -16240586 -16744085 -17166302 -17459222 -17598512 
3379.140 -17590844 -17468548 -17283494 -17090618 -16938928 -16861136 
3379.501 -16865374 -16936826 -17043280 -17149358 -17225570 -17262348 
3379.863 -17272348 -17286040 -17337366 -17449228 -17621676 -17830342 
3380.225 -18032264 -18179856 -18240734 -18205084 -18091382 -17937052 
3380.587 -17792974 -17708556 -17721950 -17856768 -18114742 -18473840 
3380.949 -18882926 -19269282 -19546440 -19629486 -19465406 -19047988 
3381.311 -18429126 -17702068 -16986120 -16386935 -15964599 -15728321 
3381.672 -15639059 -15636567 -15661689 -15680065 -15680959 -15663574 
3382.034 -15618700 -15517235 -15315643 -14980909 -14515097 -13975863 
3382.396 -13464420 -13107360 -13005050 -13191968 -13621471 -14179458 
3382.758 -14725133 -15131941 -15339119 -15358469 -15264494 -15150884 
3383.120 -15100420 -15154084 -15305279 -15513686 -15728991 -15913017 
3383.481 -16044756 -16121482 -16147662 -16128827 -16070142 -15982069 
3383.843 -15888644 -15825709 -15836541 -15956135 -16194303 -16527815 
3384.205 -16902440 -17251842 -17510750 -17639524 -17633480 -17521792 
3384.567 -17354588 -17188754 -17075870 -17047326 -17113172 -17260566 
3384.929 -17459476 -17667076 -17840010 -17948818 -17984678 -17966302 
3385.291 -17930346 -17920712 -17963028 -18049238 -18129966 -18131236 
3385.652 -17978542 -17630680 -17103808 -16472470 -15846763 -15325623 
3386.014 -14971210 -14783455 -14709887 -14671193 -14604879 -14496864 
3386.376 -14392701 -14378949 -14548231 -14958533 -15601599 -16398517 
3386.738 -17219424 -17934128 -18438496 -18691776 -18717612 -18589472 
3387.100 -18394922 -18204768 -18061634 -17975362 -17938198 -17938452 
3387.461 -17970626 -18033154 -18117824 -18201590 -18240860 -18179156 
3387.823 -17968496 -17584544 -17043662 -16401708 -15746184 -15166530 
3388.185 -14731987 -14477892 -14399080 -14460714 -14613912 -14815318 
3388.547 -15030811 -15235767 -15408648 -15520304 -15533924 -15414180 
3388.909 -15138821 -14716933 -14195171 -13660901 -13217906 -12967361 
3389.271 -12986110 -13301753 -13890509 -14680098 -15572350 -16452277 
3389.632 -17213340 -17777516 -18097168 -18165494 -18011952 -17696404 
3389.994 -17291516 -16866522 -16475437 -16140480 -15853664 -15582547 
3390.356 -15290054 -14948353 -14556401 -14140812 -13752560 -13448101 
3390.718 -13269971 -13237737 -13341662 -13550532 -13821862 -14120028 
3391.080 -14421004 -14714339 -14997362 -15266445 -15509498 -15705185 
3391.441 -15824815 -15840694 -15735798 -15508347 -15174882 -14766994 
3391.803 -14328909 -13905624 -13537718 -13256248 -13074985 -12991641 
3392.165 -12988392 -13038813 -13112376 -13183096 -13235808 -13266564 
3392.527 -13281316 -13290956 -13307827 -13340603 -13392974 -13464774 
3392.889 -13552684 -13651687 -13757568 -13865639 -13973393 -14083719 
3393.250 -14205561 -14356446 -14558548 -14831490 -15184481 -15608247 
3393.612 -16072728 -16526923 -16914582 -17184328 -17302342 -17262158 
3393.974 -17082942 -16805228 -16476776 -16149802 -15870882 -15674984 
3394.336 -15585936 -15609941 -15733050 -15916562 -16103381 -16222775 
3394.698 -16202729 -15993854 -15579926 -14990416 -14292232 -13581941 
3395.060 -12959031 -12498965 -12245298 -12199940 -12333521 -12596277 
3395.421 -12938578 -13321676 -13719816 -14118969 -14506445 -14862454 
3395.783 -15158819 -15362051 -15446701 -15410279 -15285191 -15138117 
3396.145 -15053920 -15119429 -15388053 -15860757 -16478723 -17143274 
3396.507 -17741766 -18183224 -18432906 -18515784 -18506482 -18488414 
3396.869 -18526262 -18631566 -18762136 -18835274 -18767942 -18510704 
3397.230 -18066974 -17492704 -16875924 -16310193 -15859861 -15553968 
3397.592 -15387253 -15336817 -15376156 -15485231 -15649894 -15852578 
3397.954 -16068641 -16269822 -16433837 -16560284 -16677098 -16836338 
3398.316 -17088676 -17457088 -17909614 -18361224 -18688000 -18774828 
3398.678 -18566584 -18088682 -17447318 -16789066 -16270300 -15998995 
3399.040 -16014004 -16281342 -16714275 -17203406 -17646778 -17981560 
3399.401 -18183670 -18264942 -18257254 -18202034 -18138386 -18095832 
3399.763 -18093704 -18135970 -18208992 -18279872 -18304048 -18235394 
3400.125 -18040560 -17716828 -17298140 -16854888 -16471673 -16235000 
3400.487 -16204868 -16398869 -16787344 -17299478 -17843444 -18318788 
3400.849 -18647310 -18784442 -18724752 -18499464 -18166160 -17794246 
3401.210 -17443116 -17156364 -16951834 -16824194 -16751034 -16704550 
3401.572 -16662048 -16610164 -16549025 -16487783 -16440792 -16421745 
3401.934 -16439771 -16497990 -16593389 -16717145 -16855782 -16995138 
3402.296 -17119796 -17217034 -17278972 -17302470 -17287378 -17234232 
3402.658 -17141394 -17004092 -16817564 -16581174 -16302565 -15999347 
3403.020 -15695501 -15410790 -15154372 -14918612 -14684037 -14427606 
3403.381 -14139593 -13833191 -13547802 -13335655 -13242301 -13288385 
3403.743 -13456325 -13693330 -13926835 -14095715 -14166533 -14149375 
3404.105 -14088627 -14049588 -14090584 -14242566 -14503881 -14844331 
3404.467 -15219226 -15582771 -15902380 -16158005 -16339073 -16439037 
3404.829 -16451959 -16374780 -16212815 -15984625 -15722761 -15464543 
3405.190 -15246612 -15091715 -15005301 -14976555 -14987663 -15021369 
3405.552 -15068481 -15129317 -15210268 -15315899 -15444015 -15582419 
3405.914 -15711321 -15810374 -15863504 -15864559 -15819481 -15745129 
3406.276 -15663639 -15598562 -15570591 -15590890 -15661433 -15772736 
3406.638 -15909279 -16052229 -16187470 -16310256 -16426435 -16548548 
3407.000 -16686600 -16838888 -16984846 -17086096 -17093358 -16966716 
3407.361 -16690139 -16285682 -15810182 -15348651 -14992497 -14810323 
3407.723 -14838343 -15068385 -15455910 -15929786 -16413961 -16844212 
3408.085 -17171300 -17368628 -17426024 -17345992 -17140978 -16835508 
3408.447 -16468737 -16090291 -15761202 -15539231 -15462145 -15539071 
3408.809 -15742380 -16017517 -16292289 -16506188 -16625887 -16653916 
3409.170 -16624387 -16587107 -16586851 -16642118 -16741056 -16845326 
3409.532 -16911556 -16905308 -16817756 -16665203 -16480604 -16294491 
3409.894 -16120685 -15951632 -15765356 -15540670 -15274859 -14991408 
3410.256 -14741500 -14588443 -14583540 -14753863 -15089411 -15547606 
3410.618 -16061457 -16559806 -16982648 -17286646 -17453366 -17485798 
3410.979 -17405778 -17246682 -17051150 -16864036 -16721448 -16647093 
3411.341 -16645754 -16705252 -16800828 -16905052 -16995552 -17054142 
3411.703 -17064878 -17006800 -16848546 -16556075 -16104817 -15500546 
3412.065 -14791941 -14077817 -13489700 -13149537 -13144555 -13486938 
3412.427 -14109957 -14874909 -15619307 -16201580 -16531579 -16597280 
3412.789 -16454095 -16202250 -15943009 -15758773 -15692145 -15745385 
3413.150 -15891455 -16089492 -16301576 -16495567 -16650027 -16753202 
3413.512 -16797960 -16780364 -16697472 -16544688 -16315650 -16003691 
3413.874 -15608151 -15142788 -14646398 -14187603 -13851068 -13729286 
3414.236 -13886916 -14333269 -15003956 -15767496 -16452596 -16883350 
3414.598 -16944218 -16605444 -15940070 -15094019 -14257764 -13608787 
3414.959 -13258370 -13241208 -13509261 -13964120 -14483212 -14965287 
3415.321 -15349578 -15615151 -15771555 -15837435 -15825422 -15736694 
3415.683 -15571135 -15344813 -15099940 -14911761 -14868761 -15038717 
3416.045 -15442545 -16029941 -16686121 -17247862 -17563510 -17533566 
3416.407 -17144324 -16473683 -15671181 -14913522 -14339680 -14028479 
3416.769 -13974644 -14107519 -14316182 -14494685 -14575562 -14539131 
3417.130 -14414208 -14260778 -14152646 -14150786 -14295181 -14595202 
3417.492 -15029627 -15549460 -16086362 -16569469 -16932204 -17129992 
3417.854 -17149006 -17007244 -16747624 -16423978 -16091248 -15788903 
3418.216 -15540382 -15355400 -15235319 -15178434 -15181825 -15239318 
3418.578 -15336081 -15448044 -15546168 -15599905 -15589164 -15507548 
3418.939 -15363203 -15171587 -14950178 -14712834 -14469239 -14231247 
3419.301 -14020266 -13868174 -13818651 -13916887 -14195524 -14665747 
3419.663 -15307998 -16073750 -16884244 -17647542 -18269358 -18662482 
3420.025 -18770228 -18575632 -18115092 -17474466 -16784602 -16191876 
3420.387 -15812675 -15711384 -15871426 -16206177 -16577890 -16853740 
3420.749 -16949668 -16854314 -16629076 -16379597 -16215209 -16200686 
3421.110 -16346985 -16613482 -16941510 -17281964 -17622660 -17988174 
3421.472 -18422680 -18957694 -19586634 -20250118 -20849370 -21271306 
3421.834 -21422248 -21263670 -20815134 -20142232 -19324652 -18442086 
3422.196 -17561760 -16737709 -16024543 -15475191 -15135013 -15034972 
3422.558 -15176417 -15526443 -16017359 -16565738 -17082114 -17488280 
3422.919 -17735946 -17809256 -17729392 -17544132 -17321860 -17131838 
3423.281 -17026490 -17035060 -17153974 -17350864 -17570384 -17753884 
3423.643 -17850504 -17827734 -17677000 -17408006 -17039998 -16594186 
3424.005 -16094983 -15574683 -15077027 -14665971 -14414080 -14385392 
3424.367 -14617821 -15100388 -15767688 -16502999 -17175378 -17662876 
3424.729 -17887580 -17835208 -17553232 -17135406 -16687047 -16310416 
3425.090 -16073432 -15999602 -16068099 -16223893 -16393764 -16502680 
3425.452 -16498245 -16357772 -16092844 -15739346 -15346220 -14957028 
3425.814 -14597093 -14273443 -13980355 -13712432 -13476049 -13293463 
3426.176 -13196596 -13215335 -13361135 -13619930 -13951382 -14305089 
3426.538 -14630540 -14890822 -15069761 -15163683 -15175234 -15105316 
3426.899 -14954051 -14727407 -14446035 -14152326 -13901357 -13746782 
3427.261 -13723604 -13831298 -14033740 -14269724 -14481192 -14628746 
3427.623 -14707388 -14742269 -14774391 -14836517 -14937244 -15055807 
3427.985 -15152612 -15187232 -15134308 -14996498 -14803406 -14604078 
3428.347 -14449241 -14385938 -14448952 -14657321 -15016215 -15513462 
3428.708 -16118834 -16778674 -17423032 -17975902 -18364114 -18540996 
3429.070 -18492732 -18243212 -17843634 -17361498 -16865916 -16409781 
3429.432 -16032111 -15755802 -15591210 -15538975 -15588237 -15715314 
3429.794 -15880210 -16035113 -16133200 -16140448 -16049227 -15879955 
3430.156 -15676070 -15485934 -15350250 -15287238 -15288806 -15325942 
3430.518 -15362820 -15372638 -15346156 -15296003 -15250162 -15242805 
3430.879 -15298050 -15423262 -15603357 -15808234 -15998101 -16136585 
3431.241 -16201772 -16189419 -16113661 -16000336 -15881680 -15786763 
3431.603 -15737204 -15747782 -15825262 -15971307 -16181948 -16446661 
3431.965 -16745584 -17048664 -17321446 -17526566 -17633798 -17627212 
3432.327 -17506038 -17283588 -16980544 -16621325 -16228711 -15826669 
3432.688 -15446157 -15123877 -14902860 -14822972 -14905325 -15144740 
3433.050 -15505406 -15933523 -16367441 -16760089 -17090206 -17357868 
3433.412 -17575060 -17748224 -17868278 -17911714 -17853938 -17689598 
3433.774 -17446204 -17188278 -17001002 -16956520 -17092022 -17386836 
3434.136 -17769788 -18134128 -18380378 -18448086 -18330160 -18072344 
3434.498 -17753408 -17460686 -17258210 -17180156 -17226780 -17374646 
3434.859 -17584036 -17809766 -18008232 -18134160 -18147094 -18017930 
3435.221 -17733720 -17306768 -16776985 -16210614 -15681855 -15263246 
3435.583 -15007669 -14933787 -15024121 -15228121 -15477973 -15700135 
3435.945 -15838554 -15869670 -15808841 -15706431 -15632380 -15659131 
3436.307 -15832547 -16160848 -16609080 -17114510 -17600516 -18000286 
3436.668 -18272694 -18396702 -18363704 -18163904 -17777516 -17183818 
3437.030 -16380396 -15408072 -14360517 -13381086 -12641529 -12282857 
3437.392 -12386915 -12941955 -13849945 -14944351 -16042905 -17004536 
3437.754 -17745742 -18260082 -18595728 -18829024 -19026232 -19225096 
3438.116 -19428018 -19609628 -19730120 -19749214 -19640348 -19393956 
3438.478 -19021540 -18554678 -18045042 -17555300 -17145948 -16865788 
3438.839 -16734075 -16735796 -16822760 -16933096 -17009190 -17018396 
3439.201 -16966016 -16891030 -16850298 -16889372 -17025660 -17232066 
3439.563 -17446014 -17581108 -17560074 -17339180 -16923058 -16365206 
3439.925 -15754651 -15195711 -14772438 -14536535 -14496864 -14625479 
3440.287 -14870843 -15178369 -15508091 -15837627 -16161229 -16478149 
3440.648 -16779376 -17040476 -17224232 -17290020 -17213436 -16998482 
3441.010 -16684718 -16334636 -16025150 -15824368 -15773887 -15887111 
3441.372 -16149322 -16526954 -16973248 -17435126 -17854224 -18161234 
3441.734 -18290294 -18187258 -17829228 -17241302 -16503667 -15741039 
3442.096 -15085411 -14656617 -14521795 -14683140 -15082179 -15625283 
3442.458 -16217859 -16783742 -17287218 -17727548 -18125134 -18502702 
3442.819 -18874676 -19241548 -19594394 -19921002 -20210522 -20456072 
3443.181 -20651690 -20792488 -20875518 -20905390 -20896926 -20875832 
3443.543 -20874254 -20917610 -21014094 -21146002 -21274082 -21345254 
3443.905 -21312636 -21150672 -20855938 -20440076 -19915906 -19288362 
3444.267 -18553250 -17707094 -16763085 -15760275 -14768467 -13880754 
3444.628 -13184640 -12750295 -12610117 -12756023 -13145519 -13715385 
3444.990 -14396419 -15113189 -15791269 -16357325 -16735286 -16865884 
3445.352 -16718484 -16309746 -15707422 -15027802 -14411388 -13977404 
3445.714 -13804465 -13902544 -14220120 -14661582 -15128837 -15556558 
3446.076 -15926495 -16267205 -16629713 -17054590 -17540948 -18035888 
3446.438 -18443672 -18667084 -18640010 -18363066 -17904560 -17385564 
3446.799 -16934086 -16640587 -16539808 -16599353 -16739272 -16857598 
3447.161 -16872420 -16740132 -16465006 -16086012 -15660984 -15245908 
3447.523 -14879552 -14587289 -14386995 -14297843 -14350452 -14584982 
3447.885 -15045022 -15770596 -16786452 -18093640 -19659572 -21417518 
3448.247 -23250576 -24986350 -26423512 -27342048 -27570166 -27045228 
3448.608 -25840994 -24153900 -22235482 -20344728 -18674384 -17337428 
3448.970 -16373279 -15755577 -15416387 -15266862 -15224922 -15222169 
3449.332 -15213979 -15180833 -15119077 -15035580 -14942046 -14853456 
3449.694 -14785537 -14754567 -14776474 -14862389 -15017400 -15237814 
3450.056 -15510969 -15816733 -16129306 -16424170 -16680032 -16884052 
3450.417 -17033180 -17131266 -17183786 -17190538 -17141426 -17017504 
3450.779 -16797834 -16472917 -16056508 -15592872 -15154020 -14816952 
3451.141 -14648576 -14679905 -14897769 -15248307 -15656799 -16053794 
3451.503 -16384957 -16623685 -16759833 -16786452 -16690012 -16451191 
3451.865 -16058775 -15528041 -14915219 -14315764 -13832645 -13554579 
3452.227 -13515460 -13683024 -13965532 -14249139 -14439786 -14492505 
3452.588 -14428022 -14315829 -14243720 -14273187 -14421965 -14656585 
3452.950 -14915762 -15131269 -15256560 -15279145 -15215355 -15097668 
3453.312 -14959333 -14829377 -14729938 -14683236 -14715781 -14852175 
3453.674 -15107685 -15473529 -15912570 -16358569 -16731333 -16961776 
3454.036 -17003104 -16847142 -16521914 -16085660 -15608407 -15158371 
3454.397 -14796297 -14560118 -14465938 -14503433 -14639062 -14817272 
3454.759 -14973450 -15053631 -15024058 -14886243 -14672441 -14437990 
3455.121 -14237564 -14106974 -14056901 -14075250 -14143153 -14254366 
3455.483 -14426805 -14701784 -15128773 -15738195 -16523285 -17427456 
3455.845 -18357444 -19193460 -19826838 -20185030 -20240914 -20017868 
3456.207 -19576880 -19002446 -18374628 -17761900 -17210156 -16737964 
3456.568 -16343923 -16011514 -15720012 -15450091 -15191168 -14942751 
3456.930 -14712546 -14510579 -14345066 -14219094 -14131093 -14079613 
3457.292 -14068033 -14106268 -14210115 -14394913 -14667572 -15022905 
3457.654 -15443344 -15905511 -16385788 -16868082 -17343542 -17805440 
3458.016 -18242988 -18635344 -18952650 -19165972 -19254862 -19217266 
3458.377 -19068948 -18837274 -18547788 -18212614 -17829038 -17385884 
3458.739 -16878794 -16326116 -15774142 -15292388 -14958245 -14825310 
3459.101 -14907759 -15166723 -15522734 -15867753 -16097570 -16143735 
3459.463 -15981430 -15639156 -15183073 -14704570 -14289860 -14004097 
3459.825 -13881749 -13922407 -14096999 -14360389 -14670200 -14994546 
3460.187 -15320889 -15653059 -16000304 -16362749 -16721003 -17028338 
3460.548 -17221938 -17238562 -17032670 -16598172 -15975330 -15248851 
3460.910 -14521251 -13900041 -13469881 -13271932 -13301561 -13507655 
3461.272 -13810082 -14107680 -14310058 -14357792 -14238237 -13995948 
3461.634 -13728869 -13573559 -13658397 -14073615 -14832579 -15860341 
3461.996 -16999566 -18053878 -18853486 -19286018 -19340656 -19098628 
3462.357 -18713040 -18346932 -18126118 -18105684 -18254078 -18473172 
3462.719 -18634548 -18636580 -18429032 -18032232 -17519756 -16996796 
3463.081 -16561784 -16278278 -16169721 -16217349 -16376916 -16592242 
3463.443 -16817628 -17023718 -17201240 -17357964 -17512246 -17684158 
3463.805 -17887772 -18126280 -18388032 -18647660 -18866906 -19003684 
3464.167 -19021982 -18896948 -18624424 -18222590 -17731428 -17202290 
3464.528 -16694793 -16265735 -15956614 -15792323 -15775548 -15890848 
3464.890 -16108073 -16392265 -16711533 -17038500 -17354876 -17648338 
3465.252 -17908788 -18127962 -18296520 -18406800 -18454786 -18442212 
3465.614 -18376852 -18270248 -18136352 -17988204 -17836098 -17688580 
3465.976 -17551832 -17429812 -17322338 -17223500 -17118396 -16983730 
3466.337 -16793976 -16526794 -16174639 -15749827 -15288134 -14842089 
3466.699 -14464688 -14201039 -14071465 -14070086 -14168970 -14332339 
3467.061 -14530030 -14745824 -14981709 -15249970 -15560649 -15910525 
3467.423 -16275948 -16616097 -16888354 -17059208 -17121262 -17096990 
3467.785 -17035378 -16993704 -17021328 -17145120 -17359460 -17629026 
3468.146 -17897786 -18111438 -18230154 -18244228 -18173754 -18061284 
3468.508 -17954190 -17886118 -17869870 -17890250 -17910854 -17882334 
3468.870 -17761710 -17523988 -17172448 -16738283 -16275343 -15846923 
3469.232 -15505757 -15288197 -15205821 -15249395 -15396176 -15622184 
3469.594 -15908353 -16240904 -16607486 -16989178 -17353794 -17660840 
3469.956 -17866308 -17936640 -17862236 -17661508 -17378624 -17066632 
3470.317 -16776092 -16535629 -16344817 -16176138 -15989160 -15746439 
3470.679 -15430073 -15054079 -14666932 -14345739 -14173396 -14225507 
3471.041 -14545827 -15130821 -15922790 -16816066 -17683712 -18390318 
3471.403 -18834734 -18971142 -18817760 -18449866 -17980258 -17533438 
3471.765 -17205474 -17056882 -17102056 -17318676 -17658422 -18060266 
3472.126 -18461012 -18790122 -18978532 -18965782 -18708980 -18202384 
3472.488 -17486752 -16653024 -15816286 -15097636 -14591133 -14336410 
3472.850 -14316438 -14465265 -14697107 -14922678 -15077858 -15131973 
3473.212 -15083683 -14955748 -14783840 -14613721 -14490519 -14457509 
3473.574 -14546148 -14765392 -15094180 -15481682 -15863344 -16174510 
3473.936 -16377077 -16471131 -16493428 -16496714 -16523030 -16582960 
3474.297 -16647093 -16656658 -16548803 -16289959 -15891358 -15411686 
3474.659 -14930777 -14528075 -14249492 -14095555 -14027838 -13991360 
3475.021 -13942077 -13863648 -13774774 -13719494 -13751020 -13907164 
3475.383 -14199981 -14609812 -15092132 -15585520 -16026523 -16367886 
3475.745 -16584652 -16686663 -16715009 -16739717 -16835508 -17060356 
3476.106 -17435350 -17930980 -18470506 -18947290 -19267096 -19369716 
3476.468 -19252704 -18962358 -18573886 -18156468 -17747332 -17348222 
3476.830 -16932906 -16469950 -15943743 -15368768 -14789443 -14269789 
3477.192 -13868206 -13623687 -13542310 -13596681 -13731309 -13878186 
3477.554 -13977211 -13986579 -13901195 -13756123 -13627155 -13608017 
3477.916 -13785174 -14208704 -14863702 -15661944 -16452149 -17071762 
3478.277 -17375568 -17289606 -16831462 -16105775 -15269997 -14482795 
3478.639 -13877898 -13524293 -13428602 -13546518 -13807675 -14132857 
3479.001 -14445907 -14688042 -14815031 -14805456 -14664626 -14428215 
3479.363 -14155148 -13908320 -13740169 -13667837 -13669474 -13692720 
3479.725 -13683344 -13611388 -13493426 -13389279 -13386901 -13568035 
3480.086 -13972109 -14583925 -15333778 -16125506 -16854314 -17439138 
3480.448 -17831614 -18009854 -17972184 -17729138 -17304794 -16740132 
3480.810 -16102072 -15483824 -14981549 -14682308 -14634352 -14833667 
3481.172 -15225273 -15723048 -16240425 -16706176 -17084948 -17372704 
3481.534 -17583812 -17735564 -17838514 -17894670 -17902428 -17864462 
3481.896 -17790620 -17693702 -17582410 -17453810 -17294032 -17084886 
3482.257 -16817628 -16501531 -16167488 -15856955 -15610388 -15453544 
3482.619 -15387253 -15390484 -15429625 -15476630 -15520144 -15573980 
3482.981 -15673226 -15867624 -16204868 -16716667 -17412590 -18274314 
3483.343 -19256350 -20284492 -21272064 -22126046 -22769188 -23162188 
3483.705 -23310936 -23259494 -23064356 -22774878 -22416018 -21989082 
3484.066 -21487026 -20902452 -20252268 -19576246 -18926830 -18356430 
3484.428 -17900966 -17567552 -17336092 -17170888 -17040732 -16930356 
3484.790 -16848450 -16819412 -16871144 -17015688 -17237958 -17492068 
3485.152 -17715270 -17844080 -17832408 -17670892 -17390052 -17056118 
3485.514 -16747592 -16540924 -16485199 -16588669 -16819954 -17120180 
3485.875 -17425036 -17680786 -17864462 -17984772 -18072790 -18160790 
3486.237 -18263514 -18363258 -18414932 -18359096 -18150620 -17782478 
3486.599 -17296420 -16774690 -16310511 -15987530 -15844943 -15870340 
3486.961 -16006244 -16176362 -16310608 -16367057 -16341435 -16257947 
3487.323 -16153058 -16055677 -15982421 -15937611 -15922630 -15945883 
3487.685 -16024990 -16181532 -16431317 -16772553 -17182288 -17620148 
3488.046 -18042882 -18412296 -18701806 -18896250 -18981642 -18939710 
3488.408 -18748616 -18391398 -17873940 -17238562 -16573807 -15996249 
3488.770 -15625795 -15557645 -15826860 -16401995 -17190346 -18072536 
3489.132 -18919248 -19623532 -20120724 -20383742 -20420068 -20257582 
3489.494 -19937840 -19510802 -19037110 -18594236 -18262306 -18112932 
3489.855 -18185448 -18465584 -18880292 -19308996 -19626350 -19728032 
3490.217 -19573900 -19195234 -18686572 -18163872 -17720106 -17396036 
3490.579 -17163880 -16944156 -16638674 -16179491 -15552402 -14810323 
3490.941 -14050198 -13392974 -12945363 -12771402 -12893067 -13288899 
3491.303 -13911721 -14695377 -15571807 -16472567 -17327176 -18074126 
3491.665 -18660482 -19051128 -19237586 -19237870 -19093048 -18852438 
3492.026 -18567884 -18280318 -18016530 -17792974 -17617602 -17493594 
3492.388 -17419116 -17385914 -17377480 -17368724 -17333162 -17246238 
3492.750 -17093040 -16872864 -16598461 -16293598 -15987212 -15712120 
3493.112 -15498308 -15370015 -15343213 -15418689 -15578424 -15781332 
3493.474 -15971657 -16083425 -16056284 -15854048 -15472985 -14949538 
3493.835 -14351349 -13773714 -13317017 -13066111 -13082284 -13384685 
3494.197 -13948173 -14702263 -15548981 -16372642 -17062138 -17541046 
3494.559 -17774210 -17778248 -17608152 -17345230 -17068862 -16836690 
3494.921 -16682135 -16613226 -16624069 -16703945 -16841280 -17017952 
3495.283 -17200442 -17340708 -17377510 -17257384 -16959706 -16512791 
3495.645 -15997590 -15522638 -15202974 -15113477 -15268557 -15616558 
3496.006 -16063053 -16500957 -16841088 -17041050 -17102818 -17061406 
3496.368 -16960726 -16838632 -16715391 -16595813 -16478628 -16363898 
3496.730 -16255554 -16156761 -16063724 -15964249 -15841940 -15687000 
3497.092 -15506844 -15332211 -15208924 -15191616 -15326070 -15635831 
3497.454 -16121963 -16764712 -17532580 -18381392 -19256254 -20085038 
3497.815 -20768198 -21197126 -21271968 -20938102 -20218428 -19221006 
3498.177 -18118144 -17085746 -16275087 -15766762 -15561097 -15590411 
3498.539 -15748421 -15926784 -16040254 -16053634 -15979100 -15862800 
3498.901 -15756410 -15699560 -15705185 -15759572 -15830087 -15880914 
3499.263 -15888453 -15846413 -15769701 -15687320 -15635161 -15640754 
3499.625 -15714612 -15843121 -15991746 -16111203 -16151302 -16080935 
3499.986 -15895192 -15621289 -15306783 -15007765 -14765585 -14593408 
3500.348 -14474879 -14374333 -14256450 -14105082 -13935788 -13794097 
3500.710 -13740105 -13819807 -14047984 -14393117 -14788995 -15146788 
3501.072 -15389556 -15479220 -15425724 -15282888 -15123077 -15017304 
3501.434 -15007221 -15103908 -15294627 -15559691 -15884811 -16268257 
3501.795 -16713956 -17217576 -17751658 -18263416 -18675464 -18911604 
3502.157 -18920422 -18693014 -18271488 -17738300 -17198978 -16746445 
3502.519 -16447108 -16329307 -16384542 -16576136 -16849438 -17145566 
3502.881 -17401386 -17562716 -17594090 -17485734 -17261554 -16973982 
3503.243 -16693423 -16481115 -16372673 -16365940 -16425638 -16496619 
3503.604 -16527910 -16497543 -16418587 -16333552 -16289448 -16320437 
3503.966 -16432688 -16614310 -16854634 -17166556 -17594472 -18202924 
3504.328 -19039710 -20097882 -21276448 -22391818 -23197118 -23474448 
3504.690 -23128856 -22228150 -20983662 -19657544 -18495494 -17648240 
3505.052 -17170888 -17045606 -17211844 -17591194 -18099774 -18658516 
3505.414 -19180778 -19578210 -19780144 -19746838 -19494552 -19092478 
3505.775 -18651276 -18279524 -18049492 -17974156 -18003656 -18046472 
3506.137 -18007344 -17834858 -17537768 -17180346 -16843382 -16594028 
3506.499 -16456328 -16408663 -16397210 -16363101 -16266279 -16094154 
3506.861 -15863536 -15604411 -15353416 -15139269 -14984494 -14906830 
3507.223 -14917940 -15020248 -15197727 -15415075 -15617740 -15750337 
3507.584 -15779126 -15706941 -15579542 -15471930 -15465982 -15613298 
3507.946 -15918415 -16330393 -16764935 -17123430 -17327686 -17343192 
3508.308 -17180412 -16886154 -16522074 -16153663 -15831908 -15589324 
3508.670 -15440914 -15382296 -15390707 -15426428 -15443056 -15394992 
3509.032 -15254417 -15023513 -14738393 -14459977 -14250582 -14156912 
3509.394 -14187668 -14312462 -14470841 -14601867 -14667541 -14671224 
3509.755 -14657065 -14695025 -14851247 -15154532 -15576346 -16027002 
3510.117 -16385149 -16528612 -16397273 -16027641 -15569537 -15247699 
3510.479 -15311325 -15984656 -17387284 -19492080 -22075000 -24752956 
3510.841 -27018266 -28404880 -28672020 -27864172 -26275734 -24290528 
3511.203 -22277162 -20480600 -19018526 -17916196 -17137954 -16628373 
3511.564 -16335243 -16221497 -16256353 -16405793 -16629554 -16880482 
3511.926 -17118492 -17323802 -17499324 -17662654 -17827830 -17989700 
3512.288 -18118936 -18173056 -18117824 -17951264 -17712788 -17475836 
3512.650 -17314378 -17278430 -17366274 -17524942 -17665072 -17702992 
3513.012 -17598004 -17366814 -17076920 -16814568 -16652737 -16618552 
3513.374 -16691254 -16813452 -16923696 -16976722 -16963370 -16908050 
3513.735 -16856418 -16853072 -16924142 -17072906 -17281200 -17520200 
3514.097 -17756046 -17957972 -18095928 -18137782 -18054260 -17823726 
3514.459 -17444802 -16945748 -16389744 -15864206 -15456614 -15238198 
3514.821 -15234327 -15416770 -15703874 -15988361 -16165826 -16162826 
3515.183 -15964473 -15615055 -15207581 -14846028 -14624485 -14593248 
3515.544 -14746753 -15029723 -15357318 -15647050 -15837690 -15912250 
3515.906 -15896885 -15852515 -15846731 -15934609 -16138786 -16440218 
3516.268 -16781416 -17080998 -17262540 -17269322 -17088484 -16755562 
3516.630 -16352283 -15982676 -15745895 -15714420 -15907809 -16290598 
3516.992 -16780014 -17278782 -17694210 -17966016 -18078162 -18050890 
3517.354 -17924496 -17736168 -17507790 -17241270 -16927488 -16561752 
3517.715 -16155707 -15738834 -15350922 -15022969 -14766065 -14567263 
3518.077 -14401034 -14247440 -14113389 -14040221 -14100976 -14372923 
3518.439 -14905069 -15693296 -16665395 -17692016 -18604838 -19255622 
3518.801 -19547770 -19469618 -19092256 -18551980 -18005882 -17578560 
3519.163 -17344784 -17307470 -17411700 -17563860 -17670096 -17663130 
3519.524 -17515076 -17242002 -16888990 -16513908 -16164040 -15872417 
3519.886 -15658747 -15537185 -15528489 -15661497 -15962651 -16440026 
3520.248 -17063286 -17757860 -18406800 -18888478 -19109250 -19032196 
3520.610 -18690698 -18176360 -17612098 -17108650 -16750811 -16578624 
3520.972 -16589053 -16746795 -16999662 -17293490 -17574998 -17803404 
3521.333 -17953236 -18018500 -18016434 -17985918 -17977142 -18028290 
3521.695 -18147920 -18298584 -18406642 -18377170 -18136098 -17666312 
3522.057 -17025820 -16338434 -15755769 -15419872 -15405130 -15702883 
3522.419 -16220987 -16823844 -17364840 -17732318 -17880012 -17823630 
3522.781 -17626956 -17371208 -17140246 -16997464 -16977166 -17085044 
3523.143 -17296196 -17561888 -17816316 -18000192 -18075524 -18046822 
3523.504 -17964522 -17919472 -18013796 -18322282 -18874740 -19641710 
3523.866 -20551426 -21508278 -22432726 -23282076 -24053908 -24769232 
3524.228 -25440912 -26044002 -26509774 -26737612 -26632980 -26153394 
3524.590 -25325340 -24242712 -23028848 -21812496 -20693806 -19742500 
3524.952 -19012818 -18545376 -18373326 -18512674 -18945418 -19601330 
3525.313 -20349630 -21031332 -21483082 -21601196 -21376986 -20892884 
3525.675 -20280792 -19667140 -19145746 -18753280 -18479778 -18282320 
3526.037 -18106320 -17899248 -17622440 -17261808 -16830824 -16373344 
3526.399 -15955688 -15664181 -15581173 -15762193 -16220829 -16914136 
3526.761 -17744692 -18564362 -19218756 -19579000 -19591068 -19295874 
3527.123 -18816300 -18303700 -17873398 -17584798 -17431244 -17361848 
3527.484 -17303298 -17188054 -16972738 -16647793 -16244670 -15833506 
3527.846 -15519409 -15416291 -15638260 -16270395 -17343160 -18810748 
3528.208 -20536130 -22311094 -23865556 -24952782 -25422944 -25263976 
3528.570 -24596906 -23616686 -22531392 -21493994 -20600124 -19892708 
3528.932 -19378112 -19045228 -18874486 -18840192 -18903768 -19014688 
3529.293 -19117558 -19157730 -19102118 -18948306 -18726148 -18482794 
3529.655 -18268976 -18124976 -18073204 -18129742 -18314690 -18656578 
3530.017 -19193840 -19957746 -20952878 -22130988 -23379952 -24531246 
3530.379 -25379972 -25763188 -25613246 -24987318 -24028924 -22911688 
3530.741 -21780008 -20716424 -19759946 -18923214 -18214362 -17652854 
3531.103 -17265026 -17071762 -17072652 -17236176 -17502156 -17792466 
3531.464 -18042212 -18215062 -18317008 -18388890 -18490542 -18672830 
3531.826 -18953952 -19308710 -19672270 -19962364 -20100412 -20047768 
3532.188 -19819020 -19482448 -19131826 -18862590 -18744744 -18803734 
3532.550 -19021096 -19339894 -19685726 -19974644 -20134356 -20117178 
3532.912 -19897930 -19476778 -18871504 -18115790 -17254644 -16345391 
3533.273 -15458245 -14659884 -14010160 -13544816 -13267946 -13154102 
3533.635 -13158731 -13237126 -13355544 -13503801 -13692430 -13943520 
3533.997 -14274278 -14683845 -15145765 -15614193 -16030962 -16341114 
3534.359 -16509952 -16526252 -16404931 -16179139 -15894042 -15596133 
3534.721 -15324567 -15111460 -14976235 -14925592 -14955748 -15054624 
3535.083 -15205917 -15392658 -15601311 -15820727 -16040159 -16247287 
3535.444 -16423276 -16546888 -16599704 -16573489 -16478021 -16341275 
3535.806 -16206432 -16114939 -16096644 -16158644 -16286161 -16448608 
3536.168 -16612237 -16753362 -16860404 -16931662 -16968244 -16966460 
3536.530 -16916876 -16811794 -16655415 -16471673 -16304608 -16209656 
3536.892 -16231265 -16392009 -16683826 -17077942 -17541204 -18057788 
3537.253 -18640390 -19326332 -20156498 -21145434 -22251130 -23364158 
3537.615 -24321514 -24938922 -25084936 -24720124 -23912658 -22799496 
3537.977 -21545802 -20296888 -19148314 -18157168 -17345038 -16709715 
3538.339 -16232064 -15876984 -15595109 -15326038 -15017048 -14639542 
3538.701 -14205305 -13766749 -13406178 -13206850 -13217553 -13436537 
3539.062 -13806487 -14239360 -14639799 -14944640 -15141413 -15263950 
3539.424 -15369856 -15511640 -15714675 -15968751 -16238829 -16486825 
3539.786 -16693901 -16866778 -17031938 -17214646 -17421090 -17625046 
3540.148 -17776498 -17812724 -17687690 -17388652 -16942720 -16405696 
3540.510 -15849479 -15343981 -14937180 -14656873 -14509490 -14488275 
3540.872 -14578830 -14764624 -15027674 -15346572 -15699144 -16064394 
3541.233 -16425287 -16772140 -17101354 -17411952 -17699810 -17953840 
3541.595 -18153734 -18275330 -18293534 -18191136 -17963314 -17619384 
3541.957 -17182386 -16684718 -16167775 -15674120 -15245364 -14919637 
3542.319 -14724781 -14676286 -14771317 -14987343 -15279049 -15583825 
3542.681 -15836701 -15975585 -15962077 -15790757 -15495462 -15143013 
3543.042 -14819354 -14614938 -14594850 -14787554 -15175969 -15706878 
3543.404 -16300332 -16870920 -17354494 -17713552 -17948562 -18090526 
3543.766 -18194090 -18320282 -18523596 -18844506 -19297524 -19867544 
3544.128 -20506832 -21145496 -21699264 -22089328 -22267750 -22226450 
3544.490 -22001144 -21655134 -21263986 -20889254 -20565300 -20302864 
3544.852 -20097596 -19946890 -19866626 -19892108 -20068966 -20430466 
3545.213 -20973620 -21645268 -22342566 -22941892 -23313384 -23365384 
3545.575 -23068094 -22461108 -21641644 -20739168 -19898722 -19246904 
3545.937 -18892664 -18924608 -19402100 -20359240 -21791668 -23651266 
3546.299 -25815206 -28077634 -30165688 -31748396 -32544538 -32421154 
3546.661 -31455282 -29897484 -28072664 -26277856 -24696960 -23412196 
3547.022 -22420204 -21667492 -21080006 -20586884 -20135590 -19690034 
3547.384 -19229026 -18740366 -18217444 -17664148 -17104446 -16596675 
3547.746 -16230755 -16129209 -16430870 -17256428 -18690350 -20739770 
3548.108 -23312410 -26159664 -28888684 -31039240 -32191816 -32165386 
3548.470 -31086990 -29333082 -27328482 -25414882 -23788272 -22498704 
3548.832 -21515186 -20769336 -20194076 -19736610 -19365500 -19067966 
3549.193 -18845078 -18710184 -18685874 -18802402 -19085470 -19542164 
3549.555 -20142582 -20812070 -21427800 -21841456 -21930994 -21630924 
3549.917 -20965666 -20033974 -18986462 -17973614 -17109030 -16463315 
3550.279 -16054528 -15863152 -15847785 -15962714 -16162826 -16403049 
3550.641 -16638929 -16818520 -16887334 -16801978 -16539522 -16113501 
3551.002 -15576730 -15021977 -14559669 -14295887 -14316085 -14658731 
3551.364 -15312188 -16213359 -17267190 -18355476 -19359068 -20185726 
3551.726 -20774706 -21111222 -21220444 -21159382 -20995594 -20789424 
3552.088 -20586916 -20409476 -20257802 -20117464 -19968694 -19793030 
3552.450 -19584100 -19347186 -19099612 -18866176 -18668132 -18519024 
3552.812 -18420300 -18367228 -18363066 -18435224 -18648580 -19113342 
3553.173 -19958378 -21306074 -23215054 -25631020 -28322968 -30874694 
3553.535 -32786130 -33589364 -33075370 -31382080 -28934658 -26242892 
3553.897 -23728480 -21662320 -20128030 -19082046 -18405150 -17965856 
3554.259 -17655178 -17413068 -17229774 -17122378 -17111070 -17202194 
3554.621 -17386486 -17652950 -18005086 -18470664 -19091494 -19902362 
3554.982 -20894968 -21994310 -23046038 -23842380 -24198372 -24000142 
3555.344 -23253306 -22068324 -20629352 -19134744 -17754392 -16625345 
3555.706 -15828202 -15395376 -15320024 -15564454 -16067013 -16744658 
3556.068 -17505434 -18243688 -18855516 -19258824 -19401182 -19276826 
3556.430 -18924642 -18424300 -17872222 -17359778 -16959196 -16702605 
3556.792 -16582834 -16556554 -16562453 -16528996 -16391817 -16109256 
3557.153 -15668431 -15094980 -14448888 -13824044 -13323283 -13032190 
3557.515 -12999680 -13214177 -13603617 -14047278 -14423472 -14639703 
3557.877 -14672634 -14576619 -14475744 -14521507 -14835941 -15481522 
3558.239 -16428573 -17568888 -18730400 -19735248 -20439128 -20758880 
3558.601 -20689762 -20291954 -19664702 -18907354 -18108734 -17333990 
3558.962 -16622156 -15995706 -15459044 -15001107 -14596356 -14213963 
3559.324 -13829532 -13436762 -13055339 -12729445 -12515255 -12456853 
3559.686 -12571395 -12837514 -13203667 -13599668 -13962388 -14256642 
3560.048 -14479558 -14658218 -14832675 -15040925 -15301153 -15607544 
3560.410 -15931958 -16237490 -16485836 -16648401 -16712680 -16681721 
3560.771 -16574604 -16422639 -16273204 -16185077 -16221976 -16451893 
3561.133 -16929720 -17687150 -18716340 -19958568 -21286450 -22500090 
3561.495 -23379260 -23730644 -23474794 -22679098 -21531866 -20266468 
3561.857 -19082394 -18125388 -17457980 -17073354 -16912734 -16894822 
3562.219 -16942370 -17004092 -17066886 -17143880 -17253242 -17392886 
3562.581 -17526978 -17589698 -17512690 -17247416 -16794772 -16207134 
3562.942 -15583378 -15033820 -14655977 -14513656 -14620480 -14947200 
3563.304 -15434102 -16014325 -16619509 -17189422 -17675728 -18036206 
3563.666 -18241304 -18279778 -18164604 -17932730 -17637138 -17336346 
3564.028 -17076538 -16886186 -16775072 -16739525 -16772745 -16876880 
3564.390 -17069116 -17387156 -17883382 -18610996 -19612700 -20896832 
3564.751 -22419856 -24059238 -25627928 -26891090 -27624238 -27703516 
3565.113 -27144190 -26100604 -24792422 -23450936 -22251318 -21285724 
3565.475 -20581448 -20117274 -19856688 -19769634 -19841906 -20065202 
3565.837 -20413680 -20829600 -21213974 -21443284 -21415972 -21083194 
3566.199 -20480410 -19716062 -18951414 -18346454 -18018914 -18037892 
3566.561 -18422236 -19168446 -20275542 -21759618 -23638904 -25894626 
3566.922 -28432874 -31029492 -33346068 -35039988 -35879672 -35869084 
3567.284 -35227192 -34314976 -33487472 -33016014 -33079300 -33752976 
3567.646 -35049156 -36938972 -39372724 -42239760 -45300260 -48140540 
3568.008 -50103484 -50475088 -48857276 -45442784 -40967216 -36287928 
3568.370 -32069224 -28623042 -26007426 -24140548 -22876328 -22067440 
3568.731 -21602804 -21434610 -21582312 -22126674 -23186186 -24897876 
3569.093 -27379320 -30693476 -34762548 -39327116 -43919892 -47911344 
3569.455 -50709864 -51929020 -51495568 -49616660 -46701048 -43226900 
3569.817 -39615508 -36184720 -33118446 -30487380 -28304746 -26538108 
3570.179 -25129594 -24003152 -23070450 -22243164 -21452304 -20670552 
3570.541 -19917838 -19254956 -18753536 -18472888 -18427634 -18576108 
3570.902 -18822520 -19046624 -19140608 -19030608 -18701806 -18193168 
3571.264 -17588934 -16988224 -16494257 -16196089 -16151972 -16390063 
3571.626 -16896608 -17612194 -18416868 -19143684 -19614568 -19676670 
3571.988 -19274290 -18471236 -17442670 -16401453 -15542332 -14989968 
3572.350 -14771573 -14834564 -15073122 -15377211 -15654113 -15856411 
3572.711 -15981238 -16052069 -16097378 -16133808 -16165189 -16188972 
3573.073 -16209912 -16246362 -16324712 -16470078 -16689310 -16964868 
3573.435 -17256300 -17515618 -17707094 -17816316 -17854478 -17846910 
3573.797 -17820102 -17785690 -17739190 -17665612 -17554028 -17407530 
3574.159 -17247416 -17102598 -16998228 -16939918 -16910502 -16875288 
3574.521 -16799426 -16665427 -16480988 -16275311 -16082052 -15922280 
3574.882 -15789319 -15650310 -15459651 -15186016 -14829312 -14433536 
3575.244 -14071112 -13831715 -13788833 -13979874 -14401964 -15018072 
3575.606 -15773600 -16606944 -17466446 -18309258 -19097202 -19796448 
3575.968 -20373562 -20801174 -21065834 -21171880 -21140320 -21000142 
3576.330 -20782570 -20509740 -20192968 -19836524 -19444464 -19028326 
3576.691 -18610836 -18218174 -17872920 -17580980 -17326924 -17076126 
3577.053 -16787376 -16433008 -16011674 -15557069 -15129125 -14803599 
3577.415 -14644315 -14685511 -14922934 -15316826 -15805742 -16326213 
3577.777 -16836784 -17322942 -17798126 -18290706 -18829722 -19428272 
3578.139 -20075452 -20733546 -21349102 -21864992 -22229346 -22407962 
3578.500 -22383700 -22153030 -21721768 -21101942 -20316112 -19399564 
3578.862 -18411566 -17435476 -16567364 -15914645 -15566659 -15573788 
3579.224 -15932469 -16575402 -17380598 -18187704 -18849170 -19252832 
3579.586 -19350606 -19165212 -18778796 -18306622 -17857722 -17519818 
3579.948 -17332908 -17291008 -17352106 -17461418 -17573120 -17664722 
3580.310 -17745488 -17849772 -18021998 -18291214 -18655244 -19066222 
3580.671 -19443322 -19688324 -19729582 -19558254 -19246208 -18928862 
3581.033 -18763626 -18892632 -19386162 -20222192 -21270328 -22324910 
3581.395 -23130176 -23458596 -23198154 -22384896 -21192076 -19844788 
3581.757 -18557408 -17463774 -16607836 -15969614 -15494311 -15126308 
3582.119 -14828864 -14596003 -14446484 -14414048 -14528716 -14809523 
3582.480 -15253746 -15836796 -16507655 -17195316 -17820292 -18299886 
3582.842 -18572710 -18610234 -18425888 -18072250 -17631762 -17198278 
3583.204 -16845772 -16618967 -16521467 -16525868 -16588001 -16670976 
3583.566 -16760344 -16867924 -17023080 -17255440 -17577828 -17974250 
3583.928 -18401910 -18799674 -19112072 -19302056 -19362174 -19312134 
3584.290 -19191240 -19044816 -18912904 -18833402 -18840572 -18968572 
3584.651 -19252832 -19718754 -20367586 -21158404 -22004798 -22773622 
3585.013 -23310244 -23491304 -23255004 -22633496 -21737178 -20728712 
3585.375 -19767354 -18964512 -18374470 -17986426 -17747046 -17586072 
3585.737 -17450724 -17320554 -17212546 -17165822 -17224136 -17412972 
3586.099 -17727802 -18133142 -18574426 -18995024 -19342970 -19583562 
3586.460 -19700198 -19692820 -19576278 -19377416 -19132366 -18875692 
3586.822 -18634200 -18417026 -18213504 -17997616 -17740970 -17433440 
3587.184 -17100334 -16814536 -16689789 -16876148 -17523192 -18767910 
3587.546 -20729880 -23520684 -27244810 -31965684 -37651812 -43961068 
3587.908 -50067256 -54770228 -57025484 -56668956 -54397344 -51193252 
3588.270 -47738168 -44329704 -41028148 -37812292 -34701676 -31806044 
3588.631 -29286190 -27319834 -26040444 -25491094 -25625336 -26287804 
3588.993 -27238058 -28154252 -28727848 -28749340 -28166520 -27103382 
3589.355 -25805058 -24561336 -23603914 -23093608 -23119432 -23733908 
3589.717 -25003114 -27045260 -30054736 -34229512 -39581848 -45539016 
3590.079 -50474116 -52333492 -50340524 -45691624 -40176468 -34972952 
3590.440 -30529940 -26869816 -23900148 -21512692 -19619922 -18173150 
3590.802 -17138496 -16481115 -16150121 -16076081 -16182492 -16397210 
3591.164 -16675217 -17001002 -17381140 -17824108 -18317516 -18811478 
3591.526 -19227220 -19472186 -19481784 -19252642 -18859164 -18437416 
3591.888 -18141914 -18106606 -18385300 -18933808 -19607918 -20215266 
3592.250 -20557842 -20499532 -20011034 -19168636 -18126788 -17057424 
3592.611 -16124485 -15438867 -15048830 -14949282 -15095524 -15424157 
3592.973 -15867177 -16368940 -16883222 -17369424 -17793196 -18119826 
3593.335 -18322028 -18387586 -18327078 -18176138 -17988618 -17828974 
3593.697 -17751182 -17784514 -17929200 -18161838 -18455074 -18804148 
3594.059 -19248426 -19881566 -20837336 -22247886 -24207522 -26709572 
3594.420 -29604946 -32519330 -34890188 -36109996 -35769372 -33924984 
3594.782 -31069164 -27874892 -24866054 -22342220 -20391362 -18968224 
3595.144 -17985472 -17365572 -17068830 -17091958 -17444134 -18113662 
3595.506 -19035716 -20086810 -21097524 -21879326 -22290100 -22263122 
3595.868 -21828504 -21092568 -20215898 -19377322 -18737794 -18451038 
3596.229 -18646992 -19432740 -20899200 -23105986 -26059792 -29637256 
3596.591 -33533972 -37181208 -39805680 -40767268 -39904768 -37656856 
3596.953 -34733456 -31791232 -29229506 -27208152 -25771836 -24899814 
3597.315 -24546870 -24643180 -25081558 -25699264 -26277232 -26607112 
3597.677 -26545090 -26079326 -25324496 -24470334 -23691774 -23081448 
3598.039 -22632364 -22261864 -21849742 -21279856 -20493494 -19505164 
3598.400 -18399688 -17293808 -16305469 -15523885 -14992817 -14724077 
3598.762 -14711617 -14947297 -15425916 -16143735 -17091798 -18249502 
3599.124 -19585874 -21061602 -22621890 -24198088 -25694298 -26982148 
3599.486 -27929144 -28427102 -28441254 -28025918 -27313112 -26464854 
3599.848 -25618838 -24870496 -24251048 -23738960 -23282264 -22831626 
3600.209 -22364282 -21898072 -21482958 -21186460 -21072272 -21178286 
3600.571 -21515090 -22063944 -22786574 -23626446 -24515932 -25380318 
3600.933 -26131648 -26685922 -26973896 -26953904 -26624846 -26023404 
3601.295 -25213924 -24265242 -23241688 -22194210 -21161086 -20182120 
3601.657 -19306778 -18596900 -18132792 -17997616 -18269516 -19015704 
3602.019 -20278926 -22068670 -24334766 -26954028 -29679190 -32136186 
3602.380 -33916192 -34684976 -34355204 -33116758 -31354244 -29465336 
3602.742 -27736652 -26321922 -25233808 -24395852 -23689986 -23012006 
3603.104 -22295796 -21525022 -20719614 -19916192 -19148884 -18440274 
3603.466 -17810942 -17284480 -16891190 -16663898 -16619349 -16744245 
3603.828 -16986376 -17274928 -17543972 -17768674 -17981052 -18261510 
3604.189 -18700220 -19345536 -20164218 -21022840 -21722808 -22049616 
3604.551 -21877058 -21216688 -20217354 -19091304 -18044534 -17219806 
3604.913 -16664248 -16351996 -16212177 -16174415 -16189259 -16243234 
3605.275 -16348805 -16524371 -16773829 -17078578 -17399156 -17692334 
3605.637 -17925162 -18085218 -18182968 -18246834 -18312848 -18411946 
3605.999 -18563916 -18770418 -19013704 -19256890 -19453144 -19558064 
3606.360 -19538266 -19383120 -19104718 -18732844 -18302714 -17849008 
3606.722 -17402532 -16987076 -16625982 -16342200 -16154813 -16073527 
3607.084 -16089939 -16176714 -16291747 -16397752 -16481753 -16568864 
3607.446 -16717909 -17002212 -17477776 -18149764 -18960928 -19804268 
3607.808 -20577340 -21227922 -21810544 -22486814 -23520652 -25211236 
3608.169 -27827720 -31522278 -36218008 -41474908 -46393020 -49857808 
3608.531 -50941648 -49408296 -45781120 -40995108 -35946080 -31233912 
3608.893 -27215184 -24030396 -21682622 -20101362 -19155510 -18680130 
3609.255 -18494512 -18446276 -18428364 -18397656 -18370658 -18398098 
3609.617 -18529406 -18783078 -19142638 -19569436 -20032296 -20528704 
3609.979 -21097270 -21809756 -22758844 -24038422 -25746856 -28005694 
3610.340 -31000338 -35010368 -40403020 -47519396 -56118836 -64448392 
3610.702 -69170952 -67896936 -61901992 -54269164 -47148464 -41256360 
3611.064 -36604788 -32994766 -30177926 -27937254 -26086470 -24477570 
3611.426 -23004464 -21612860 -20297932 -19093872 -18050700 -17208724 
3611.788 -16582673 -16149258 -15852610 -15615151 -15365570 -15053920 
3612.149 -14667637 -14235351 -13821765 -13511574 -13381247 -13487259 
3612.511 -13844585 -14427254 -15172035 -15998548 -16829326 -17602140 
3612.873 -18287562 -18887780 -19431536 -19959644 -20516946 -21143666 
3613.235 -21871388 -22730828 -23756902 -24995982 -26516602 -28410902 
3613.597 -30797352 -33810544 -37580740 -42158160 -47323540 -52393468 
3613.958 -56082436 -57048412 -54981204 -50935520 -46389540 -42274360 
3614.320 -38907100 -36199596 -33924004 -31855714 -29850716 -27870448 
3614.682 -25975688 -24271666 -22859666 -21789714 -21038718 -20521056 
3615.044 -20115946 -19714320 -19245700 -18711232 -18180936 -17785308 
3615.406 -17678940 -18012810 -18923848 -20509362 -22818674 -25818328 
3615.768 -29371174 -33152126 -36620532 -39141516 -40186228 -39649200 
3616.129 -37900180 -35595348 -33339776 -31510998 -30269658 -29576904 
3616.491 -29267420 -29091264 -28800908 -28204278 -27232518 -25951934 
3616.853 -24525482 -23142930 -21951030 -21038782 -20417538 -20035904 
3617.215 -19793534 -19573648 -19270328 -18811096 -18184558 -17443180 
3617.577 -16696230 -16070142 -15686264 -15621097 -15884874 -16419288 
3617.938 -17111326 -17829484 -18445990 -18880896 -19111122 -19166162 
3618.300 -19106080 -19004888 -18940662 -18985224 -19217044 -19724262 
3618.662 -20603284 -21965518 -23924764 -26584082 -29968896 -33942424 
3619.024 -38105428 -41751316 -44142464 -44897580 -44169876 -42411264 
3619.386 -40067712 -37431180 -34655300 -31853772 -29152832 -26691594 
3619.748 -24620732 -23046226 -22002908 -21456530 -21315096 -21461796 
3620.109 -21782528 -22203750 -22699916 -23291904 -24027262 -24963074 
3620.471 -26149588 -27634498 -29480136 -31794034 -34759824 -38667580 
3620.833 -43883176 -50689196 -58746824 -66338524 -70393224 -68908008 
3621.195 -63108884 -55761272 -48768912 -42771820 -37807372 -33705612 
3621.557 -30278032 -27394220 -24965670 -22937022 -21283800 -19999420 
3621.918 -19096884 -18610044 -18580426 -19050462 -20045932 -21562670 
3622.280 -23544664 -25862286 -28307448 -30546494 -32172340 -32817532 
3622.642 -32291952 -30707276 -28419436 -25877894 -23434770 -21304748 
3623.004 -19576530 -18247468 -17273814 -16594889 -16151654 -15891902 
3623.366 -15778072 -15789958 -15923524 -16189482 -16606210 -17190060 
3623.728 -17939468 -18821058 -19755924 -20633618 -21324812 -21719656 
3624.089 -21769924 -21503896 -21025302 -20474784 -20002712 -19715714 
3624.451 -19649848 -19762954 -19952680 -20094908 -20091082 -19915558 
3624.813 -19623532 -19334192 -19176974 -19259868 -19627744 -20250118 
3625.175 -21022240 -21793590 -22409912 -22738092 -22708626 -22322204 
3625.537 -21643408 -20773094 -19829054 -18926990 -18156564 -17586676 
3625.898 -17255344 -17167862 -17296676 -17585276 -17961246 -18342040 
3626.260 -18657466 -18859068 -18924166 -18858688 -18691334 -18465996 
3626.622 -18224084 -17993928 -17779838 -17564846 -17323452 -17045382 
3626.984 -16756391 -16534641 -16503541 -16809054 -17601440 -18986746 
3627.346 -20995722 -23540458 -26409732 -29253670 -31637844 -33186934 
3627.708 -33686816 -33175856 -31889334 -30163554 -28299686 -26495934 
3628.069 -24864614 -23443936 -22240048 -21254394 -20489986 -19947206 
3628.431 -19611402 -19447028 -19397254 -19399122 -19409420 -19422474 
3628.793 -19487138 -19697158 -20182246 -21069054 -22453272 -24382132 
3629.155 -26850536 -29811120 -33194486 -36972720 -41180152 -45957584 
3629.517 -51585580 -58424236 -66680528 -75769768 -83295312 -85642048 
3629.878 -81528976 -73570384 -65013200 -57471916 -51317368 -46436704 
3630.240 -42700084 -40054812 -38481128 -38002072 -38626240 -40352540 
3630.602 -43166636 -47086036 -52231116 -58771832 -66836716 -75874448 
3630.964 -83170512 -83841200 -76284832 -65253020 -55315176 -47676420 
3631.326 -41927560 -37462884 -33865688 -30886792 -28378220 -26267874 
3631.688 -24516622 -23111862 -22074558 -21441740 -21257172 -21542460 
3632.049 -22261518 -23286252 -24389588 -25306364 -25781016 -25664128 
3632.411 -24953908 -23779708 -22351788 -20894716 -19620902 -18679146 
3632.773 -18152846 -18062970 -18374914 -19011582 -19861088 -20798204 
3633.135 -21676790 -22352890 -22717024 -22710042 -22351568 -21730970 
3633.497 -20991870 -20281330 -19713434 -19348768 -19182838 -19160298 
3633.858 -19200750 -19235114 -19220848 -19152340 -19050526 -18947354 
3634.220 -18866556 -18813760 -18777272 -18739730 -18694316 -18660798 
3634.582 -18692538 -18876328 -19325350 -20152798 -21467914 -23360046 
3634.944 -25890412 -29055782 -32727998 -36593792 -40031788 -42232336 
3635.306 -42553324 -40949336 -38042868 -34704304 -31616836 -29069168 
3635.667 -27071908 -25481878 -24119486 -22835902 -21559990 -20304794 
3636.029 -19150502 -18199016 -17527328 -17167066 -17093200 -17241714 
3636.391 -17531308 -17894958 -18289022 -18689652 -19080016 -19428620 
3636.753 -19679900 -19764978 -19615710 -19198500 -18534264 -17704898 
3637.115 -16834012 -16053092 -15480978 -15186881 -15186368 -15440754 
3637.477 -15874973 -16390542 -16888004 -17291070 -17549702 -17648432 
3637.838 -17603984 -17459000 -17270852 -17098234 -16994088 -16990900 
3638.200 -17096990 -17295242 -17549922 -17813326 -18036492 -18183382 
3638.562 -18235014 -18195552 -18089540 -17960104 -17858198 -17832122 
3638.924 -17926178 -18173246 -18596520 -19212924 -20032106 -21048882 
3639.286 -22228024 -23493062 -24707854 -25689018 -26259702 -26293260 
3639.647 -25774458 -24804282 -23574322 -22298094 -21153072 -20256728 
3640.009 -19636420 -19241896 -18966226 -18692284 -18322916 -17816858 
3640.371 -17197704 -16542168 -15947895 -15495110 -15230168 -15153732 
3640.733 -15233815 -15422878 -15681311 -15987083 -16333392 -16720653 
3641.095 -17141872 -17571372 -17965604 -18266690 -18417758 -18384062 
3641.457 -18159138 -17771536 -17273814 -16732704 -16205378 -15729791 
3641.818 -15320633 -14972459 -14671001 -14404721 -14173749 -13992996 
3642.180 -13886819 -13877031 -13975446 -14174775 -14451452 -14770676 
3642.542 -15101060 -15425117 -15744522 -16077422 -16449437 -16882808 
3642.904 -17384672 -17943888 -18529532 -19099676 -19603388 -19991192 
3643.266 -20225986 -20287748 -20184398 -19953630 -19666950 -19418292 
3643.627 -19306112 -19417944 -19793978 -20405146 -21134702 -21805974 
3643.989 -22211528 -22194400 -21714266 -20864274 -19840386 -18864272 
3644.351 -18138990 -17784768 -17829546 -18214996 -18823788 -19506874 
3644.713 -20116388 -20546686 -20737874 -20681578 -20407958 -19973568 
3645.075 -19445066 -18884100 -18344962 -17862586 -17452634 -17115020 
3645.437 -16840322 -16618967 -16445896 -16321361 -16243489 -16198579 
3645.798 -16156953 -16072728 -15898930 -15608471 -15211356 -14764720 
3646.160 -14360004 -14111208 -14115089 -14429273 -15056863 -15947256 
3646.522 -17002752 -18097962 -19113850 -19948442 -20540744 -20877884 
3646.884 -20988902 -20931976 -20771388 -20566786 -20354908 -20149888 
3647.246 -19953568 -19773212 -19644814 -19653014 -19920654 -20598638 
3647.607 -21819712 -23645180 -25999374 -28617830 -31074314 -32852892 
3647.969 -33608592 -33354200 -32491352 -31600352 -31253676 -31918060 
3648.331 -33894924 -37335508 -42173192 -48104328 -54476560 -60443120 
3648.693 -65255904 -68475416 -69966120 -69685744 -67594400 -63800208 
3649.055 -58770472 -53279840 -48063220 -43558548 -39875452 -36899864 
3649.417 -34448932 -32344486 -30461340 -28750890 -27239644 -26003276 
3649.778 -25150388 -24779778 -24962980 -25737394 -27101048 -29012084 
3650.140 -31386364 -34130716 -37143156 -40345836 -43732440 -47372088 
3650.502 -51448920 -56237476 -61869404 -67601656 -71136720 -70233352 
3650.864 -65549128 -59382272 -53225616 -47575616 -42526436 -38098448 
3651.226 -34298256 -31174306 -28771264 -27102074 -26176356 -25988016 
3651.587 -26541288 -27872188 -30062464 -33231996 -37472488 -42756776 
3651.949 -48672272 -54122376 -57488752 -57494728 -54425524 -49886168 
3652.311 -45635700 -42711432 -41490568 -42089928 -44501612 -48621172 
3652.673 -53964036 -59399380 -63004060 -62927300 -58950152 -52590512 
3653.035 -45749036 -39583176 -34543224 -30639320 -27702178 -25534368 
3653.396 -23933858 -22718784 -21734500 -20876308 -20095572 -19399564 
3653.758 -18834322 -18462250 -18333686 -18463012 -18819250 -19328360 
3654.120 -19892866 -20400054 -20750982 -20879560 -20759006 -20410804 
3654.482 -19894830 -19295622 -18692730 -18147126 -17687880 -17309760 
3654.844 -16982584 -16666479 -16331190 -15966548 -15589931 -15237910 
3655.206 -14958053 -14789636 -14754215 -14851343 -15062977 -15360164 
3655.567 -15710616 -16085597 -16457828 -16800988 -17094952 -17328164 
3655.929 -17507026 -17658804 -17830690 -18073044 -18419250 -18868872 
3656.291 -19379572 -19876344 -20271304 -20500670 -20543242 -20431414 
3656.653 -20235824 -20049826 -19959960 -20024480 -20278926 -20741442 
3657.015 -21429470 -22371238 -23604040 -25166962 -27090650 -29407034 
3657.376 -32162062 -35442596 -39429216 -44379604 -50495824 -57471888 
3657.738 -63661160 -66342988 -64317404 -59201844 -53227228 -47573568 
3658.100 -42568012 -38182996 -34345620 -31023570 -28200738 -25882264 
3658.462 -24058110 -22683594 -21687790 -20982492 -20484518 -20121260 
3658.824 -19842950 -19620174 -19434166 -19272516 -19121522 -18964100 
3659.186 -18783460 -18567536 -18319106 -18059886 -17834888 -17703244 
3659.547 -17718514 -17914034 -18279842 -18759406 -19250612 -19639526 
3659.909 -19830446 -19771882 -19474814 -19005618 -18463964 -17941664 
3660.271 -17503650 -17167608 -16911140 -16687907 -16454542 -16191302 
3660.633 -15909152 -15646666 -15457349 -15399725 -15519601 -15845167 
3660.995 -16380841 -17103266 -17952346 -18828546 -19609818 -20159662 
3661.356 -20370748 -20204450 -19710426 -19022078 -18313738 -17763584 
3661.718 -17487198 -17517560 -17798062 -18209532 -18597250 -18813508 
3662.080 -18763976 -18416424 -17808556 -17025310 -16183289 -15399629 
3662.442 -14771894 -14376641 -14255039 -14412253 -14813750 -15393042 
3662.804 -16054815 -16688418 -17198310 -17514632 -17615472 -17530446 
3663.166 -17335296 -17126902 -16989562 -16977964 -17095142 -17299126 
3663.527 -17517528 -17680692 -17744056 -17702098 -17584734 -17442130 
3663.889 -17319028 -17232608 -17167862 -17086286 -16951484 -16751066 
3664.251 -16514003 -16304161 -16203782 -16274735 -16534034 -16939918 
3664.613 -17408292 -17835048 -18133588 -18265006 -18240860 -18111690 
3664.975 -17935272 -17755730 -17585150 -17409504 -17207258 -16973374 
3665.336 -16732991 -16541595 -16461113 -16536523 -16771885 -17124258 
3665.698 -17511002 -17835238 -18021456 -18029182 -17869232 -17592054 
3666.060 -17276392 -17001956 -16832066 -16807204 -16937686 -17208628 
3666.422 -17580470 -18001970 -18410548 -18741858 -18943134 -18976948 
3666.784 -18832450 -18529088 -18117730 -17670892 -17267032 -16982202 
3667.146 -16865182 -16929560 -17144674 -17443434 -17731270 -17909330 
3667.507 -17906690 -17691060 -17281774 -16737390 -16144374 -15589612 
3667.869 -15138981 -14834372 -14687593 -14689643 -14817880 -15043581 
3668.231 -15331475 -15639858 -15928028 -16160687 -16321171 -16420724 
3668.593 -16498405 -16607933 -16792828 -17065962 -17393490 -17700574 
3668.955 -17887516 -17871204 -17610188 -17123906 -16485486 -15808202 
3669.316 -15217274 -14818617 -14701463 -14935420 -15576793 -16679393 
3669.678 -18292042 -20459484 -23219230 -26623474 -30746174 -35657736 
3670.040 -41382804 -47660596 -53573796 -57465876 -57770356 -54542404 
3670.402 -49395876 -44032840 -39323816 -35473132 -32429856 -30064906 
3670.764 -28261470 -26929894 -25994882 -25395068 -25084342 -25036646 
3671.125 -25242938 -25701512 -26404556 -27323380 -28410996 -29619956 
3671.487 -30918944 -32315206 -33854804 -35609844 -37664540 -40108016 
3671.849 -43044944 -46659148 -51283244 -57487388 -65984980 -76639784 
3672.211 -86161032 -88835528 -83649288 -74904944 -65976924 -57935056 
3672.573 -50856276 -44631540 -39206704 -34550568 -30665380 -27541992 
3672.935 -25121964 -23324814 -22051884 -21208958 -20716266 -20511196 
3673.296 -20540270 -20741728 -21045630 -21374588 -21650060 -21811330 
3673.658 -21819808 -21660052 -21338218 -20875832 -20307954 -19679488 
3674.020 -19050366 -18488604 -18057090 -17805090 -17748318 -17863954 
3674.382 -18090874 -18348424 -18554328 -18643342 -18586236 -18389428 
3674.744 -18090526 -17741034 -17400558 -17126200 -16968660 -16982010 
3675.105 -17220762 -17739126 -18590712 -19816202 -21436724 -23440734 
3675.467 -25783294 -28369870 -31055190 -33676084 -36075936 -38171496 
3675.829 -39990664 -41687928 -43500700 -45699112 -48577856 -52443480 
3676.191 -57600980 -64171656 -71694288 -78370024 -81206776 -78609448 
3676.553 -72313264 -65303484 -59302332 -54815496 -51774172 -49976840 
3676.915 -49272600 -49536024 -50662744 -52533472 -55048668 -58128072 
3677.276 -61706132 -65717116 -69794864 -72725400 -72674872 -69312008 
3677.638 -64294516 -59059660 -54034668 -49260592 -44753028 -40589496 
3678.000 -36860784 -33640024 -30960230 -28778118 -27012474 -25578634 
3678.362 -24429244 -23582418 -23116102 -23123988 -23676180 -24756556 
3678.724 -26234190 -27832288 -29191712 -29966608 -29933580 -29089002 
3679.085 -27620010 -25817016 -23946966 -22217636 -20752340 -19595438 
3679.447 -18745602 -18169020 -17819880 -17650374 -17623966 -17719212 
3679.809 -17925162 -18234156 -18629058 -19072184 -19508364 -19871374 
3680.171 -20107216 -20204006 -20214444 -20265612 -20536764 -21254742 
3680.533 -22649348 -24926470 -28220796 -32512258 -37480904 -42325428 
3680.895 -45914124 -47221700 -45982592 -42800736 -38681100 -34485660 
3681.256 -30704590 -27573710 -25148044 -23394582 -22252106 -21640602 
3681.618 -21469680 -21632658 -22014184 -22485490 -22908170 -23162532 
3681.980 -23154524 -22839926 -22233720 -21408306 -20475478 -19556226 
3682.342 -18769086 -18196282 -17874542 -17796026 -17915720 -18164920 
3682.704 -18463202 -18739350 -18933080 -19005142 -18942626 -18758390 
3683.065 -18487366 -18174200 -17865194 -17592850 -17368756 -17185984 
3683.427 -17026458 -16875254 -16732194 -16617499 -16568162 -16626365 
3683.789 -16819348 -17149898 -17586676 -18075268 -18543376 -18925054 
3684.151 -19177068 -19285226 -19267696 -19164736 -19026930 -18896186 
3684.513 -18796818 -18729862 -18675812 -18601282 -18469712 -18256492 
3684.875 -17954126 -17577670 -17160250 -16748102 -16387032 -16113948 
3685.236 -15956072 -15927486 -16036358 -16289769 -16695974 -17265088 
3685.598 -18003368 -18907988 -19959612 -21116904 -22319340 -23479000 
3685.960 -24491912 -25250690 -25653164 -25633050 -25175624 -24330756 
3686.322 -23204592 -21948100 -20729786 -19686930 -18910336 -18413280 
3686.684 -18134954 -17954444 -17736390 -17382000 -16856960 -16209273 
3687.045 -15547255 -15007317 -14694961 -14657482 -14870747 -15258096 
3687.407 -15718926 -16167073 -16560987 -16903684 -17234104 -17599912 
3687.769 -18041164 -18572806 -19184486 -19843806 -20508224 -21129560 
3688.131 -21656490 -22044736 -22259534 -22287706 -22146038 -21888024 
3688.493 -21598296 -21373360 -21312918 -21490840 -21939658 -22646894 
3688.854 -23563744 -24627934 -25789042 -27035638 -28405812 -29981174 
3689.216 -31851556 -34097908 -36762004 -39852780 -43336340 -47178784 
3689.578 -51406536 -56149872 -61764652 -68921208 -78426928 -89749000 
3689.940 -98155448 -97450264 -89060128 -78541672 -68736296 -60182516 
3690.302 -52762296 -46338676 -40840140 -36287928 -32691584 -30016394 
3690.664 -28175462 -26995194 -26241238 -25646138 -24983970 -24099988 
3691.025 -22951166 -21604822 -20219978 -19000384 -18131394 -17762312 
3691.387 -17968052 -18753376 -20065772 -21820090 -23913286 -26223396 
3691.749 -28627322 -30986640 -33151634 -34986340 -36384444 -37311180 
3692.111 -37822740 -38082148 -38328020 -38828508 -39880528 -41777892 
3692.473 -44824996 -49299932 -55345948 -62581352 -69449880 -73264192 
3692.834 -71800424 -65612688 -57339736 -49320640 -42578168 -37224880 
3693.196 -33068188 -29840354 -27314636 -25336030 -23810198 -22691520 
3693.558 -21962936 -21603058 -21557876 -21716442 -21924158 -21992672 
3693.920 -21764126 -21171628 -20264728 -19200244 -18178458 -17389606 
3694.282 -16940268 -16839334 -17009732 -17334308 -17696756 -18020058 
3694.644 -18285688 -18515942 -18745000 -18983766 -19204682 -19348230 
3695.005 -19354696 -19189940 -18872014 -18469424 -18089666 -17837814 
3695.367 -17791924 -17981722 -18384126 -18930542 -19520846 -20049636 
3695.729 -20413490 -20539954 -20409382 -20064758 -19604782 -19152530 
3696.091 -18825564 -18687428 -18733100 -18886130 -19034160 -19062226 
3696.453 -18900374 -18551280 -18085568 -17610730 -17219360 -16962542 
3696.814 -16828784 -16761746 -16689215 -16564973 -16388467 -16206687 
3697.176 -16088214 -16100731 -16290151 -16672060 -17242096 -17986966 
3697.538 -18892442 -19933154 -21056806 -22172802 -23142586 -23819262 
3697.900 -24093186 -23933514 -23407738 -22657902 -21852924 -21118702 
3698.262 -20514230 -20019766 -19566870 -19077098 -18508514 -17879566 
3698.624 -17268178 -16780556 -16510049 -16509920 -16772682 -17243754 
3698.985 -17844650 -18511340 -19207280 -19924168 -20665370 -21414552 
3699.347 -22111970 -22656644 -22916246 -22780444 -22206458 -21241932 
3699.709 -20016508 -18707106 -17500852 -16535118 -15883310 -15540318 
3700.071 -15437812 -15470139 -15536321 -15579990 -15597923 -15635384 
3700.433 -15750689 -15985327 -16333297 -16741758 -17129832 -17434618 
3700.794 -17644740 -17818448 -18058678 -18477396 -19139056 -20022614 
3701.156 -21008286 -21908060 -22538124 -22772050 -22601446 -22123368 
3701.518 -21499986 -20879622 -20356394 -19954708 -19641742 -19359956 
3701.880 -19061528 -18730814 -18384570 -18057248 -17778756 -17564814 
3702.242 -17416316 -17334754 -17343032 -17497318 -17887610 -18630296 
3702.604 -19839280 -21614532 -24027982 -27133388 -30966062 -35554040 
3702.965 -40934408 -47054672 -53633596 -59924696 -64471356 -65577476 
3703.327 -62522940 -56351540 -48998128 -41975784 -35959044 -31024958 
3703.689 -27055222 -23904382 -21451800 -19624070 -18357954 -17580918 
3704.051 -17201302 -17121868 -17261458 -17569430 -18032868 -18658260 
3704.413 -19442182 -20347290 -21284432 -22119086 -22712998 -22953082 
3704.774 -22801288 -22306718 -21594008 -20812164 -20082254 -19479852 
3705.136 -19023314 -18697998 -18479396 -18353950 -18322378 -18392796 
3705.498 -18565568 -18820838 -19115688 -19396492 -19610768 -19728918 
3705.860 -19752472 -19716410 -19675182 -19685694 -19794674 -20024638 
3706.222 -20371854 -20809196 -21296702 -21787856 -22240300 -22627332 
3706.583 -22935860 -23164292 -23312882 -23375148 -23332822 -23161058 
3706.945 -22835870 -22350780 -21725992 -21013558 -20280854 -19597212 
3707.307 -19012532 -18542836 -18174550 -17877882 -17630774 -17437608 
3707.669 -17340008 -17408198 -17728216 -18365100 -19335490 -20580942 
3708.031 -21967472 -23292564 -24322140 -24866586 -24818584 -24193262 
3708.393 -23111232 -21771090 -20390918 -19155542 -18208356 -17619542 
3708.754 -17390944 -17465110 -17750322 -18142230 -18548296 -18911064 
3709.116 -19205188 -19432550 -19609724 -19758806 -19904228 -20073078 
3709.478 -20302642 -20635166 -21108414 -21738316 -22498454 -23310400 
3709.840 -24047074 -24577994 -24804158 -24700812 -24329972 -23833658 
3710.202 -23404284 -23238828 -23538542 -24483206 -26243452 -29002010 
3710.563 -32976154 -38410708 -45425952 -53740032 -62043300 -67726296 
3710.925 -68340208 -63929640 -56996660 -50001616 -44182268 -39727436 
3711.287 -36369360 -33748412 -31538914 -29513444 -27561396 -25686240 
3711.649 -23974088 -22547908 -21506512 -20906368 -20751426 -21006898 
3712.011 -21616014 -22518116 -23659362 -24977464 -26399098 -27830328 
3712.373 -29149702 -30237426 -31000678 -31401840 -31468936 -31286236 
3712.734 -30971398 -30643428 -30427174 -30448798 -30831856 -31710666 
3713.096 -33210848 -35441248 -38474696 -42363028 -47158452 -52913152 
3713.458 -59735168 -67641160 -76065968 -82925912 -84587184 -79545240 
3713.820 -71003888 -62805400 -56331080 -51436380 -47673216 -44669836 
3714.182 -42185008 -40065692 -38192192 -36456196 -34760648 -33040338 
3714.543 -31278376 -29513972 -27820322 -26284310 -24968016 -23882868 
3714.905 -22990104 -22216060 -21488664 -20769966 -20078742 -19483718 
3715.267 -19077224 -18925434 -19040218 -19362522 -19787204 -20189016 
3715.629 -20475416 -20623570 -20690802 -20799878 -21096482 -21720822 
3715.991 -22759944 -24222252 -26000186 -27867248 -29479794 -30459856 
3716.353 -30562832 -29766262 -28273640 -26383354 -24392656 -22518336 
3716.714 -20883474 -19552584 -18535534 -17808524 -17327082 -17041590 
3717.076 -16906424 -16882426 -16939216 -17044330 -17158402 -17241014 
3717.438 -17254198 -17180250 -17032032 -16855430 -16717304 -16683284 
3717.800 -16799872 -17072334 -17463964 -17903924 -18316566 -18640452 
3718.162 -18849264 -18956424 -19007426 -19058452 -19149360 -19287572 
3718.523 -19436858 -19528922 -19478520 -19220848 -18736716 -18070850 
3718.885 -17324248 -16636537 -16152961 -15972743 -16130423 -16577443 
3719.247 -17204678 -17864654 -18427286 -18820900 -19044880 -19163596 
3719.609 -19271660 -19463472 -19796322 -20288604 -20935324 -21738156 
3719.971 -22735008 -24012402 -25685802 -27859604 -30548810 -33606320 
3720.333 -36616724 -38936148 -39896788 -39111664 -36743676 -33401850 
3720.694 -29831848 -26582866 -23957940 -22043410 -20779632 -20046978 
3721.056 -19707322 -19643738 -19762764 -20001824 -20318010 -20666350 
3721.418 -20993354 -21236946 -21334718 -21248936 -20979430 -20568016 
3721.780 -20079216 -19584544 -19140640 -18776764 -18502640 -18314532 
3722.142 -18207816 -18185574 -18261226 -18453326 -18778446 -19239550 
3722.503 -19821490 -20489512 -21201354 -21913982 -22597702 -23243070 
3722.865 -23860382 -24474688 -25116428 -25819888 -26624908 -27585774 
3723.227 -28791080 -30367888 -32483726 -35323756 -39034016 -43588760 
3723.589 -48571280 -53068416 -55772020 -55731776 -53074368 -48894460 
3723.951 -44464228 -40629508 -37795588 -35989664 -35023940 -34569204 
3724.312 -34244548 -33685712 -32653414 -31116572 -29226284 -27234262 
3724.674 -25372346 -23811014 -22619720 -21781772 -21221138 -20834872 
3725.036 -20522698 -20200592 -19821520 -19378080 -18908654 -18490384 
3725.398 -18236286 -18269454 -18680828 -19499114 -20650774 -21966496 
3725.760 -23194102 -24094942 -24540358 -24575490 -24415274 -24374614 
3726.122 -24789292 -25897842 -27775942 -30231832 -32789544 -34708588 
3726.483 -35298708 -34319780 -32112494 -29380494 -26799422 -24861048 
3726.845 -23781560 -23570806 -24076666 -25030046 -26070402 -26812752 
3727.207 -26980062 -26469250 -25398976 -24040522 -22741990 -21814072 
3727.569 -21464288 -21813602 -22899620 -24716554 -27215838 -30313724 
3727.931 -33807636 -37240148 -39883976 -40929528 -40053512 -37716948 
3728.292 -34812120 -32042664 -29699242 -27801210 -26233720 -24868338 
3728.654 -23618256 -22468218 -21470690 -20725554 -20324682 -20318010 
3729.016 -20673774 -21271274 -21899396 -22312604 -22329442 -21900184 
3729.378 -21149032 -20312856 -19671446 -19433626 -19690096 -20392690 
3729.740 -21370740 -22366516 -23100048 -23372070 -23103472 -22360318 
3730.102 -21305884 -20151312 -19085312 -18232664 -17662556 -17386710 
3730.463 -17379452 -17587472 -17944460 -18376978 -18815696 -19216028 
3730.825 -19565096 -19885872 -20225102 -20634912 -21144172 -21738156 
3731.187 -22350656 -22885664 -23254156 -23404096 -23344944 -23138280 
3731.549 -22875542 -22635728 -22465922 -22369350 -22317924 -22275022 
3731.911 -22222262 -22175668 -22186404 -22322488 -22644378 -23185338 
3732.272 -23933514 -24831038 -25773210 -26635378 -27288998 -27629990 
3732.634 -27612702 -27261054 -26673052 -25994882 -25417382 -25139258 
3732.996 -25334184 -26146532 -27670842 -29972452 -33113658 -37234852 
3733.358 -42617488 -49715872 -59109492 -70875088 -82931000 -89879032 
3733.720 -87172400 -77316280 -65948688 -56186760 -48577620 -42755156 
3734.082 -38272172 -34756948 -31944380 -29653350 -27756700 -26179506 
3734.443 -24892744 -23898798 -23218978 -22861774 -22815750 -23008770 
3734.805 -23328394 -23640536 -23810888 -23760354 -23492088 -23102498 
3735.167 -22748718 -22615506 -22877208 -23659174 -25040054 -27041462 
3735.529 -29636886 -32727566 -36147132 -39686368 -43108796 -46247776 
3735.891 -49074604 -51735116 -54482168 -57576780 -61139996 -65001280 
3736.252 -68531000 -70667328 -70448928 -67743736 -63550396 -59263856 
3736.614 -55996116 -54230564 -53979924 -54945180 -56549648 -57948076 
3736.976 -58166932 -56640860 -53515536 -49508264 -45371544 -41601864 
3737.338 -38409008 -35827716 -33862068 -32518006 -31814172 -31781468 
3737.700 -32443322 -33824860 -35970268 -38996764 -43123828 -48665368 
3738.062 -55951344 -64797536 -73434896 -78054328 -75530448 -67446120 
3738.423 -57951148 -49729256 -43421916 -38768844 -35339548 -32727074 
3738.785 -30614432 -28773560 -27067302 -25444318 -23931224 -22597200 
3739.147 -21534104 -20821102 -20509708 -20632890 -21213376 -22279712 
3739.509 -23869382 -26018974 -28727972 -31877882 -35179372 -38106792 
3739.871 -39993684 -40349456 -39133372 -36793876 -33955752 -31161692 
3740.232 -28718824 -26732098 -25206890 -24095192 -23334830 -22856840 
3740.594 -22581724 -22413658 -22243858 -21983128 -21578372 -21035846 
3740.956 -20414124 -19806008 -19300976 -18954172 -18779144 -18751598 
3741.318 -18834766 -19003906 -19263228 -19641362 -20167728 -20845958 
3741.680 -21633446 -22446414 -23194228 -23811202 -24290842 -24682998 
3742.042 -25069830 -25519620 -26055110 -26649838 -27255204 -27843072 
3742.403 -28444078 -29151500 -30095360 -31377084 -32990098 -34734072 
3742.765 -36194172 -36892376 -36495988 -35043376 -32878634 -30440302 
3743.127 -28046016 -25843930 -23863360 -22072448 -20448264 -19016084 
3743.489 -17846974 -17044616 -16698685 -16839780 -17419912 -18314818 
3743.851 -19360462 -20377924 -21227922 -21833988 -22181270 -22306592 
3744.212 -22277162 -22176266 -22083912 -22075692 -22214768 -22540798 
3744.574 -23070012 -23794860 -24694800 -25746856 -26942756 -28299438 
3744.936 -29860894 -31697698 -33906416 -36611060 -39984196 -44255588 
3745.298 -49700240 -56592700 -64977140 -74351712 -83531720 -91120048 
3745.660 -96445752 -99873088 -102546120 -105751304 -110815576 -119150200 
3746.021 -131780072 -147140048 -158250976 -157992528 -148362144 -135646368 
3746.383 -123021400 -110867792 -98945264 -87404792 -76585096 -66841060 
3746.745 -58314652 -50960980 -44657280 -39288192 -34785880 -31085170 
3747.107 -28143662 -25908704 -24296888 -23214612 -22571248 -22302878 
3747.469 -22379640 -22797548 -23548054 -24578872 -25771554 -26943814 
3747.831 -27877348 -28400814 -28433494 -28009826 -27246554 -26298002 
3748.192 -25303676 -24357480 -23526616 -22868532 -22454280 -22388924 
3748.554 -22788586 -23748338 -25287766 -27302222 -29517408 -31490166 
3748.916 -32754548 -32973450 -32122772 -30484136 -28505736 -26588818 
3749.278 -24960978 -23698332 -22763056 -22085202 -21620458 -21379952 
3749.640 -21420480 -21806258 -22559672 -23632598 -24907950 -26250688 
3750.001 -27545600 -28754302 -29929928 -31203170 -32735340 -34673808 
3750.363 -37123292 -40152032 -43830640 -48285456 -53852768 -61287856 
3750.725 -72172704 -89478872 -117091520 -151636832 -167016912 -147932368 
3751.087 -119161480 -96486304 -80553112 -69052856 -60254024 -53183756 
3751.449 -47331888 -42475932 -38550748 -35515144 -33331402 -31903130 
3751.811 -31066756 -30615204 -30353274 -30158670 -30000282 -29934662 
3752.172 -30055940 -30441416 -31093654 -31917412 -32729380 -33334900 
3752.534 -33593260 -33482012 -33096526 -32619450 -32259070 -32190278 
3752.896 -32548412 -33398476 -34738228 -36491660 -38532312 -40702892 
3753.258 -42823944 -44749712 -46382872 -47735144 -49006120 -50811328 
3753.620 -54539628 -62574440 -76413704 -90110928 -93238472 -86596776 
3753.981 -77062384 -68153184 -60668624 -54509028 -49410128 -45128128 
3754.343 -41456900 -38260372 -35452796 -32975632 -30797690 -28892838 
3754.705 -27234198 -25808710 -24623864 -23715430 -23147014 -22976654 
3755.067 -23219356 -23800004 -24541924 -25171558 -25394662 -25025260 
3755.429 -24052280 -22663248 -21146980 -19807688 -18850184 -18344644 
3755.791 -18245340 -18429158 -18747570 -19061782 -19282024 -19365596 
3756.152 -19309186 -19133254 -18870616 -18563854 -18262974 -18031660 
3756.514 -17935368 -18020948 -18303318 -18749664 -19284972 -19801166 
3756.876 -20193032 -20378968 -20318200 -20020368 -19536398 -18946466 
3757.238 -18338260 -17809544 -17457948 -17373848 -17649418 -18358844 
3757.600 -19561516 -21308976 -23656914 -26674954 -30426588 -34934796 
3757.961 -40037924 -45196336 -49440968 -51564308 -50850852 -47599636 
3758.323 -42866364 -37731616 -32864842 -28567698 -24889426 -21792016 
3758.685 -19247540 -17255280 -15851971 -15080323 -14944543 -15380537 
3759.047 -16240904 -17327432 -18407692 -19278950 -19814176 -19972080 
3759.409 -19803634 -19420890 -18966988 -18562868 -18288832 -18173340 
3759.771 -18200254 -18327270 -18509562 -18722688 -18975900 -19319360 
3760.132 -19834310 -20623126 -21774306 -23324908 -25211610 -27247426 
3760.494 -29124512 -30478670 -31060094 -30852412 -30120276 -29277302 
3760.856 -28784382 -29028510 -30288198 -32782384 -36669136 -42022588 
3761.218 -48576140 -55423416 -60791240 -62620392 -60175480 -54645960 
3761.580 -48001900 -41644012 -36230844 -31920798 -28631914 -26225580 
3761.941 -24523572 -23331250 -22444746 -21685616 -20930144 -20123158 
3762.303 -19281360 -18467838 -17759578 -17209106 -16830856 -16597822 
3762.665 -16459167 -16356463 -16244991 -16105680 -15944606 -15790310 
3763.027 -15684027 -15674217 -15800502 -16083553 -16514642 -17053092 
3763.389 -17628834 -18159550 -18580330 -18858340 -19004826 -19062068 
3763.750 -19080270 -19084108 -19053062 -18920422 -18605090 -18051240 
3764.112 -17264992 -16326724 -15374749 -14567263 -14020619 -13787325 
3764.474 -13838166 -14088145 -14425907 -14763535 -15066817 -15358054 
3764.836 -15698632 -16155101 -16770003 -17536972 -18400004 -19261010 
3765.198 -20012868 -20553512 -20809006 -20748740 -20385672 -19777072 
3765.560 -19011962 -18212772 -17510716 -17022634 -16836402 -16978220 
3765.921 -17405970 -18009760 -18649816 -19184202 -19513464 -19610578 
3766.283 -19519356 -19332606 -19147870 -19044532 -19061560 -19207820 
3766.645 -19490592 -19946890 -20666666 -21806068 -23569520 -26193948 
3767.007 -29898072 -34814784 -40775500 -47012448 -52064240 -54191608 
3767.369 -52679420 -48423204 -43098144 -37967828 -33578568 -30027340 
3767.730 -27198224 -24953940 -23202772 -21899112 -21027510 -20563878 
3768.092 -20448200 -20570546 -20787530 -20965066 -20997868 -20845768 
3768.454 -20531928 -20124298 -19701020 -19324460 -19030418 -18825818 
3768.816 -18701616 -18643468 -18638326 -18672480 -18727228 -18780158 
3769.178 -18807576 -18797992 -18760518 -18730020 -18756234 -18884448 
3769.540 -19138168 -19503422 -19928916 -20339226 -20663632 -20850158 
3769.901 -20882244 -20776348 -20572820 -20320128 -20060868 -19830446 
3770.263 -19652128 -19540296 -19502694 -19542290 -19660172 -19859728 
3770.625 -20152322 -20561098 -21123658 -21886606 -22907068 -24252332 
3770.987 -26011578 -28315550 -31364140 -35446108 -40870600 -47747756 
3771.349 -55421636 -61849868 -64440220 -62339708 -57178788 -51122892 
3771.710 -45518840 -40848316 -37125148 -34223788 -31953554 -30112640 
3772.072 -28507474 -26983080 -25445442 -23868254 -22284118 -20761122 
3772.434 -19376846 -18190182 -17244040 -16564431 -16165923 -16058424 
3772.796 -16239883 -16685963 -17333100 -18080546 -18804846 -19380110 
3773.158 -19723788 -19812878 -19686582 -19419178 -19093174 -18773686 
3773.520 -18496702 -18281620 -18143852 -18101934 -18174992 -18364844 
3773.881 -18640042 -18925434 -19121934 -19133952 -18905006 -18444910 
3774.243 -17829736 -17178308 -16601363 -16174765 -15913017 -15777688 
3774.605 -15698984 -15610549 -15472537 -15271660 -15014295 -14710272 
3774.967 -14365422 -13985393 -13591383 -13233527 -12984727 -12928897 
3775.329 -13127484 -13587400 -14248851 -14995313 -15696237 -16236691 
3775.690 -16563155 -16689055 -16679935 -16614757 -16556170 -16532887 
3776.052 -16540509 -16562676 -16591955 -16639918 -16731746 -16884496 
3776.414 -17085204 -17278908 -17380120 -17303394 -16992748 -16453745 
3776.776 -15757015 -15027354 -14396259 -13975222 -13823819 -13939670 
3777.138 -14269243 -14730290 -15242645 -15736405 -16165636 -16506508 
3777.500 -16748771 -16892912 -16945460 -16920892 -16838730 -16721290 
3777.861 -16587712 -16444780 -16283225 -16078923 -15804145 -15439155 
3778.223 -14989519 -14492025 -14017250 -13651494 -13474346 -13541733 
3778.585 -13863584 -14404080 -15088036 -15829608 -16546888 -17183244 
3778.947 -17716478 -18151956 -18509944 -18809828 -19060832 -19258918 
3779.309 -19394210 -19460748 -19465026 -19426784 -19372092 -19318346 
3779.670 -19267158 -19202874 -19103544 -18955632 -18765912 -18564678 
3780.032 -18400800 -18323808 -18363606 -18531088 -18812334 -19187214 
3780.394 -19655422 -20254988 -21076156 -22264256 -24005504 -26524768 
3780.756 -30060918 -34830164 -40875184 -47819080 -54623404 -59585476 
3781.118 -61238884 -59361376 -54983368 -49450108 -43743676 -38386688 
3781.479 -33570104 -29367396 -25813488 -22913638 -20665276 -19026486 
3781.841 -17912698 -17201684 -16758207 -16464559 -16233148 -16026428 
3782.203 -15845614 -15714707 -15657054 -15680321 -15770756 -15899984 
3782.565 -16033420 -16142618 -16213804 -16244991 -16243936 -16222520 
3782.927 -16196154 -16181532 -16198451 -16266821 -16396668 -16580345 
3783.289 -16782692 -16947532 -17008328 -16914296 -16657552 -16287725 
3783.650 -15904775 -15625028 -15553201 -15735958 -16146865 -16689150 
3784.012 -17229774 -17636436 -17814662 -17739986 -17455912 -17060260 
3784.374 -16665746 -16382150 -16287278 -16415555 -16760981 -17279482 
3784.736 -17898804 -18518578 -19029722 -19328264 -19332068 -19009804 
3785.098 -18389778 -17561824 -16647538 -15785325 -15096164 -14660236 
3785.459 -14524871 -14709119 -15221402 -16072186 -17274354 -18830610 
3785.821 -20703440 -22798018 -24935512 -26854336 -28284878 -29024110 
3786.183 -29037714 -28471074 -27590626 -26655478 -25824852 -25153828 
3786.545 -24606644 -24108766 -23584300 -22993780 -22342126 -21671274 
3786.907 -21033098 -20468018 -19991002 -19594900 -19267602 -19008600 
3787.269 -18837112 -18792692 -18919184 -19244528 -19764852 -20433090 
3787.630 -21160204 -21823936 -22306152 -22514278 -22411990 -22029492 
3787.992 -21457286 -20820408 -20235032 -19791256 -19523568 -19409230 
3788.354 -19379508 -19348578 -19244370 -19028516 -18708534 -18324600 
3788.716 -17927612 -17549540 -17191750 -16824546 -16409431 -15921704 
3789.078 -15378298 -14840168 -14407093 -14179907 -14223840 -14542848 
3789.439 -15069378 -15679905 -16222743 -16575212 -16666990 -16503381 
3789.801 -16154941 -15736150 -15365218 -15125317 -15056159 -15148516 
3790.163 -15365666 -15661849 -16005766 -16384000 -16794804 -17233148 
3790.525 -17678558 -18090778 -18424714 -18646706 -18758516 -18802118 
3790.887 -18855610 -19001432 -19290424 -19717170 -20209004 -20644202 
3791.249 -20878234 -20800320 -20360126 -19585398 -18567504 -17442638 
3791.610 -16356081 -15423422 -14726799 -14302460 -14146488 -14224834 
3791.972 -14483789 -14859860 -15281289 -15684027 -16016815 -16248055 
3792.334 -16371747 -16403431 -16371684 -16304130 -16220158 -16125729 
3792.696 -16016208 -15885066 -15732091 -15566596 -15406985 -15272140 
3793.058 -15173730 -15111364 -15074082 -15045405 -15011766 -14970154 
3793.419 -14929817 -14910768 -14936028 -15027706 -15198782 -15448620 
3793.781 -15759956 -16099676 -16422097 -16671613 -16799680 -16773095 
3794.143 -16585257 -16259575 -15844431 -15401932 -14986639 -14643323 
3794.505 -14399913 -14272931 -14278317 -14432029 -14744959 -15207229 
3794.867 -15772993 -16352188 -16815270 -17036812 -16925546 -16466346 
3795.229 -15731612 -14871515 -14068803 -13473832 -13177728 -13182454 
3795.590 -13422948 -13800710 -14236762 -14697011 -15193664 -15761042 
3795.952 -16423628 -17166204 -17935464 -18653308 -19255464 -19722902 
3796.314 -20091082 -20435526 -20832978 -21327526 -21900372 -22472466 
3796.676 -22922500 -23139758 -23056502 -22678532 -22084604 -21412882 
3797.038 -20825240 -20457842 -20410078 -20722332 -21384432 -22349900 
3797.399 -23565126 -24999988 -26669750 -28659646 -31132486 -34316352 
3797.761 -38455472 -43650012 -49526236 -54951020 -58136360 -57810152 
3798.123 -54266884 -48937800 -43230292 -37960328 -33487226 -29875556 
3798.485 -27074058 -24993450 -23513464 -22503612 -21833988 -21402568 
3798.847 -21144202 -21042064 -21117630 -21411336 -21952920 -22734318 
3799.208 -23682550 -24663152 -25505498 -26043064 -26180286 -25910172 
3799.570 -25304676 -24469802 -23514406 -22526484 -21563804 -20673174 
3799.932 -19897138 -19278950 -18866556 -18698282 -18789710 -19124060 
3800.294 -19651494 -20294516 -20958752 -21560998 -22039444 -22367428 
3800.656 -22553036 -22631012 -22649788 -22657554 -22701394 -22818894 
3801.018 -23034442 -23353012 -23752606 -24182640 -24568258 -24839112 
3801.379 -24954376 -24933792 -24862924 -24887956 -25175186 -25853452 
3801.741 -26982458 -28514610 -30303310 -32114186 -33710976 -34932352 
3802.103 -35749724 -36272264 -36698916 -37248512 -38083604 -39298848 
3802.465 -40919424 -42944168 -45368648 -48250884 -51791584 -56403776 
3802.827 -62748344 -71311808 -80663584 -85725416 -83231984 -76327088 
3803.188 -68892144 -62257780 -56424840 -51142536 -46236368 -41653492 
3803.550 -37417108 -33625580 -30385994 -27780914 -25879018 -24699746 
3803.912 -24229866 -24435350 -25276636 -26716582 -28713768 -31214888 
3804.274 -34094080 -37095764 -39819648 -41708488 -42249140 -41233732 
3804.636 -38886256 -35738860 -32354944 -29165998 -26395358 -24134812 
3804.998 -22407520 -21197598 -20477438 -20199546 -20292050 -20644740 
3805.359 -21114978 -21550530 -21796552 -21739228 -21329292 -20594246 
3805.721 -19633286 -18591442 -17629152 -16865788 -16363196 -16110787 
3806.083 -16041948 -16060531 -16082531 -16069088 -16032718 -16028982 
3806.445 -16125411 -16377460 -16800032 -17365318 -18011222 -18668862 
3806.807 -19279170 -19805818 -20236614 -20573200 -20822050 -20990038 
3807.168 -21088686 -21140764 -21181000 -21255058 -21400958 -21632502 
3807.530 -21927970 -22237310 -22503864 -22696930 -22841026 -23028064 
3807.892 -23404974 -24130926 -25354594 -27184466 -29705586 -32999370 
3808.254 -37218980 -42672364 -49814560 -59041356 -69685824 -78323776 
3808.616 -80152120 -74795864 -66409932 -58270876 -51453392 -45953948 
3808.978 -41506048 -37884904 -34910400 -32431486 -30322128 -28465398 
3809.339 -26768176 -25176404 -23684212 -22330166 -21181284 -20296856 
3809.701 -19710236 -19407740 -19332860 -19394020 -19491478 -19544254 
3810.063 -19497370 -19333716 -19066032 -18726434 -18352998 -17983246 
3810.425 -17651964 -17387316 -17214552 -17152924 -17208850 -17370060 
3810.787 -17598766 -17836192 -18004196 -18027464 -17854732 -17472366 
3811.148 -16916622 -16267205 -15634488 -15120581 -14800044 -14695249 
3811.510 -14773943 -14959142 -15156675 -15290181 -15314843 -15233495 
3811.872 -15088132 -14946177 -14873148 -14915731 -15093219 -15394704 
3812.234 -15787531 -16225584 -16664375 -17063986 -17396578 -17649672 
3812.596 -17826016 -17943094 -18025556 -18099170 -18178362 -18257890 
3812.958 -18311068 -18298584 -18182270 -17942616 -17591768 -17176716 
3813.319 -16769908 -16442962 -16252555 -16219934 -16328447 -16531548 
3813.681 -16771533 -16999120 -17179708 -17298934 -17353634 -17343636 
3814.043 -17265376 -17113906 -16889596 -16605062 -16290214 -15986860 
3814.405 -15734456 -15561865 -15475735 -15461282 -15487725 -15522734 
3814.767 -15542523 -15535873 -15504318 -15456646 -15403851 -15358118 
3815.128 -15336561 -15366562 -15483377 -15727617 -16127773 -16684176 
3815.490 -17355576 -18062110 -18704028 -19182648 -19439362 -19471838 
3815.852 -19338216 -19133506 -18969302 -18940406 -19098470 -19455552 
3816.214 -19990118 -20669858 -21465390 -22358428 -23336056 -24374458 
3816.576 -25432038 -26452040 -27380782 -28202664 -28968940 -29817494 
3816.938 -30948998 -32611244 -35041636 -38431572 -42895092 -48485260 
3817.299 -55267096 -63326500 -72903888 -84350608 -97557552 -110008320 
3817.661 -115072568 -108504408 -95752328 -83390424 -73247368 -64922928 
3818.023 -57788920 -51474996 -45819940 -40804912 -36437916 -32711558 
3818.385 -29604234 -27052202 -24977652 -23307700 -21987946 -20985554 
3818.747 -20279716 -19849028 -19658464 -19657134 -19788058 -19991162 
3819.108 -20216752 -20428254 -20597406 -20706252 -20748046 -20731556 
3819.470 -20684138 -20651058 -20685906 -20827798 -21089948 -21446594 
3819.832 -21845236 -22219492 -22520634 -22736266 -22892328 -23034600 
3820.194 -23197998 -23381678 -23538794 -23592366 -23466098 -23120376 
3820.556 -22557850 -21819998 -20961182 -20037960 -19100278 -18199428 
3820.917 -17414120 -16858522 -16677735 -17035570 -18057438 -19783310 
3821.279 -22104632 -24764442 -27365660 -29496170 -30907806 -31616188 
3821.641 -31903620 -32165724 -32807332 -34119840 -36283512 -39412724 
3822.003 -43624152 -49060460 -55767884 -63424348 -70679912 -74970184 
3822.365 -74244432 -69190328 -62417832 -55975144 -50747420 -46875916 
3822.727 -44253852 -42794248 -42448920 -43246128 -45300772 -48843356 
3823.088 -54195704 -61574948 -70619368 -79228904 -83327064 -80092688 
3823.450 -71274384 -60928076 -51634924 -44186248 -38475912 -34183424 
3823.812 -31021686 -28730484 -27079754 -25850048 -24849876 -23931506 
3824.174 -23022532 -22134546 -21350394 -20783832 -20523932 -20601294 
3824.536 -20959256 -21467820 -21942270 -22210394 -22158980 -21772004 
3824.897 -21133156 -20393670 -19715270 -19207978 -18921628 -18847806 
3825.259 -18950368 -19193142 -19562974 -20070170 -20732662 -21547284 
3825.621 -22464850 -23369654 -24109642 -24519814 -24495576 -24037544 
3825.983 -23261472 -22360600 -21521838 -20879242 -20462646 -20204038 
3826.345 -19964992 -19599430 -19012626 -18199366 -17255536 -16353432 
3826.707 -15696907 -15442800 -15665842 -16321873 -17266234 -18273330 
3827.068 -19107950 -19600190 -19680946 -19409166 -18936948 -18469108 
3827.430 -18184652 -18201494 -18563630 -19247094 -20190724 -21338314 
3827.792 -22683502 -24295164 -26327442 -28995098 -32532088 -37085600 
3828.154 -42563000 -48341276 -53190996 -55630696 -54783752 -51053196 
3828.516 -45739700 -40196768 -35253800 -31285406 -28335446 -26258486 
3828.877 -24830756 -23804270 -22968702 -22176108 -21376324 -20602936 
3829.239 -19943978 -19489070 -19289884 -19332670 -19540264 -19790908 
3829.601 -19961036 -19974802 -19817214 -19534910 -19204460 -18907258 
3829.963 -18696950 -18589378 -18564328 -18579440 -18587346 -18551916 
3830.325 -18462472 -18335908 -18210548 -18129710 -18131108 -18231202 
3830.687 -18418998 -18655532 -18884988 -19053950 -19124692 -19092794 
3831.048 -18986810 -18860592 -18767688 -18741318 -18776064 -18827944 
3831.410 -18826390 -18702186 -18419950 -17993864 -17492068 -17012152 
3831.772 -16661251 -16513556 -16594538 -16877582 -17302660 -17797680 
3832.134 -18300746 -18778414 -19223132 -19646366 -20066942 -20504904 
3832.496 -20983536 -21535080 -22216596 -23114658 -24348016 -26078202 
3832.857 -28510112 -31906422 -36576676 -42832708 -50730028 -59498116 
3833.219 -67057616 -70483752 -68359712 -62070816 -54188068 -46533280 
3833.581 -39845916 -34299024 -29812388 -26255554 -23513528 -21463878 
3833.943 -19979992 -18926322 -18179060 -17635642 -17231270 -16939534 
3834.305 -16756710 -16686153 -16723840 -16853072 -17048440 -17284002 
3834.667 -17536526 -17788520 -18023490 -18221892 -18364020 -18436400 
3835.028 -18442720 -18409024 -18384760 -18428524 -18584744 -18869380 
3835.390 -19257808 -19695132 -20112022 -20458222 -20721446 -20936554 
3835.752 -21172352 -21516446 -22052166 -22840114 -23924796 -25347844 
3836.114 -27174600 -29513414 -32529966 -36438588 -41393256 -47262000 
3836.476 -53198148 -57325800 -57725888 -54240276 -48656540 -42872576 
3836.837 -37881380 -33892104 -30754136 -28258644 -26220620 -24512268 
3837.199 -23067184 -21864268 -20909116 -20216656 -19790116 -19612858 
3837.561 -19640348 -19806548 -20023278 -20192146 -20226968 -20062258 
3837.923 -19675308 -19094062 -18402958 -17726656 -17200858 -16952918 
3838.285 -17061438 -17549350 -18390032 -19534846 -20940944 -22598048 
3838.646 -24542424 -26846364 -29594514 -32857992 -36660212 -40972612 
3839.008 -45743072 -50883684 -56360532 -62265588 -68908776 -76792848 
3839.370 -85994144 -94062512 -95466152 -88832216 -78973088 -69501464 
3839.732 -61220984 -53996488 -47630428 -42061360 -37301844 -33379390 
3840.094 -30317122 -28054866 -26465538 -25369784 -24583256 -23950476 
3840.456 -23376562 -22835618 -22348358 -21953990 -21680730 -21536404 
3840.817 -21513830 -21610496 -21852198 -22302720 -23061466 -24252238 
3841.179 -25991074 -28363042 -31373818 -34912296 -38654672 -42040392 
3841.541 -44409160 -45226552 -44387892 -42229476 -39320304 -36181308 
3841.903 -33175300 -30541894 -28416922 -26907908 -26127220 -26193794 
3842.265 -27255796 -29471186 -32974374 -37698720 -43106484 -47977484 
3842.626 -50545616 -49657948 -45691060 -40127380 -34379540 -29271664 
3842.988 -25137662 -22008672 -19824908 -18489812 -17881220 -17848944 
3843.350 -18208834 -18764482 -19306524 -19659698 -19710774 -19420194 
3843.712 -18834100 -18066974 -17276996 -16609175 -16169084 -15997590 
3844.074 -16071355 -16321521 -16664153 -17034710 -17398806 -17757924 
3844.436 -18136194 -18566298 -19077130 -19696588 -20466722 -21458264 
3844.797 -22787580 -24624896 -27181540 -30693536 -35351400 -41196668 
3845.159 -47833032 -54151540 -58426812 -59071316 -55892972 -50180004 
3845.521 -43661792 -37521268 -32294106 -28116736 -24914552 -22569330 
3845.883 -20958498 -19963252 -19469904 -19365754 -19545236 -19896918 
3846.245 -20309948 -20674944 -20876970 -20821736 -20454870 -19780270 
3846.606 -18866714 -17837146 -16842714 -16015155 -15452010 -15191007 
3846.968 -15210524 -15441745 -15794145 -16182873 -16535725 -16805004 
3847.330 -16961426 -16986820 -16876786 -16643999 -16327202 -15987212 
3847.692 -15701605 -15542587 -15549109 -15712885 -15975330 -16253321 
3848.054 -16462868 -16559200 -16549887 -16488964 -16448863 -16490813 
3848.416 -16644062 -16896512 -17205984 -17517114 -17782160 -17964012 
3848.777 -18035538 -17975204 -17763490 -17393746 -16886346 -16305277 
3849.139 -15752606 -15348523 -15200958 -15357766 -15788680 -16384510 
3849.501 -17001352 -17495790 -17779298 -17843508 -17751404 -17604494 
3849.863 -17494804 -17479622 -17563352 -17715174 -17895178 -18084964 
3850.225 -18296902 -18566266 -18924960 -19380142 -19901538 -20434924 
3850.586 -20923482 -21344432 -21725296 -22145724 -22706960 -23493032 
3850.948 -24538542 -25802186 -27162618 -28431448 -29418644 -29979410 
3851.310 -30064472 -29722448 -29064924 -28215766 -27273192 -26311786 
3851.672 -25382286 -24523480 -23771020 -23149212 -22662808 -22289942 
3852.034 -21985932 -21694726 -21369700 -20996258 -20601452 -20250118 
3852.396 -20019134 -19979642 -20167886 -20578004 -21172228 -21907272 
3852.757 -22764190 -23770204 -24999988 -26558712 -28554606 -31071662 
3853.119 -34162080 -37859456 -42248868 -47508048 -54019136 -62475996 
3853.481 -73789704 -88292400 -103183488 -110365832 -104274256 -90274064 
3853.843 -75994264 -64312288 -55287196 -48329508 -42908480 -38717476 
3854.205 -35580420 -33366964 -31968452 -31244766 -31030602 -31147320 
3854.566 -31455372 -31888750 -32482282 -33369418 -34766456 -36928320 
3854.928 -40098412 -44449272 -50017180 -56706844 -64205952 -72079728 
3855.290 -79915208 -87532848 -95274176 -104299744 -117211496 -138663968 
3855.652 -176404192 -238707120 -309133632 -311811008 -240989440 -175705808 
3856.014 -135231392 -110989192 -95330680 -84019408 -75013256 -67329536 
3856.375 -60483568 -54244864 -48518036 -43297896 -38596496 -34458848 
3856.737 -30936440 -28050208 -25806182 -24174960 -23091408 -22454910 
3857.099 -22137004 -22000012 -21903838 -21741150 -21448300 -21009232 
3857.461 -20450824 -19828420 -19212320 -18669178 -18262402 -18049046 
3857.823 -18073140 -18367100 -18939328 -19765390 -20779696 -21890732 
3858.185 -23007890 -24070116 -25085218 -26139604 -27393816 -29037126 
3858.546 -31236626 -34035748 -37263896 -40437768 -42845948 -43841332 
3858.908 -43117496 -40865444 -37598184 -33911412 -30268886 -26967170 
3859.270 -24167816 -21914330 -20194360 -18960928 -18152878 -17704104 
3859.632 -17546550 -17613274 -17828432 -18115092 -18403022 -18635788 
3859.994 -18787744 -18865954 -18906718 -18954934 -19046116 -19189148 
3860.355 -19361254 -19515746 -19603008 -19595724 -19499558 -19353648 
3860.717 -19210578 -19115022 -19076338 -19062132 -19005968 -18839652 
3861.079 -18520802 -18057500 -17507566 -16966524 -16534673 -16278055 
3861.441 -16212497 -16296405 -16452596 -16588351 -16632712 -16553905 
3861.803 -16362909 -16103508 -15833793 -15609206 -15464735 -15415044 
3862.165 -15458085 -15584880 -15785772 -16053986 -16384032 -16766464 
3862.526 -17185316 -17622344 -18065288 -18524644 -19049128 -19741202 
3862.888 -20748614 -22264224 -24508762 -27702956 -32002744 -37340492 
3863.250 -43217064 -48367776 -51052872 -50182304 -46286260 -41012232 
3863.612 -35828292 -31497992 -28156768 -25669376 -23825222 -22432694 
3863.974 -21354274 -20510436 -19862798 -19382930 -19031750 -18757026 
3864.335 -18503784 -18246388 -18007916 -17868978 -17939724 -18324060 
3864.697 -19075102 -20158492 -21440856 -22711362 -23759694 -24423260 
3865.059 -24647218 -24483550 -24064318 -23555114 -23115412 -22900846 
3865.421 -23041670 -23644740 -24785068 -26481126 -28662746 -31130604 
3865.783 -33579580 -35619372 -36916512 -37351588 -37091440 -36525320 
3866.145 -36089324 -36187096 -37109724 -39081776 -42314192 -47055476 
3866.506 -53511140 -61455460 -69565952 -74816200 -74193712 -67950464 
3866.868 -59168132 -50546292 -43164748 -37174424 -32390986 -28602506 
3867.230 -25675966 -23514940 -22046718 -21192580 -20846620 -20867276 
3867.592 -21082814 -21326168 -21444956 -21343044 -21002226 -20481262 
3867.954 -19893150 -19359068 -18978470 -18788568 -18759406 -18803640 
3868.315 -18817728 -18718468 -18478030 -18132094 -17761264 -17452028 
3868.677 -17251460 -17149644 -17083038 -16971782 -16757889 -16445067 
3869.039 -16101625 -15841397 -15768487 -15933555 -16302628 -16768951 
3869.401 -17186016 -17426024 -17434586 -17244740 -16968564 -16747529 
3869.763 -16715519 -16943964 -17431052 -18114076 -18907416 -19737054 
3870.125 -20562740 -21389698 -22260290 -23243510 -24422194 -25897436 
3870.486 -27787006 -30219994 -33272784 -36836160 -40442960 -43213704 
3870.848 -44335716 -43676896 -41835552 -39582992 -37496896 -35900932 
3871.210 -34920792 -34602524 -34985176 -36112984 -38078716 -41056032 
3871.572 -45267244 -50617484 -55976456 -59019344 -58249524 -54661560 
3871.934 -50042896 -45426668 -41141516 -37261376 -33819896 -30846178 
3872.295 -28399882 -26519842 -25196728 -24384356 -24005692 -23986002 
3872.657 -24270788 -24831664 -25641608 -26630952 -27667236 -28541234 
3873.019 -29006878 -28882390 -28114004 -26820510 -25232026 -23615462 
3873.381 -22169968 -20985462 -20060012 -19328866 -18714978 -18163268 
3873.743 -17663130 -17242162 -16944250 -16798534 -16803920 -16925386 
3874.104 -17110466 -17303552 -17465206 -17578084 -17640830 -17658804 
3874.466 -17636310 -17577446 -17492512 -17409312 -17382826 -17487836 
3874.828 -17816954 -18466630 -19520146 -21043516 -23070670 -25594006 
3875.190 -28525100 -31680602 -34788208 -37521208 -39637888 -41093532 
3875.552 -42098440 -43027060 -44332724 -46417828 -49495788 -53394536 
3875.914 -57303992 -59852504 -59644112 -56365536 -50973152 -44852672 
3876.275 -38989432 -33822564 -29464594 -25863348 -22953772 -20700882 
3876.637 -19085502 -18087632 -17647286 -17650404 -17923890 -18269454 
3876.999 -18518514 -18558424 -18375518 -18046980 -17712946 -17511352 
3877.361 -17532548 -17786708 -18204736 -18662132 -19023918 -19195172 
3877.723 -19134268 -18857768 -18416806 -17876292 -17292568 -16707228 
3878.084 -16156537 -15676422 -15306335 -15087523 -15045726 -15183137 
3878.446 -15469627 -15853377 -16271353 -16671678 -17028082 -17338384 
3878.808 -17615758 -17871268 -18100696 -18278794 -18366402 -18322822 
3879.170 -18125578 -17778756 -17319504 -16808002 -16323723 -15950546 
3879.532 -15755706 -15783824 -16038114 -16477766 -17012662 -17523128 
3879.894 -17886022 -17997710 -17815076 -17367388 -16755817 -16117940 
3880.255 -15601854 -15326966 -15352776 -15678788 -16248534 -16977008 
3880.617 -17760756 -18501400 -19115974 -19536494 -19729868 -19712706 
3880.979 -19571336 -19453270 -19561326 -20118286 -21310458 -23275292 
3881.341 -26079668 -29754720 -34304780 -39761116 -46197552 -53580296 
3881.703 -61483932 -68620776 -72764952 -72118848 -67003520 -59580016 
3882.064 -51981732 -45468564 -40533756 -37235708 -35521832 -35228812 
3882.426 -36076820 -37579436 -39057820 -39782188 -39206004 -37281900 
3882.788 -34427936 -31266286 -28289254 -25771304 -23776696 -22236806 
3883.150 -21038782 -20077634 -19289284 -18649976 -18163776 -17837082 
3883.512 -17658422 -17593452 -17592594 -17605574 -17601152 -17571084 
3883.874 -17525834 -17479464 -17435158 -17375472 -17270056 -17090684 
3884.235 -16839940 -16569629 -16395902 -16478021 -16990422 -18090526 
3884.597 -19859950 -22252640 -25029796 -27784644 -29988780 -31191420 
3884.959 -31224046 -30252662 -28681324 -26946460 -25415820 -24291782 
3885.321 -23624846 -23355178 -23356560 -23480068 -23587660 -23588066 
3885.683 -23431660 -23105326 -22615254 -21976890 -21214860 -20368630 
3886.044 -19503486 -18703646 -18053814 -17625112 -17448336 -17514694 
3886.406 -17784608 -18214744 -18775590 -19467178 -20320066 -21390296 
3886.768 -22753090 -24505754 -26781478 -29774954 -33775052 -39143608 
3887.130 -46224572 -55021640 -64599296 -72902848 -77772040 -78548672 
3887.492 -76095640 -71682368 -66202276 -60186528 -54008248 -48001720 
3887.854 -42437228 -37501696 -33273124 -29751472 -26913108 -24705412 
3888.215 -23064388 -21909194 -21136376 -20624644 -20251256 -19922680 
3888.577 -19582612 -19219168 -18851074 -18509498 -18216078 -17971516 
3888.939 -17755380 -17538594 -17297344 -17024800 -16734138 -16452085 
3889.301 -16206177 -16010333 -15860565 -15736980 -15617037 -15485871 
3889.663 -15346284 -15216155 -15120229 -15072961 -15068129 -15074338 
3890.024 -15048222 -14950274 -14765329 -14514457 -14256097 -14071594 
3890.386 -14034511 -14195492 -14561496 -15097284 -15731260 -16379757 
3890.748 -16966302 -17428314 -17730632 -17860552 -17824458 -17642196 
3891.110 -17347520 -16985134 -16604200 -16257981 -15991619 -15833633 
3891.472 -15793920 -15861459 -16010204 -16199792 -16383842 -16512856 
3891.833 -16539233 -16433040 -16197398 -15887909 -15613202 -15541884 
3892.195 -15873471 -16788236 -18427444 -20861054 -24107228 -28146954 
3892.557 -32986842 -38684164 -45265844 -52583612 -59844972 -65087452 
3892.919 -65794884 -61274508 -53872436 -46509588 -40704820 -36654000 
3893.281 -34017216 -32379300 -31346600 -30577408 -29771738 -28722700 
3893.643 -27339030 -25664970 -23846738 -22079786 -20542230 -19338850 
3894.004 -18506132 -18011412 -17795644 -17768610 -17847036 -17960930 
3894.366 -18052194 -18084168 -18042786 -17941154 -17814728 -17714888 
3894.728 -17690870 -17769500 -17946178 -18181730 -18420934 -18609440 
3895.090 -18724370 -18789552 -18879056 -19094920 -19537222 -20277250 
3895.452 -21325002 -22614908 -23996192 -25269166 -26209236 -26633604 
3895.813 -26459708 -25718252 -24541328 -23106458 -21606964 -20197270 
3896.175 -18971872 -17966652 -17158944 -16490526 -15893500 -15322488 
3896.537 -14769332 -14266582 -13868655 -13631362 -13585249 -13725273 
3896.899 -14013850 -14398662 -14832162 -15277961 -15714515 -16123783 
3897.261 -16478946 -16743893 -16878664 -16854666 -16672570 -16369577 
3897.623 -16014772 -15684668 -15448363 -15343278 -15368544 -15490123 
3897.984 -15656415 -15815167 -15921097 -15947832 -15885897 -15744969 
3898.346 -15551826 -15352425 -15206717 -15173314 -15299746 -15601758 
3898.708 -16057977 -16609335 -17178818 -17694368 -18104286 -18393208 
3899.070 -18578266 -18698124 -18792946 -18897486 -19038094 -19236064 
3899.432 -19517836 -19913818 -20448864 -21126812 -21914014 -22738092 
3899.793 -23495574 -24087388 -24446124 -24554886 -24450320 -24214196 
3900.155 -23961202 -23815248 -23915482 -24409884 -25445880 -27183844 
3900.517 -29791506 -33459588 -38383472 -44754940 -52648808 -61609828 
3900.879 -70103936 -75191696 -74161592 -67457864 -58360364 -49759396 
3901.241 -42728852 -37271136 -33039014 -29695034 -27016616 -24864084 
3901.603 -23144124 -21781142 -20695100 -19804964 -19041710 -18368690 
3901.964 -17783432 -17309378 -16972674 -16785750 -16736114 -16794200 
3902.326 -16925322 -17109286 -17345292 -17647988 -18030992 -18495052 
3902.688 -19023506 -19594426 -20199294 -20864370 -21662920 -22724884 
3903.050 -24238262 -26451228 -29668112 -34184864 -40101556 -46868392 
3903.412 -53033988 -56895320 -57825176 -56509012 -53986304 -50934756 
3903.773 -47603200 -44042060 -40284384 -36430364 -32663126 -29189142 
3904.135 -26163002 -23680542 -21760406 -20367682 -19439014 -18890350 
3904.497 -18626074 -18542326 -18550328 -18586236 -18631978 -18718278 
3904.859 -18920294 -19333272 -20037866 -21080542 -22454846 -24111400 
3905.221 -25971442 -27968446 -30078016 -32337904 -34877868 -37929720 
3905.583 -41824176 -46928444 -53335992 -60145448 -64958996 -65217236 
3905.944 -61035704 -54760300 -48413720 -42809772 -38060812 -34080816 
3906.306 -30753920 -28016846 -25855262 -24260416 -23225888 -22723060 
3906.668 -22696582 -23056344 -23673230 -24387520 -24999892 -25326214 
3907.030 -25253192 -24789574 -24085258 -23403060 -23069068 -23371978 
3907.392 -24521568 -26570398 -29366034 -32463436 -35160488 -36730308 
3907.753 -36697244 -35122260 -32502082 -29486326 -26570804 -24024942 
3908.115 -21949328 -20334168 -19135600 -18306050 -17802196 -17574616 
3908.477 -17556988 -17669556 -17818892 -17924272 -17937084 -17848944 
3908.839 -17691856 -17519914 -17390658 -17340072 -17376142 -17480324 
3909.201 -17620434 -17759418 -17864178 -17911206 -17882748 -17769216 
3909.562 -17571912 -17308520 -17014510 -16738059 -16529983 -16421331 
3909.924 -16411567 -16462263 -16512409 -16496364 -16371684 -16139522 
3910.286 -15850054 -15588589 -15442001 -15478676 -15719213 -16133009 
3910.648 -16645467 -17166810 -17619290 -17957018 -18178966 -18319328 
3911.010 -18428904 -18546550 -18684382 -18817284 -18893966 -18851676 
3911.372 -18645278 -18266244 -17752422 -17180156 -16643999 -16236754 
3911.733 -16016752 -15998645 -16153058 -16423181 -16740227 -17038884 
3912.095 -17271712 -17400558 -17398742 -17248020 -16942466 -16498948 
3912.457 -15965909 -15430201 -14997843 -14769140 -14807793 -15111173 
3912.819 -15604060 -16153697 -16619796 -16882522 -16886346 -16651493 
3913.181 -16261300 -15825614 -15438003 -15156260 -14986703 -14900011 
3913.542 -14853040 -14816760 -14788290 -14791397 -14859892 -15022457 
3913.904 -15286246 -15632827 -16023841 -16416162 -16779502 -17105750 
3914.266 -17411700 -17729584 -18095738 -18530740 -19027786 -19546282 
3914.628 -20020620 -20369674 -20517706 -20419624 -20072194 -19524424 
3914.990 -18863732 -18206610 -17662206 -17305304 -17167320 -17229168 
3915.352 -17434268 -17702546 -17956160 -18128408 -18174042 -18074824 
3915.713 -17837784 -17495696 -17101226 -16725913 -16440984 -16295608 
3916.075 -16300842 -16417501 -16564941 -16637398 -16547972 -16252968 
3916.437 -15772289 -15179713 -14582130 -14082468 -13747488 -13608434 
3916.799 -13666264 -13913775 -14346381 -14969257 -15776891 -16726965 
3917.161 -17728852 -18645406 -19321230 -19649468 -19615232 -19329154 
3917.522 -18990776 -18855008 -19144256 -19976132 -21314150 -22936582 
3917.884 -24478948 -25510622 -25735302 -25103264 -23822744 -22233816 
3918.246 -20696080 -19503834 -18840192 -18824676 -19528668 -21008128 
3918.608 -23307386 -26435142 -30297068 -34490832 -38204572 -40350728 
3918.970 -40174536 -37900936 -34529180 -31089706 -28144190 -25868372 
3919.332 -24201694 -22989130 -22062812 -21280044 -20548962 -19829592 
3919.693 -19132174 -18490700 -17938294 -17480610 -17087688 -16697122 
3920.055 -16242692 -15676262 -14997170 -14258310 -13562736 -13032028 
3920.417 -12763230 -12804186 -13130860 -13660965 -14276361 -14874365 
3920.779 -15396336 -15838873 -16241224 -16658062 -17130596 -17672482 
3921.141 -18285496 -18988966 -19849186 -21000300 -22627834 -24918462 
3921.502 -27965338 -31623888 -35364136 -38228056 -39253108 -38030364 
3921.864 -35006972 -31112406 -27260806 -24038234 -21665158 -20150394 
3922.226 -19354918 -19076338 -19087626 -19194792 -19265066 -19228424 
3922.588 -19075102 -18829340 -18529978 -18213726 -17913398 -17655272 
3922.950 -17454128 -17312308 -17215728 -17139292 -17050446 -16922836 
3923.312 -16741917 -16504338 -16211474 -15858648 -15428026 -14894600 
3923.673 -14237019 -13456486 -12587779 -11703076 -10898390 -10264369 
3924.035 -9875647 -9769657 -9947350 -10380170 -11022971 -11826330 -12738519 
3924.457 -13715128 -14716838 -15711192 -16679553 -17616872 -18530486 
3924.819 -19431886 -20324112 -21188794 -21983128 -22642930 -23104886 
3925.181 -23330122 -23318252 -23107556 -22759850 -22344266 -21918960 
3925.543 -21537728 -21258340 -21140446 -21246980 -21616612 -22235924 
3925.905 -23009902 -23770236 -24323708 -24514522 -24314150 -23843570 
3926.266 -23354048 -23130240 -23437784 -24458560 -26246384 -28682410 
3926.628 -31429392 -33973064 -35685296 -36118076 -35229668 -33385556 
3926.990 -31103616 -28801870 -26712874 -24886298 -23273846 -21790344 
3927.352 -20358956 -18936854 -17531974 -16199537 -15039069 -14167206 
3927.714 -13686138 -13663631 -14099725 -14919220 -15967920 -17054684 
3928.075 -17984836 -18598488 -18814936 -18632424 -18123036 -17398742 
3928.437 -16594570 -15833601 -15204062 -14761517 -14520993 -14463374 
3928.799 -14540893 -14690893 -14849902 -14970537 -15042461 -15099364 
3929.161 -15216603 -15481330 -15970284 -16711980 -17670096 -18736558 
3929.523 -19757730 -20576708 -21057026 -21127634 -20791444 -20121228 
3929.885 -19230644 -18247976 -17289828 -16435497 -15734041 -15209628 
3930.246 -14872988 -14734293 -14807313 -15107460 -15646921 -16425638 
3930.608 -17424210 -18590458 -19842160 -21060910 -22097296 -22808582 
3930.970 -23085502 -22895438 -22296520 -21425748 -20453542 -19529206 
3931.332 -18768132 -18232440 -17940232 -17881698 -18029402 -18350522 
3931.694 -18813000 -19394020 -20074408 -20830418 -21621878 -22371772 
3932.055 -22961724 -23256950 -23135328 -22554860 -21584582 -20403658 
3932.417 -19232546 -18263608 -17618334 -17313742 -17276042 -17367418 
3932.779 -17444358 -17390338 -17156746 -16770195 -16318778 -15920555 
3933.141 -15686553 -15712375 -16063213 -16781894 -17896960 -19418830 
3933.503 -21319828 -23495070 -25760376 -27853356 -29522886 -30649016 
3933.865 -31302914 -31700868 -32052390 -32436404 -32706670 -32544632 
3934.226 -31597704 -29738228 -27167162 -24348268 -21777046 -19845672 
3934.588 -18757248 -18501910 -18897550 -19630372 -20361264 -20785602 
3934.950 -20742170 -20239492 -19426594 -18516102 -17708556 -17152988 
3935.312 -16915092 -17000078 -17375824 -17998442 -18811414 -19736832 
3935.674 -20671310 -21478700 -22024672 -22218704 -22033176 -21507300 
3936.035 -20719046 -19764852 -18731798 -17698440 -16741216 -15927486 
3936.397 -15320345 -14964583 -14870042 -15002260 -15281832 -15607161 
3936.759 -15871586 -16004488 -15991107 -15874526 -15735989 -15664501 
3937.121 -15731515 -15962971 -16339360 -16799650 -17265884 -17653236 
3937.483 -17888470 -17923128 -17734068 -17332050 -16760981 -16098879 
3937.844 -15442257 -14888325 -14523108 -14397317 -14524070 -14879648 
3938.206 -15417634 -16078092 -16801148 -17536272 -18234474 -18848314 
3938.568 -19333748 -19648614 -19766816 -19687088 -19437618 -19071232 
3938.930 -18655784 -18264212 -17955334 -17772524 -17739030 -17856512 
3939.292 -18108990 -18462852 -18875090 -19291914 -19662832 -19951068 
3939.654 -20139006 -20234874 -20266056 -20268998 -20269472 -20274024 
3940.015 -20265234 -20211662 -20078868 -19845230 -19510548 -19098154 
3940.377 -18650326 -18219764 -17867388 -17648464 -17603286 -17748476 
3940.739 -18065608 -18498386 -18954744 -19333302 -19538234 -19507128 
3941.101 -19228456 -18738684 -18109436 -17418448 -16736943 -16111042 
3941.463 -15564742 -15113221 -14773623 -14571236 -14533811 -14674428 
3941.824 -14975308 -15378458 -15802931 -16158549 -16381798 -16458433 
3942.186 -16424170 -16347816 -16296949 -16313447 -16392615 -16491866 
3942.548 -16550045 -16521785 -16396126 -16205091 -16007714 -15873374 
3942.910 -15853409 -15963800 -16183991 -16463952 -16745105 -16969902 
3943.272 -17100368 -17121614 -17042580 -16890618 -16707676 -16546154 
3943.634 -16458530 -16501626 -16736817 -17228914 -18060076 -19328074 
3943.995 -21141014 -23594438 -26718670 -30399990 -34257748 -37657704 
3944.357 -39856408 -40325692 -39047068 -36467532 -33230924 -29874194 
3944.719 -26759950 -24058612 -21801626 -19962334 -18492668 -17354588 
3945.081 -16533045 -16026331 -15826860 -15898898 -16174797 -16557956 
3945.443 -16947342 -17274004 -17512436 -17686512 -17847608 -18050446 
3945.804 -18319200 -18631280 -18915124 -19075892 -19032006 -18745538 
3946.166 -18244388 -17616298 -16990996 -16496267 -16241893 -16290503 
3946.528 -16640779 -17223342 -17906150 -18526358 -18907512 -18917568 
3946.890 -18502068 -17704040 -16656626 -15556846 -14630380 -14057254 
3947.252 -13944772 -14293418 -15005716 -15903434 -16778036 -17450978 
3947.614 -17792210 -17755984 -17375824 -16750621 -16007714 -15273803 
3947.975 -14654662 -14211558 -13965596 -13905464 -14003873 -14231343 
3948.337 -14568834 -15011254 -15562440 -16228009 -17005908 -17879664 
3948.699 -18818362 -19778750 -20701008 -21516414 -22143300 -22492822 
3949.061 -22495810 -22128248 -21439278 -20543020 -19600316 -18773304 
3949.423 -18187196 -17930028 -18029434 -18448024 -19069806 -19718532 
3949.784 -20189364 -20307954 -20006920 -19341480 -18463456 -17544672 
3950.146 -16732736 -16104465 -15658205 -15331283 -15032059 -14683654 
3950.508 -14254366 -13778529 -13345390 -13071544 -13045501 -13299536 
3950.870 -13791465 -14428151 -15096772 -15719404 -16292002 -16893868 
3951.232 -17665324 -18752076 -20254766 -22158602 -24295854 -26323636 
3951.594 -27832848 -28483394 -28164812 -27041026 -25461222 -23802294 
3951.955 -22330544 -21194316 -20420540 -19957080 -19710266 -19578842 
3952.317 -19475068 -19323512 -19069108 -18669718 -18099104 -17358378 
3952.679 -16486347 -15565893 -14703673 -14017123 -13593694 -13461690 
3953.041 -13582005 -13856812 -14167271 -14401259 -14498626 -14462381 
3953.403 -14352632 -14254558 -14248851 -14380776 -14645308 -14991953 
3953.764 -15345165 -15636662 -15821557 -15894139 -15883405 -15843442 
3954.126 -15831141 -15891295 -16049674 -16308215 -16649898 -17041144 
3954.488 -17440728 -17796822 -18052034 -18155516 -18069866 -17788044 
3954.850 -17338320 -16784794 -16208379 -15685754 -15275435 -15000051 
3955.212 -14848077 -14782078 -14757129 -14735703 -14699252 -14650274 
3955.573 -14602764 -14567616 -14539676 -14493531 -14391290 -14200655 
3955.935 -13910277 -13542632 -13151113 -12809526 -12584110 -12518120 
3956.297 -12619708 -12865372 -13210161 -13607631 -14026073 -14451996 
3956.659 -14887268 -15338320 -15803505 -16264969 -16691638 -17043534 
3957.021 -17287538 -17407116 -17406924 -17310462 -17156110 -16987332 
3957.383 -16841182 -16744914 -16707834 -16720587 -16755020 -16772490 
3957.744 -16734743 -16613353 -16404741 -16134445 -15858360 -15645804 
3958.106 -15569249 -15683612 -16009726 -16528707 -17182226 -17888914 
3958.468 -18553060 -19093270 -19460494 -19640508 -19650766 -19522682 
3958.830 -19286652 -18957598 -18536422 -18019200 -17412432 -16748995 
3959.192 -16096547 -15544026 -15193664 -15124389 -15366754 -15889699 
3959.553 -16603786 -17383846 -18089920 -18616932 -18912176 -18985162 
3959.915 -18892570 -18711010 -18504036 -18299252 -18089984 -17850598 
3960.277 -17561378 -17225570 -16875382 -16560284 -16329596 -16208379 
3960.639 -16189419 -16237298 -16311055 -16382853 -16457412 -16569119 
3961.001 -16771661 -17108394 -17587472 -18168194 -18764230 -19271406 
3961.363 -19588946 -19660362 -19484414 -19115244 -18635882 -18136640 
3961.724 -17689884 -17330776 -17060802 -16856132 -16686058 -16526857 
3962.086 -16374078 -16242372 -16159538 -16150663 -16226223 -16372865 
3962.448 -16553173 -16715264 -16805484 -16791680 -16674643 -16499745 
3962.810 -16344849 -16313894 -16506730 -16990806 -17785850 -18847424 
3963.172 -20072476 -21303422 -22372148 -23132344 -23490364 -23432632 
3963.533 -23017664 -22356320 -21564972 -20743116 -19945752 -19181728 
3963.895 -18429508 -17661348 -16864928 -16052771 -15260368 -14536471 
3964.257 -13933285 -13489411 -13228834 -13159342 -13276688 -13569288 
3964.619 -14018213 -14596612 -15261360 -15955338 -16616352 -17184678 
3964.981 -17623522 -17925256 -18110768 -18214554 -18268564 -18288832 
3965.343 -18269454 -18190214 -18033504 -17798984 -17512214 -17220696 
3965.704 -16977072 -16826840 -16793178 -16874904 -17052232 -17296644 
3966.066 -17578244 -17865194 -18125516 -18322314 -18418998 -18393240 
3966.428 -18248008 -18020756 -17772682 -17572898 -17464124 -17438692 
3966.790 -17431498 -17340612 -17063828 -16537065 -15770884 -14854193 
3967.152 -13937713 -13176153 -12698265 -12566020 -12768152 -13235937 
3967.513 -13874592 -14597349 -15332786 -16034922 -16674357 -17224900 
3967.875 -17664466 -17976540 -18158122 -18223100 -18199302 -18117000 
3968.237 -17993134 -17827892 -17605322 -17310430 -16944060 -16535917 
3968.599 -16139522 -15820822 -15629087 -15580022 -15647594 -15778041 
3968.961 -15907522 -15989862 -16012920 -15999092 -15991395 -16029589 
3969.323 -16134605 -16298896 -16493173 -16680000 -16832066 -16942402 
3969.684 -17023974 -17099028 -17184518 -17278876 -17357166 -17373978 
3970.046 -17277826 -17033180 -16634051 -16117046 -15555918 -15056159 
3970.408 -14725550 -14649473 -14873340 -15384343 -16109543 -16922996 
3970.770 -17685272 -18268310 -18593186 -18648896 -18482858 -18178998 
3971.132 -17823378 -17491112 -17225920 -17039042 -16911426 -16800734 
3971.493 -16652195 -16408760 -16031122 -15510266 -14879712 -14210404 
3971.855 -13607278 -13181586 -13015500 -13148091 -13556088 -14165828 
3972.217 -14866136 -15544729 -16110150 -16499108 -16683666 -16659210 
3972.579 -16438590 -16047982 -15535491 -14976843 -14466739 -14113036 
3972.941 -14003520 -14175192 -14600970 -15193631 -15837627 -16419480 
3973.302 -16874586 -17197130 -17432390 -17642260 -17875528 -18140326 
3973.664 -18404768 -18615758 -18733638 -18758042 -18732780 -18725290 
3974.026 -18791360 -18951952 -19182300 -19425896 -19620872 -19732084 
3974.388 -19760800 -19738320 -19698456 -19652444 -19572730 -19405174 
3974.750 -19089656 -18598742 -17958990 -17258560 -16622027 -16175851 
3975.112 -16022405 -16207485 -16721034 -17501966 -18461264 -19488628 
3975.473 -20466122 -21286892 -21852892 -22095532 -21990216 -21562512 
3975.835 -20886222 -20064664 -19213906 -18424904 -17749622 -17195792 
3976.197 -16734775 -16321361 -15916051 -15504063 -15097284 -14727696 
3976.559 -14429882 -14228361 -14125770 -14104536 -14133756 -14186609 
3976.921 -14251801 -14340835 -14484109 -14722186 -15089219 -15596260 
3977.282 -16220892 -16903428 -17561538 -18100568 -18445356 -18561822 
3977.644 -18466982 -18224244 -17922332 -17651422 -17466542 -17376268 
3978.006 -17342364 -17303458 -17197418 -16988510 -16680222 -16310863 
3978.368 -15938058 -15614256 -15373469 -15216923 -15117060 -15023801 
3978.730 -14884419 -14656168 -14316918 -13872217 -13354516 -12817215 
3979.092 -12318738 -11916958 -11652951 -11544878 -11590691 -11773381 
3979.453 -12072925 -12470794 -12953565 -13504764 -14093567 -14670776 
3979.815 -15168674 -15516084 -15667921 -15622376 -15435574 -15203326 
3980.177 -15042621 -15044030 -15240502 -15596932 -16025726 -16421521 
3980.539 -16695591 -16811188 -16785750 -16677130 -16549982 -16454574 
3980.901 -16413450 -16425222 -16481403 -16580632 -16732894 -16948902 
3981.262 -17222990 -17521440 -17780092 -17929804 -17919312 -17739380 
3981.624 -17427742 -17054972 -16694793 -16390923 -16148429 -15936652 
3981.986 -15718829 -15475447 -15225017 -15016119 -14908207 -14934267 
3982.348 -15080387 -15279401 -15438515 -15471578 -15335857 -15051967 
3982.710 -14697716 -14379783 -14188757 -14180452 -14356959 -14678047 
3983.072 -15080131 -15504766 -15913751 -16292704 -16645944 -16984878 
3983.433 -17317784 -17645188 -17959244 -18245974 -18488478 -18664512 
3983.795 -18747728 -18710884 -18528644 -18189928 -17705440 -17114224 
3984.157 -16478021 -15873535 -15380345 -15056224 -14930137 -14992145 
3984.519 -15198782 -15481043 -15766313 -16003435 -16172595 -16297076 
3984.881 -16430806 -16645467 -16996446 -17501902 -18126722 -18791298 
3985.242 -19387272 -19809110 -19994262 -19934738 -19681926 -19321672 
3985.604 -18953952 -18656832 -18467362 -18383266 -18370564 -18382760 
3985.966 -18373136 -18308274 -18168766 -17947928 -17651900 -17302660 
3986.328 -16941224 -16621230 -16407229 -16353624 -16484752 -16782914 
3986.690 -17186240 -17605830 -17944748 -18135366 -18153926 -18025652 
3987.052 -17807858 -17569364 -17366368 -17223342 -17133684 -17065962 
3987.413 -16982042 -16847048 -16642755 -16373023 -16063660 -15755769 
3987.775 -15497669 -15334866 -15292932 -15370751 -15536417 -15740624 
3988.137 -15933363 -16089715 -16227785 -16410675 -16725658 -17242798 
3988.499 -17980800 -18878010 -19798918 -20556262 -20983630 -20978736 
3988.861 -20540620 -19764694 -18810144 -17844302 -16981404 -16272565 
3989.222 -15705727 -15243797 -14859540 -14561368 -14388758 -14386803 
3989.584 -14568257 -14891366 -15257041 -15548502 -15666483 -15574556 
3989.946 -15312380 -14986447 -14728048 -14638966 -14768018 -15093028 
3990.308 -15541436 -16015347 -16433358 -16747145 -16942530 -17028432 
3990.670 -17018876 -16920796 -16732449 -16453106 -16095430 -15690068 
3991.031 -15287302 -14943391 -14702872 -14591582 -14609107 -14734646 
3991.393 -14932923 -15166467 -15396751 -15585775 -15700327 -15714131 
3991.755 -15616142 -15418913 -15162659 -14909360 -14722250 -14653478 
3992.117 -14721386 -14906766 -15157571 -15413317 -15625572 -15776124 
3992.479 -15881777 -15979994 -16107053 -16274001 -16457636 -16605796 
3992.841 -16660964 -16579548 -16357835 -16035432 -15691347 -15413188 
3993.202 -15270860 -15294627 -15462497 -15706623 -15930489 -16045587 
3993.564 -15988169 -15742892 -15342670 -14863991 -14403118 -14047888 
3993.926 -13866954 -13887750 -14099276 -14458919 -14911985 -15404522 
3994.288 -15894394 -16357964 -16782564 -17160090 -17479814 -17724526 
3994.650 -17876036 -17921600 -17861728 -17714602 -17511734 -17294828 
3995.011 -17102500 -16965728 -16906074 -16935584 -17059016 -17272220 
3995.373 -17557688 -17877024 -18169528 -18365640 -18397558 -18229010 
3995.735 -17871426 -17390212 -16884752 -16457062 -16180927 -16070047 
3996.097 -16079275 -16122729 -16121419 -16033420 -15882447 -15747940 
3996.459 -15741423 -15952047 -16401932 -17021838 -17664690 -18153734 
3996.821 -18331272 -18124276 -17558196 -16747337 -15845934 -15019224 
3997.182 -14401964 -14068899 -14038264 -14269949 -14686151 -15182209 
3997.544 -15657533 -16036807 -16283225 -16410930 -16478276 -16572500 
3997.906 -16772458 -17123810 -17613626 -18171816 -18680066 -19010344 
3998.268 -19068696 -18817030 -18290800 -17582666 -16824896 -16144535 
3998.630 -15637910 -15357670 -15300289 -15413444 -15604219 -15766347 
3998.991 -15791653 -15600416 -15165730 -14525960 -13785046 -13084277 
3999.353 -12580183 -12388106 -12552275 -13031996 -13717954 -14462285 
3999.715 -15118533 -15591721 -15847212 -15911195 -15843473 -15715729 
4000.077 -15586670 -15492328 -15455143 -15489515 -15607544 -15817564 
4000.439 -16114300 -16472789 -16847016 -17186334 -17449004 -17621738 
4000.801 -17722204 -17791860 -17873018 -17984488 -18111470 -18206864 
4001.162 -18213250 -18084898 -17813964 -17435604 -17023654 -16660199 
4001.524 -16416959 -16334988 -16414663 -16621804 
##END=
