%nprocshared=16
%mem=16GB
%chk=FEL_Cl_COO_Conformer_DFT_wB97XD_G631pd_Opt_VeryTight_Freq_Raman_Pol.chk
#p opt=verytight freq=raman wb97xd/6-31+g(d) geom=connectivity polar
int=ultrafine scf=verytight

Felodipine

0 1
 C                 -0.61467999    1.77608369   -0.76128011
 C                  0.44864300    0.85717600   -0.77399200
 C                  1.74690069    1.38533523   -0.80832768
 C                  1.96303568    2.76491046   -0.82878087
 C                  0.89807059    3.65604878   -0.81576876
 C                 -0.40121001    3.15014823   -0.78166184
 H                 -1.61924510    1.38520089   -0.73451072
 H                  1.08869248    4.71819852   -0.83206113
 H                 -1.24137652    3.83008639   -0.77109856
 C                  0.08366900   -0.64795200   -0.74884400
 C                 -0.61699707   -1.07678344    0.54051006
 C                 -0.67154389   -1.10570445   -1.99712245
 C                 -1.92069296   -1.47560675    0.53747410
 C                 -1.97337701   -1.50363077   -1.92842394
 C                  0.14537662   -1.12425443   -3.20698491
 O                  1.36886212   -0.89750366   -3.21496703
 O                 -0.52710575   -1.42848639   -4.38126700
 C                  0.24871003   -1.06768135    1.71437741
 O                  1.46993941   -0.83643915    1.67402480
 O                 -0.37800136   -1.35346967    2.91957600
 C                  0.28711195   -1.44737790   -5.61796852
 H                  0.76745124   -0.47556036   -5.72523879
 H                  1.06790587   -2.19851926   -5.50271649
 C                  0.48205919   -1.34657721    4.11023935
 H                 -0.18448625   -1.58049827    4.93295438
 H                  1.26530642   -2.09529944    4.01455833
 H                  0.93588973   -0.36665483    4.24011146
 N                 -2.57687261   -1.60428467   -0.68035440
 H                 -3.55660004   -1.82758241   -0.65684883
 C                 -2.87419004   -1.89548124   -3.07189374
 H                 -2.93682483   -1.09971625   -3.80954613
 H                 -2.49086805   -2.77030649   -3.59364856
 H                 -3.87948067   -2.12007936   -2.71084266
 C                 -2.77061559   -1.84118201    1.72787545
 H                 -2.36621882   -2.70661522    2.24965308
 H                 -2.79817736   -1.03067628    2.45154852
 H                 -3.79152683   -2.06975579    1.41660217
 H                  1.05525932   -1.14126388   -0.76441315
 Cl                 3.20569192    0.28548502   -0.82783282
 Cl                 3.64655136    3.46912344   -0.87347823
 C                 -0.65476332   -1.75926049   -6.76337221
 H                 -0.09994908   -1.78201682   -7.70364159
 H                 -1.13126086   -2.73018609   -6.62594559
 H                 -1.43343793   -1.00089177   -6.84578431

 1 2 1.5 6 1.5 7 1.0
 2 3 1.5 10 1.0
 3 4 1.5 39 1.0
 4 5 1.5 40 1.0
 5 6 1.5 8 1.0
 6 9 1.0
 7
 8
 9
 10 11 1.0 12 1.0 38 1.0
 11 13 2.0 18 1.0
 12 14 2.0 15 1.0
 13 28 1.0 34 1.0
 14 28 1.0 30 1.0
 15 16 2.0 17 1.0
 16
 17 21 1.0
 18 19 2.0 20 1.0
 19
 20 24 1.0
 21 22 1.0 23 1.0 41 1.0
 22
 23
 24 25 1.0 26 1.0 27 1.0
 25
 26
 27
 28 29 1.0
 29
 30 31 1.0 32 1.0 33 1.0
 31
 32
 33
 34 35 1.0 36 1.0 37 1.0
 35
 36
 37
 38
 39
 40
 41 42 1.0 43 1.0 44 1.0
 42
 43
 44

