%nprocshared=16
%mem=16GB
%chk=FEL_DFT_wB97XD_G631pd_Scan_Relaxed_ClRing.chk
#p opt=modredundant wb97xd/6-31+g(d) geom=connectivity

Felodipine

0 1
 C                  0.57261200    1.46691300   -2.03417500
 C                  0.44864300    0.85717600   -0.77399200
 C                  0.66663300    1.66663600    0.34977800
 C                  0.99204900    3.01775400    0.21213700
 C                  1.10972700    3.60093400   -1.04265400
 C                  0.89663800    2.81219000   -2.17301000
 H                  0.40752500    0.85741700   -2.90819900
 H                  1.36214600    4.64699200   -1.12518600
 H                  0.98427300    3.25052900   -3.15712700
 C                  0.08366900   -0.64795200   -0.74884400
 C                  1.18753200   -1.52604900   -0.15918700
 C                 -1.27872100   -0.92699400   -0.11314600
 C                  1.01435800   -2.17917400    1.02492900
 C                 -1.38214100   -1.59691000    1.06937300
 C                 -2.40887500   -0.46657900   -0.91454500
 O                 -2.29301200    0.00978000   -2.05824700
 O                 -3.65740700   -0.60166900   -0.32577800
 C                  2.37404000   -1.62842100   -1.00133600
 O                  2.45954800   -1.14016300   -2.14186000
 O                  3.43563200   -2.33456600   -0.45240300
 C                 -4.81377200   -0.13540400   -1.12462400
 H                 -4.65263000    0.91134700   -1.37959000
 H                 -4.84299700   -0.70753700   -2.05141700
 C                  4.63754100   -2.44444800   -1.28952400
 H                  5.33943700   -3.01393500   -0.69045100
 H                  4.40488700   -2.96074600   -2.21824600
 H                  5.02872300   -1.45530100   -1.51677200
 N                 -0.23237300   -2.13408700    1.63637400
 H                 -0.31881800   -2.55923800    2.54304600
 C                 -2.63502200   -1.87104600    1.86163100
 H                 -3.15735600   -0.94754500    2.09744700
 H                 -3.33320900   -2.48436600    1.29518900
 H                 -2.39650200   -2.38772200    2.79306300
 C                  2.02966100   -3.00441500    1.77406600
 H                  2.34496500   -3.86673000    1.18946400
 H                  2.92728200   -2.42691500    1.97937600
 H                  1.61560700   -3.35914400    2.71964700
 H                  0.00164300   -0.90316400   -1.80512300
 Cl                 0.53278000    0.98151800    2.03821500
 Cl                 1.27900600    4.08562800    1.66452800
 C                 -6.05120000   -0.34228100   -0.27472800
 H                 -6.93601700   -0.00936700   -0.82127200
 H                 -6.18272200   -1.39495400   -0.02330400
 H                 -5.98830000    0.22887100    0.65159700

 1 2 1.5 6 1.5 7 1.0
 2 3 1.5 10 1.0
 3 4 1.5 39 1.0
 4 5 1.5 40 1.0
 5 6 1.5 8 1.0
 6 9 1.0
 7
 8
 9
 10 11 1.0 12 1.0 38 1.0
 11 13 2.0 18 1.0
 12 14 2.0 15 1.0
 13 28 1.0 34 1.0
 14 28 1.0 30 1.0
 15 16 2.0 17 1.0
 16
 17 21 1.0
 18 19 2.0 20 1.0
 19
 20 24 1.0
 21 22 1.0 23 1.0 41 1.0
 22
 23
 24 25 1.0 26 1.0 27 1.0
 25
 26
 27
 28 29 1.0
 29
 30 31 1.0 32 1.0 33 1.0
 31
 32
 33
 34 35 1.0 36 1.0 37 1.0
 35
 36
 37
 38
 39
 40
 41 42 1.0 43 1.0 44 1.0
 42
 43
 44

D 38 10 2 1 S 12 30.000000

