%nprocshared=16
%mem=14GB
%chk=Felodipine_DFT_B3LYP_6311_Relaxed_Scan_Ester_Ethyl.chk
#p opt=modredundant b3lyp/6-311g geom=connectivity

Felodipine

0 1
 C                 -0.69471735    0.53234124    0.07525794
 C                  0.59003370    0.08770392   -0.26479254
 C                  1.53937547    0.99565116   -0.75295642
 C                  1.20396538    2.34823525   -0.90107223
 C                 -0.08078663    2.79287203   -0.56102463
 C                 -1.03012745    1.88492533   -0.07285790
 H                 -1.41956083   -0.16089662    0.44798196
 H                 -0.33688069    3.82559941   -0.67411747
 H                 -2.01106358    2.22441568    0.18677770
 C                  0.95861430   -1.39865330   -0.10203337
 C                  1.98554264   -1.80326759   -1.16639685
 C                  1.49887059   -1.65274545    1.31031376
 C                  2.97250046   -2.69080355   -0.89221298
 C                  2.49574756   -2.54334919    1.53401858
 C                  0.87963883   -0.89764938    2.50110426
 O                 -0.05304535   -0.07516383    2.30826158
 O                  1.36450575   -1.13113214    3.82597782
 C                  1.87847725   -1.20657860   -2.58205897
 O                  0.96103235   -0.38880541   -2.85245201
 O                  2.82161142   -1.58179684   -3.58933709
 C                  0.30356535   -0.93189630    4.76385341
 H                 -0.05591656    0.07301634    4.68754252
 H                 -0.49360579   -1.61302621    4.55059248
 C                  2.99785497   -0.49756241   -4.50491008
 H                  3.70355683   -0.77832015   -5.25860765
 H                  2.06036909   -0.26239637   -4.96394946
 H                  3.36151356    0.35930959   -3.97725225
 N                  3.44855459   -2.94981593    0.48151019
 H                  4.27915298   -2.40840463    0.61181792
 C                  2.65737576   -3.13539619    2.94644792
 H                  2.31354169   -2.42749933    3.67140321
 H                  2.08180393   -4.03401855    3.02451810
 H                  3.68908174   -3.35602799    3.12478568
 C                  3.64113975   -3.43966352   -2.06000162
 H                  2.93340244   -3.57031446   -2.85179593
 H                  4.47493954   -2.87199098   -2.41696913
 H                  3.97965131   -4.39699692   -1.72262542
 H                  0.08658916   -2.00393341   -0.23659984
 Cl                 3.15287672    0.43723645   -1.18002398
 Cl                 2.39622991    3.48851352   -1.51415519
 C                  0.82572978   -1.18333967    6.19064021
 H                  0.03187931   -1.03426111    6.89240728
 H                  1.18521168   -2.18825232    6.26695112
 H                  1.62290091   -0.50220976    6.40390113

 1 2 1.5 6 1.5 7 1.0
 2 3 1.5 10 1.0
 3 4 1.5 39 1.0
 4 5 1.5 40 1.0
 5 6 1.5 8 1.0
 6 9 1.0
 7
 8
 9
 10 11 1.0 12 1.0 38 1.0
 11 13 2.0 18 1.0
 12 14 2.0 15 1.0
 13 28 1.0 34 1.0
 14 28 1.0 30 1.0
 15 16 2.0 17 1.0
 16
 17 21 1.0
 18 19 2.0 20 1.0
 19
 20 24 1.0
 21 22 1.0 23 1.0 41 1.0
 22
 23
 24 25 1.0 26 1.0 27 1.0
 25
 26
 27
 28 29 1.0
 29
 30 31 1.0 32 1.0 33 1.0
 31
 32
 33
 34 35 1.0 36 1.0 37 1.0
 35
 36
 37
 38
 39
 40
 41 42 1.0 43 1.0 44 1.0
 42
 43
 44

D 10 12 15 16 S 11 36.000000

