%nprocshared=16
%mem=16GB
%chk=NIF_NO2_NH_Conformer_DFT_wB97XD_G631pd_Opt_VeryTight_Freq_Raman_Pol.chk
#p opt=verytight freq=raman wb97xd/6-31+g(d) geom=connectivity polar
int=ultrafine scf=verytight

Nifedipine

0 1
 C                 -0.42184700    2.48058400   -0.86989000
 C                 -0.04796700    1.34967900   -0.13344300
 C                  0.52677300    1.60286600    1.11482300
 C                  0.73775800    2.88465100    1.61634400
 C                  0.33014700    3.97995700    0.86690000
 C                 -0.25367100    3.77106300   -0.38164600
 H                 -0.85476100    2.32504400   -1.85546800
 H                  1.21395900    3.00871300    2.58738800
 H                  0.47813300    4.98778700    1.25255700
 H                 -0.56470300    4.62081800   -0.98840300
 C                 -0.21533700   -0.03381400   -0.77932500
 C                  1.01765600   -0.90084200   -0.60023000
 C                 -1.48499800   -0.74363800   -0.33188200
 C                  0.99493200   -2.01015400    0.18183000
 C                 -1.43213900   -1.85690600    0.44228300
 C                 -2.72921700   -0.16282900   -0.85990900
 O                 -2.75461900    0.67775700   -1.73868500
 O                 -3.86439300   -0.63626500   -0.30300100
 C                  2.19533800   -0.41261100   -1.33693600
 O                  2.15147000    0.54025500   -2.09000400
 O                  3.33538900   -1.10040000   -1.12130900
 C                 -5.07256900   -0.08290600   -0.82582300
 H                 -5.88012400   -0.57257100   -0.27461600
 H                 -5.09963500    1.00138800   -0.66566500
 H                 -5.15944400   -0.28791200   -1.89949600
 C                  4.48029900   -0.60575000   -1.81701600
 H                  5.30476500   -1.26232300   -1.52595800
 H                  4.32033500   -0.64459500   -2.90114500
 H                  4.68990100    0.42924900   -1.52246100
 N                 -0.20445400   -2.41819200    0.72395400
 H                 -0.18015100   -3.17861700    1.38352200
 C                 -2.58623200   -2.61159200    1.04327300
 H                 -3.17538300   -1.95885500    1.69422700
 H                 -3.25594300   -2.99066000    0.26430900
 H                 -2.22202000   -3.46229300    1.63253800
 C                  2.15688000   -2.88759000    0.55534100
 H                  2.60369000   -3.34648200   -0.33240000
 H                  2.93387100   -2.29775400    1.05134900
 H                  1.83180100   -3.68407900    1.23597800
 N                  0.95872400    0.52061400    2.01767200
 O                  2.14506700    0.45370100    2.29289100
 O                  0.09669600   -0.20337400    2.48684800
 H                 -0.31589800    0.18178700   -1.84972900

 1 2 1.5 6 1.5 7 1.0
 2 3 1.5 11 1.0
 3 4 1.5 40 1.0
 4 5 1.5 8 1.0
 5 6 1.5 9 1.0
 6 10 1.0
 7
 8
 9
 10
 11 12 1.0 13 1.0 43 1.0
 12 14 2.0 19 1.0
 13 15 2.0 16 1.0
 14 30 1.5 36 1.0
 15 30 1.5 32 1.0
 16 17 2.0 18 1.0
 17
 18 22 1.0
 19 20 2.0 21 1.0
 20
 21 26 1.0
 22 23 1.0 24 1.0 25 1.0
 23
 24
 25
 26 27 1.0 28 1.0 29 1.0
 27
 28
 29
 30 31 1.0
 31
 32 33 1.0 34 1.0 35 1.0
 33
 34
 35
 36 37 1.0 38 1.0 39 1.0
 37
 38
 39
 40 41 2.0 42 2.0
 41
 42
 43

