%nprocshared=16
%mem=16GB
%chk=NIF_NO2_COC_Conformer_DFT_wB97XD_G631pd_Opt_VeryTight_Freq_Raman_Pol.chk
#p opt=verytight freq=raman wb97xd/6-31+g(d) geom=connectivity polar
int=ultrafine scf=verytight

Nifedipine

0 1
 C                 -0.04842900   -0.68893100    2.02211800
 C                  0.22212400   -0.92139300    0.66905800
 C                  0.87537600   -2.12124300    0.36436600
 C                  1.22843700   -3.04476800    1.34659000
 C                  0.91900200   -2.79499600    2.67683600
 C                  0.27984600   -1.60406800    3.01524100
 H                 -0.53867200    0.24385900    2.29968200
 H                  1.74464600   -3.95417800    1.04973700
 H                  1.18086400   -3.52443900    3.44206900
 H                  0.03792700   -1.38700800    4.05552600
 C                 -0.14873200    0.17743900   -0.33268800
 C                 -1.60179800    0.60280800   -0.17866300
 C                  0.79008100    1.36860600   -0.17198000
 C                 -1.93987300    1.76446600    0.42473300
 C                  0.38820200    2.51037200    0.44085100
 C                  2.14603500    1.13658000   -0.69494600
 O                  2.50063500    0.07273200   -1.16010500
 O                  2.97729700    2.19941800   -0.63887700
 C                 -2.58966300   -0.38837600   -0.65587700
 O                 -2.34986600   -1.56967800   -0.76603900
 O                 -3.78909400    0.13836200   -0.99066200
 C                  4.29147800    1.96160000   -1.14876400
 H                  4.82967500    2.90450800   -1.01897900
 H                  4.78168400    1.15582100   -0.58988500
 H                  4.24803800    1.68483800   -2.20864900
 C                 -4.75839200   -0.81241000   -1.43780300
 H                 -5.65825200   -0.23155800   -1.65786800
 H                 -4.40224600   -1.32825900   -2.33707900
 H                 -4.95940000   -1.55576100   -0.65693400
 N                 -0.93369900    2.63128900    0.82653400
 H                 -1.21505500    3.50134500    1.24915800
 C                  1.21903200    3.72272700    0.76383700
 H                  2.15018000    3.44234500    1.26252300
 H                  1.48735700    4.26275900   -0.15150900
 H                  0.66027600    4.40346900    1.41903100
 C                 -3.31863500    2.27470200    0.74047300
 H                 -3.71924800    2.84875400   -0.10535500
 H                 -4.01366800    1.46017300    0.94900300
 H                 -3.28034800    2.93388000    1.61857800
 N                  1.24119600   -2.51398800   -1.01436000
 O                  2.26035000   -3.17167000   -1.14299800
 O                  0.50172600   -2.20771900   -1.92994400
 H                 -0.01919200   -0.23190000   -1.33555200

 1 2 1.5 6 1.5 7 1.0
 2 3 1.5 11 1.0
 3 4 1.5 40 1.0
 4 5 1.5 8 1.0
 5 6 1.5 9 1.0
 6 10 1.0
 7
 8
 9
 10
 11 12 1.0 13 1.0 43 1.0
 12 14 2.0 19 1.0
 13 15 2.0 16 1.0
 14 30 1.0 36 1.0
 15 30 1.0 32 1.0
 16 17 2.0 18 1.0
 17
 18 22 1.0
 19 20 2.0 21 1.0
 20
 21 26 1.0
 22 23 1.0 24 1.0 25 1.0
 23
 24
 25
 26 27 1.0 28 1.0 29 1.0
 27
 28
 29
 30 31 1.0
 31
 32 33 1.0 34 1.0 35 1.0
 33
 34
 35
 36 37 1.0 38 1.0 39 1.0
 37
 38
 39
 40 41 2.0 42 2.0
 41
 42
 43

