%nprocshared=14
%mem=16GB
%chk=Nifedipine_DFT_B3LYP_6311pp2d3p_OptFreq_Raman_Hirshfeld_180_NO2.chk
#p opt freq=raman b3lyp/6-311++g(2d,3p) guess=save pop=hirshfeld
geom=connectivity

Nifedipine

0 1
 C                  1.08568947    0.85115242    0.84457313
 C                  1.11929376    0.28182504   -0.43552804
 C                  0.52082928    0.94692586   -1.51413971
 C                 -0.11123887    2.18135440   -1.31265033
 C                 -0.14484135    2.75068278   -0.03254953
 C                  0.45362214    2.08558142    1.04606234
 H                  1.54262911    0.34333250    1.66811733
 H                 -0.56818166    2.68917261   -2.13619386
 H                 -0.62744068    3.69319568    0.12129237
 H                  0.42796309    2.52027473    2.02344830
 C                  1.81387443   -1.07468969   -0.65694503
 C                  2.98205428   -1.23130089    0.32386726
 C                  0.80103089   -2.21443338   -0.49478358
 C                  3.29150212   -2.43475027    0.86510129
 C                  1.15493130   -3.39784511    0.06313556
 C                 -0.64121526   -2.01806658   -0.99774092
 O                 -0.98022309   -0.92758670   -1.52641652
 O                 -1.59520678   -3.07490887   -0.86400797
 C                  3.83508394   -0.00030040    0.68244530
 O                  3.56436752    1.12096363    0.17940437
 O                  4.93481527   -0.13139218    1.58704793
 C                 -2.54752494   -2.99484904   -1.92776570
 H                 -3.26135096   -3.78563295   -1.82769954
 H                 -3.05148957   -2.05192864   -1.88509492
 H                 -2.04230807   -3.08708062   -2.86646119
 C                  5.11955406    1.09777221    2.29410273
 H                  5.94242997    0.99968255    2.97097322
 H                  5.32309405    1.88330719    1.59667441
 H                  4.23136929    1.33005129    2.84371554
 N                  2.31007066   -3.53290059    0.97321434
 H                  1.95226806   -3.51658710    1.90686907
 C                  0.30511832   -4.64508594   -0.24314565
 H                 -0.70635951   -4.35038050   -0.43012514
 H                  0.69753537   -5.14087465   -1.10633880
 H                  0.33372464   -5.31059205    0.59422120
 C                  4.71386220   -2.65777121    1.41168467
 H                  5.40797171   -2.06677747    0.85147187
 H                  4.74954331   -2.36929782    2.44144676
 H                  4.97233476   -3.69219445    1.32190436
 N                  0.55607464    0.34972716   -2.85690234
 O                 -0.02471237    0.99517838   -3.90364930
 O                  1.09586219   -0.70447904   -3.02897478
 H                  2.20774296   -1.12093496   -1.65074027

 1 2 1.5 6 1.5 7 1.0
 2 3 1.5 11 1.0
 3 4 1.5 40 1.0
 4 5 1.5 8 1.0
 5 6 1.5 9 1.0
 6 10 1.0
 7
 8
 9
 10
 11 12 1.0 13 1.0 43 1.0
 12 14 2.0 19 1.0
 13 15 2.0 16 1.0
 14 30 1.0 36 1.0
 15 30 1.0 32 1.0
 16 17 2.0 18 1.0
 17
 18 22 1.0
 19 20 2.0 21 1.0
 20
 21 26 1.0
 22 23 1.0 24 1.0 25 1.0
 23
 24
 25
 26 27 1.0 28 1.0 29 1.0
 27
 28
 29
 30 31 1.0
 31
 32 33 1.0 34 1.0 35 1.0
 33
 34
 35
 36 37 1.0 38 1.0 39 1.0
 37
 38
 39
 40 41 1.0 42 2.0
 41
 42
 43

