%nprocshared=12
%mem=12GB
%chk=Nifedipine_DFT_B3LYP_6311pp2d3p_Opt_Freq_Raman_Pol_Pos2.chk
#p opt freq=raman b3lyp/6-311++g(2d,3p) geom=connectivity polar

Nifedipine

0 1
 C                 -0.25540972   -0.72953079   -2.00517732
 C                 -0.11935932   -1.14546822   -0.67385906
 C                  0.60632469   -2.30598214   -0.37300675
 C                  1.19595847   -3.05055849   -1.40347267
 C                  1.05990943   -2.63462017   -2.73479078
 C                  0.33422529   -1.47410635   -3.03564310
 H                 -0.80948776    0.15654590   -2.23488497
 H                  1.75003531   -3.93663597   -1.17376516
 H                  1.51010743   -3.20312104   -3.52157442
 H                  0.23034651   -1.15652973   -4.05213426
 C                 -0.76730833   -0.32725232    0.45852110
 C                 -0.75931633    1.16090110    0.08794942
 C                 -2.21661238   -0.78610129    0.66091496
 C                 -1.79950390    1.70160550   -0.59225321
 C                 -3.22254292   -0.19962819   -0.03275653
 C                 -2.53030313   -1.91854231    1.65629201
 O                 -1.59842395   -2.46510769    2.30161211
 O                 -3.88054101   -2.34899764    1.84725241
 C                  0.43607086    2.04464506    0.49000182
 O                  1.40337926    1.54541441    1.12139217
 O                  0.44685920    3.43257199    0.14584712
 C                 -3.89372798   -3.73485509    2.19956654
 H                 -4.90404584   -4.05694406    2.34245295
 H                 -3.44470333   -4.30672181    1.41455360
 H                 -3.34230196   -3.87786966    3.10531274
 C                  1.79663192    3.86767996   -0.03771399
 H                  1.80470433    4.90619871   -0.29522838
 H                  2.34517270    3.72081060    0.86916659
 H                  2.24998851    3.30160087   -0.82443011
 N                 -2.96151214    0.88630964   -0.99845393
 H                 -3.76755086    1.47648945   -1.04305618
 C                 -4.66927429   -0.67862952    0.18888757
 H                 -4.66496908   -1.71476663    0.45591072
 H                 -5.11680602   -0.10918719    0.97651108
 H                 -5.23124423   -0.54474736   -0.71175961
 C                 -1.76722161    3.19862204   -0.95211333
 H                 -2.21719891    3.76479699   -0.16352831
 H                 -0.75256878    3.51234735   -1.08232884
 H                 -2.30946722    3.35885665   -1.86051553
 N                  0.74903662   -2.74227907    1.02348109
 O                  1.38990051   -3.76714845    1.28916881
 O                  0.22832050   -2.08473152    1.93350291
 H                 -0.21577050   -0.47370648    1.36364937

 1 2 1.5 6 1.5 7 1.0
 2 3 1.5 11 1.0
 3 4 1.5 40 1.0
 4 5 1.5 8 1.0
 5 6 1.5 9 1.0
 6 10 1.0
 7
 8
 9
 10
 11 12 1.0 13 1.0 43 1.0
 12 14 2.0 19 1.0
 13 15 2.0 16 1.0
 14 30 1.0 36 1.0
 15 30 1.0 32 1.0
 16 17 2.0 18 1.0
 17
 18 22 1.0
 19 20 2.0 21 1.0
 20
 21 26 1.0
 22 23 1.0 24 1.0 25 1.0
 23
 24
 25
 26 27 1.0 28 1.0 29 1.0
 27
 28
 29
 30 31 1.0
 31
 32 33 1.0 34 1.0 35 1.0
 33
 34
 35
 36 37 1.0 38 1.0 39 1.0
 37
 38
 39
 40 41 1.5 42 1.5
 41
 42
 43

