%nprocshared=12
%mem=12GB
%chk=Nifedipine_DFT_B3LYP_6311pp2d3p_Opt_Freq_Raman_Pol.chk
#p opt freq=raman b3lyp/6-311++g(2d,3p) geom=connectivity polar

Nifedipine

0 1
 C                 -0.68635398   -1.13965612   -1.95542266
 C                 -0.11935930   -1.14546818   -0.67385907
 C                  1.03726894   -1.89585680   -0.42276140
 C                  1.62690270   -2.64043304   -1.45322740
 C                  1.05990894   -2.63461971   -2.73479137
 C                 -0.09671945   -1.88423133   -2.98588898
 H                 -1.56946688   -0.56671997   -2.14714063
 H                  2.51001475   -3.21337039   -1.26150908
 H                  1.51010706   -3.20312069   -3.52157488
 H                 -0.52963334   -1.87979492   -3.96439084
 C                 -0.76730833   -0.32725232    0.45852110
 C                 -0.17089136    1.08549313    0.47913379
 C                 -2.27961739   -0.22999577    0.22304220
 C                 -0.73480758    2.07635742   -0.25381474
 C                 -2.79396325    0.79179205   -0.50388632
 C                 -3.21787065   -1.29828217    0.81468824
 O                 -2.74323361   -2.24824918    1.48985703
 O                 -4.62846610   -1.21075444    0.59683660
 C                  1.07451053    1.37943871    1.33597106
 O                  1.60041416    0.46145330    2.01736576
 O                  1.63333748    2.69555338    1.35729332
 C                 -5.19115560   -2.52532471    0.58321542
 H                 -6.24663604   -2.45983198    0.42020757
 H                 -4.74361800   -3.09672748   -0.20298371
 H                 -5.00424614   -3.00304421    1.52223034
 C                  3.04286807    2.61131541    1.58318594
 H                  3.46101128    3.59610056    1.59914044
 H                  3.22560250    2.13099141    2.52169376
 H                  3.49667416    2.04382307    0.79774818
 N                 -1.92680200    1.83294791   -1.09039745
 H                 -2.44867427    2.68310666   -1.16025050
 C                 -4.31607284    0.86672262   -0.72562438
 H                 -4.72506487   -0.12201987   -0.72933586
 H                 -4.76380959    1.43494743    0.06276153
 H                 -4.51691371    1.33930246   -1.66436357
 C                 -0.11676550    3.48638119   -0.21564483
 H                 -0.56804103    4.05239843    0.57231130
 H                  0.93622836    3.40967098   -0.04180731
 H                 -0.28906497    3.97676598   -1.15091784
 N                  1.63201982   -1.90195171    0.92153552
 O                  2.65345786   -2.56463241    1.14328404
 O                  1.11130395   -1.24440436    1.83155762
 H                 -0.58123136   -0.80806029    1.39612393

 1 2 1.5 6 1.5 7 1.0
 2 3 1.5 11 1.0
 3 4 1.5 40 1.0
 4 5 1.5 8 1.0
 5 6 1.5 9 1.0
 6 10 1.0
 7
 8
 9
 10
 11 12 1.0 13 1.0 43 1.0
 12 14 2.0 19 1.0
 13 15 2.0 16 1.0
 14 30 1.0 36 1.0
 15 30 1.0 32 1.0
 16 17 2.0 18 1.0
 17
 18 22 1.0
 19 20 2.0 21 1.0
 20
 21 26 1.0
 22 23 1.0 24 1.0 25 1.0
 23
 24
 25
 26 27 1.0 28 1.0 29 1.0
 27
 28
 29
 30 31 1.0
 31
 32 33 1.0 34 1.0 35 1.0
 33
 34
 35
 36 37 1.0 38 1.0 39 1.0
 37
 38
 39
 40 41 1.5 42 1.5
 41
 42
 43

