%nprocshared=14
%mem=16GB
%chk=Nifedipine_DFT_B3LYP_6311pp2d3p_OptFreq_Raman_Hirshfeld.chk
#p opt freq=raman b3lyp/6-311++g(2d,3p) guess=save pop=hirshfeld
geom=connectivity

Nifedipine

0 1
 C                 -0.75584295    0.50762870   -0.21019598
 C                  0.57960603    0.07252467   -0.22318681
 C                  1.59306319    1.00980884   -0.49824846
 C                  1.28270118    2.35244979   -0.78266155
 C                 -0.05105759    2.77192150   -0.73348678
 C                 -1.07425194    1.85313493   -0.43924777
 H                 -1.53921512   -0.18299794   -0.02314325
 H                  2.06741650    3.05802626   -1.03750379
 H                 -0.29162170    3.79437772   -0.92218570
 H                 -2.10045917    2.17883877   -0.39317247
 C                  0.98906909   -1.40649652   -0.03829152
 C                  1.97311260   -1.80778896   -1.14247637
 C                  1.54390973   -1.65762998    1.35965054
 C                  2.96891439   -2.69680965   -0.91162589
 C                  2.54715578   -2.55960585    1.54844684
 C                  0.93298072   -0.90963990    2.56849178
 O                  0.02034703   -0.06877126    2.38777539
 O                  1.40182728   -1.16441397    3.90055045
 C                  1.83901083   -1.20710488   -2.54863458
 O                  0.91943755   -0.39846213   -2.80612420
 O                  2.76952215   -1.56089406   -3.57353483
 C                  0.34213141   -0.93954571    4.84900358
 H                  0.71531581   -1.10483201    5.84129536
 H                 -0.00263201    0.06768271    4.76474830
 H                 -0.46350659   -1.60964539    4.64823064
 C                  2.86917285   -0.44649182   -4.46820671
 H                  3.52667303   -0.69518561   -5.27560239
 H                  1.89398250   -0.22167318   -4.85197476
 H                  3.25472554    0.40132806   -3.94357554
 N                  3.48266705   -2.95481008    0.45585505
 H                  4.32199821   -2.41494340    0.56855719
 C                  2.70799900   -3.15246872    2.95388825
 H                  2.45760461   -2.41111724    3.68520349
 H                  2.05776948   -4.00245119    3.06921457
 H                  3.72207896   -3.46698449    3.09698871
 C                  3.59558851   -3.42193424   -2.12389392
 H                  2.81543442   -3.67194965   -2.83091627
 H                  4.31352866   -2.76460727   -2.59682308
 H                  4.09148903   -4.32187386   -1.79604202
 N                  2.98410815    0.57045595   -0.49501149
 O                  3.96863617    1.45912718   -0.81008904
 O                  3.24968375   -0.56955238   -0.21817941
 H                  0.12974368   -2.02248901   -0.16450335

 1 2 1.5 6 1.5 7 1.0
 2 3 1.5 11 1.0
 3 4 1.5 40 1.0
 4 5 1.5 8 1.0
 5 6 1.5 9 1.0
 6 10 1.0
 7
 8
 9
 10
 11 12 1.0 13 1.0 43 1.0
 12 14 2.0 19 1.0
 13 15 2.0 16 1.0
 14 30 1.0 36 1.0
 15 30 1.0 32 1.0
 16 17 2.0 18 1.0
 17
 18 22 1.0
 19 20 2.0 21 1.0
 20
 21 26 1.0
 22 23 1.0 24 1.0 25 1.0
 23
 24
 25
 26 27 1.0 28 1.0 29 1.0
 27
 28
 29
 30 31 1.0
 31
 32 33 1.0 34 1.0 35 1.0
 33
 34
 35
 36 37 1.0 38 1.0 39 1.0
 37
 38
 39
 40 41 1.0 42 2.0
 41
 42
 43

